     Program PWSCF v.6.4.1 starts on  8Sep2022 at 20: 1:45

     R & G space division:  proc/nbgrp/npool/nimage =       5
     Reading input from distance-2.8.in

     Current dimensions of program PWSCF are:
     Max number of different atomic species (ntypx) = 10
     Max number of k-points (npk) =  40000
     Max angular momentum in pseudopotentials (lmaxx) =  3

     IMPORTANT: XC functional enforced from input :
     Exchange-correlation      = RVV10 ( 1  4 13  4 3 0)
     Any further DFT definition will be discarded
     Please, verify this is what you really want

               file H.pbe-rrkjus.UPF: wavefunction(s)  1S renormalized
               file Cu.pbe-dn-rrkjus_psl.1.0.0.UPF: wavefunction(s)  3D renormalized

     Subspace diagonalization in iterative solution of the eigenvalue problem:
     a serial algorithm will be used

     bravais-lattice index     =            4
     lattice parameter (alat)  =      23.2937  a.u.
     unit-cell volume          =    8879.8548 (a.u.)^3
     number of atoms/cell      =           52
     number of atomic types    =            3
     number of electrons       =       209.00
     number of Kohn-Sham states=          126
     kinetic-energy cutoff     =      70.0000  Ry
     charge density cutoff     =     490.0000  Ry
     convergence threshold     =      1.0E-05
     mixing beta               =       0.7000
     number of iterations used =            8  plain     mixing
     Exchange-correlation      = RVV10 ( 1  4 13  4 3 0)
     nstep                     =           50

     celldm(1)=  23.293684  celldm(2)=   0.000000  celldm(3)=   0.811261
     celldm(4)=   0.000000  celldm(5)=   0.000000  celldm(6)=   0.000000

     crystal axes: (cart. coord. in units of alat)
               a(1) = (   1.000000   0.000000   0.000000 )
               a(2) = (  -0.500000   0.866025   0.000000 )
               a(3) = (   0.000000   0.000000   0.811261 )

     reciprocal axes: (cart. coord. in units 2 pi/alat)
               b(1) = (  1.000000  0.577350 -0.000000 )
               b(2) = (  0.000000  1.154701  0.000000 )
               b(3) = (  0.000000 -0.000000  1.232649 )

     PseudoPot. # 1 for H  read from file:
     /home/cristian/Escritorio/Proyecto_Grafeno/pseudopotenciales/H.pbe-rrkjus.UPF
     MD5 check sum: 7cc9d459525c9a0585f487a71c3c9563
     Pseudo is Ultrasoft, Zval =  1.0
     Generated by new atomic code, or converted to UPF format
     Using radial grid of 1061 points,  2 beta functions with:
                l(1) =   0
                l(2) =   0
     Q(r) pseudized with 0 coefficients

     PseudoPot. # 2 for C  read from file:
     /home/cristian/Escritorio/Proyecto_Grafeno/pseudopotenciales/C.pbe-n-rrkjus_psl.1.0.0.UPF
     MD5 check sum: 1fdd950c42eb37d8afe3dd2f8d12311e
     Pseudo is Ultrasoft + core correction, Zval =  4.0
     Generated using "atomic" code by A. Dal Corso v.6.3MaX
     Using radial grid of 1073 points,  4 beta functions with:
                l(1) =   0
                l(2) =   0
                l(3) =   1
                l(4) =   1
     Q(r) pseudized with 0 coefficients

     PseudoPot. # 3 for Cu read from file:
     /home/cristian/Escritorio/Proyecto_Grafeno/pseudopotenciales/Cu.pbe-dn-rrkjus_psl.1.0.0.UPF
     MD5 check sum: ba3d6c84e19846e79d48cdc68ff7152b
     Pseudo is Ultrasoft + core correction, Zval = 11.0
     Generated using "atomic" code by A. Dal Corso v.6.3
     Using radial grid of 1199 points,  6 beta functions with:
                l(1) =   0
                l(2) =   0
                l(3) =   1
                l(4) =   1
                l(5) =   2
                l(6) =   2
     Q(r) pseudized with 0 coefficients

     vdW kernel table read from file rVV10_kernel_table
     MD5 check sum: b8e2538accc0c0b3206b45ba4daaba6c

     atomic species   valence    mass     pseudopotential
        H              1.00     1.00794     H ( 1.00)
        C              4.00    12.01070     C ( 1.00)
        Cu            11.00    63.54600     Cu( 1.00)

     Starting magnetic structure
     atomic species   magnetization
        H            0.500
        C            0.300
        Cu           0.800

      2 Sym. Ops. (no inversion) found

                                    s                        frac. trans.

      isym =  1     identity

 cryst.   s( 1) = (     1          0          0      )
                  (     0          1          0      )
                  (     0          0          1      )

 cart.    s( 1) = (  1.0000000  0.0000000  0.0000000 )
                  (  0.0000000  1.0000000  0.0000000 )
                  (  0.0000000  0.0000000  1.0000000 )

      isym =  2     inv. 180 deg rotation - cryst. axis [1,1,0]

 cryst.   s( 2) = (     0         -1          0      )
                  (    -1          0          0      )
                  (     0          0          1      )

 cart.    s( 2) = (  0.5000000 -0.8660254  0.0000000 )
                  ( -0.8660254 -0.5000000  0.0000000 )
                  (  0.0000000  0.0000000  1.0000000 )

     point group C_s (m)
     there are  2 classes
     the character table:

       E     s
A'     1.00  1.00
A''    1.00 -1.00

     the symmetry operations in each class and the name of the first element:

     E        1
          identity
     s        2
          inv. 180 deg rotation - cryst. axis [1,1,0]

   Cartesian axes

     site n.     atom                  positions (alat units)
         1           H   tau(   1) = (   0.3000000   0.4041452   0.2271531  )
         2           H   tau(   2) = (   0.3000000   0.4041452   0.2881658  )
         3           C   tau(   3) = (   0.0000000   0.0000000   0.0000000  )
         4           C   tau(   4) = (   0.0000000   0.1154701   0.0000000  )
         5           C   tau(   5) = (  -0.1000000   0.1732051   0.0000000  )
         6           C   tau(   6) = (  -0.1000000   0.2886751   0.0000000  )
         7           C   tau(   7) = (  -0.2000000   0.3464102   0.0000000  )
         8           C   tau(   8) = (  -0.2000000   0.4618802   0.0000000  )
         9           C   tau(   9) = (  -0.3000000   0.5196152   0.0000000  )
        10           C   tau(  10) = (  -0.3000000   0.6350853   0.0000000  )
        11           C   tau(  11) = (  -0.4000000   0.6928203   0.0000000  )
        12           C   tau(  12) = (  -0.4000000   0.8082904   0.0000000  )
        13           C   tau(  13) = (   0.2000000   0.0000000   0.0000000  )
        14           C   tau(  14) = (   0.2000000   0.1154701   0.0000000  )
        15           C   tau(  15) = (   0.1000000   0.1732051   0.0000000  )
        16           C   tau(  16) = (   0.1000000   0.2886751   0.0000000  )
        17           C   tau(  17) = (   0.0000000   0.3464102   0.0000000  )
        18           C   tau(  18) = (   0.0000000   0.4618802   0.0000000  )
        19           C   tau(  19) = (  -0.1000000   0.5196152   0.0000000  )
        20           C   tau(  20) = (  -0.1000000   0.6350853   0.0000000  )
        21           C   tau(  21) = (  -0.2000000   0.6928203   0.0000000  )
        22           C   tau(  22) = (  -0.2000000   0.8082904   0.0000000  )
        23           C   tau(  23) = (   0.4000000   0.0000000   0.0000000  )
        24           C   tau(  24) = (   0.4000000   0.1154701   0.0000000  )
        25           C   tau(  25) = (   0.3000000   0.1732051   0.0000000  )
        26           C   tau(  26) = (   0.3000000   0.2886751   0.0000000  )
        27           C   tau(  27) = (   0.2000000   0.3464102   0.0000000  )
        28           Cu  tau(  28) = (   0.2000000   0.4618802   0.0000000  )
        29           C   tau(  29) = (   0.1000000   0.5196152   0.0000000  )
        30           C   tau(  30) = (   0.1000000   0.6350853   0.0000000  )
        31           C   tau(  31) = (   0.0000000   0.6928203   0.0000000  )
        32           C   tau(  32) = (   0.0000000   0.8082904   0.0000000  )
        33           C   tau(  33) = (   0.6000000   0.0000000   0.0000000  )
        34           C   tau(  34) = (   0.6000000   0.1154701   0.0000000  )
        35           C   tau(  35) = (   0.5000000   0.1732051   0.0000000  )
        36           C   tau(  36) = (   0.5000000   0.2886751   0.0000000  )
        37           C   tau(  37) = (   0.4000000   0.3464102   0.0000000  )
        38           C   tau(  38) = (   0.4000000   0.4618802   0.0000000  )
        39           C   tau(  39) = (   0.3000000   0.5196152   0.0000000  )
        40           C   tau(  40) = (   0.3000000   0.6350853   0.0000000  )
        41           C   tau(  41) = (   0.2000000   0.6928203   0.0000000  )
        42           C   tau(  42) = (   0.2000000   0.8082904   0.0000000  )
        43           C   tau(  43) = (   0.8000000   0.0000000   0.0000000  )
        44           C   tau(  44) = (   0.8000000   0.1154701   0.0000000  )
        45           C   tau(  45) = (   0.7000000   0.1732051   0.0000000  )
        46           C   tau(  46) = (   0.7000000   0.2886751   0.0000000  )
        47           C   tau(  47) = (   0.6000000   0.3464102   0.0000000  )
        48           C   tau(  48) = (   0.6000000   0.4618802   0.0000000  )
        49           C   tau(  49) = (   0.5000000   0.5196152   0.0000000  )
        50           C   tau(  50) = (   0.5000000   0.6350853   0.0000000  )
        51           C   tau(  51) = (   0.4000000   0.6928203   0.0000000  )
        52           C   tau(  52) = (   0.4000000   0.8082904   0.0000000  )

   Crystallographic axes

     site n.     atom                  positions (cryst. coord.)
         1           H   tau(   1) = (  0.5333333  0.4666667  0.2800000  )
         2           H   tau(   2) = (  0.5333333  0.4666667  0.3552072  )
         3           C   tau(   3) = (  0.0000000  0.0000000  0.0000000  )
         4           C   tau(   4) = (  0.0666667  0.1333333  0.0000000  )
         5           C   tau(   5) = (  0.0000000  0.2000000  0.0000000  )
         6           C   tau(   6) = (  0.0666667  0.3333333  0.0000000  )
         7           C   tau(   7) = (  0.0000000  0.4000000  0.0000000  )
         8           C   tau(   8) = (  0.0666667  0.5333333  0.0000000  )
         9           C   tau(   9) = (  0.0000000  0.6000000  0.0000000  )
        10           C   tau(  10) = (  0.0666667  0.7333333  0.0000000  )
        11           C   tau(  11) = (  0.0000000  0.8000000  0.0000000  )
        12           C   tau(  12) = (  0.0666667  0.9333333  0.0000000  )
        13           C   tau(  13) = (  0.2000000  0.0000000  0.0000000  )
        14           C   tau(  14) = (  0.2666667  0.1333333  0.0000000  )
        15           C   tau(  15) = (  0.2000000  0.2000000  0.0000000  )
        16           C   tau(  16) = (  0.2666667  0.3333333  0.0000000  )
        17           C   tau(  17) = (  0.2000000  0.4000000  0.0000000  )
        18           C   tau(  18) = (  0.2666667  0.5333333  0.0000000  )
        19           C   tau(  19) = (  0.2000000  0.6000000  0.0000000  )
        20           C   tau(  20) = (  0.2666667  0.7333333  0.0000000  )
        21           C   tau(  21) = (  0.2000000  0.8000000  0.0000000  )
[...]
     atom   39 type  2   force =    -6.26120027   -3.77054634    0.26867382
     atom   40 type  2   force =    -1.23499611   -2.20830349    0.12208341
     atom   41 type  2   force =     0.03565125   -1.91289786    0.06880799
     atom   42 type  2   force =     0.00809059   -0.71585951    0.03228636
     atom   43 type  2   force =    -0.05764118   -0.35845410    0.02512585
     atom   44 type  2   force =     0.05152105   -0.02974569    0.01973915
     atom   45 type  2   force =    -0.03220013    0.01859076    0.02510085
     atom   46 type  2   force =    -0.04966788    0.07880735    0.03227870
     atom   47 type  2   force =    -0.41731340    0.13291340    0.06891628
     atom   48 type  2   force =    -0.47422253   -0.03683352    0.06890638
     atom   49 type  2   force =    -1.00835466   -0.23796457    0.12216866
     atom   50 type  2   force =    -0.64422000   -0.41359845    0.06890440
     atom   51 type  2   force =    -0.61533465   -0.78553761    0.06884921
     atom   52 type  2   force =    -0.20297861   -0.36013019    0.03227655
     The core correction contribution to forces
     atom    1 type  1   force =     0.00000000    0.00000000    0.00000000
     atom    2 type  1   force =     0.00000000    0.00000000    0.00000000
     atom    3 type  2   force =     0.00004628   -0.00002672    0.00000156
     atom    4 type  2   force =    -0.00027736   -0.00015458    0.00000036
     atom    5 type  2   force =    -0.00014651   -0.00003996    0.00000154
     atom    6 type  2   force =    -0.00014532   -0.00008425    0.00000203
     atom    7 type  2   force =    -0.00010744   -0.00010523    0.00000090
     atom    8 type  2   force =    -0.00026844   -0.00016084    0.00000291
     atom    9 type  2   force =     0.00000154    0.00005208   -0.00000135
     atom   10 type  2   force =     0.00000068    0.00001342   -0.00000042
     atom   11 type  2   force =     0.00013148    0.00007566    0.00000073
     atom   12 type  2   force =     0.00001186   -0.00000684    0.00000241
     atom   13 type  2   force =     0.00000022   -0.00015170    0.00000073
     atom   14 type  2   force =     0.00000055   -0.00013648    0.00000190
     atom   15 type  2   force =    -0.00019589   -0.00061640    0.00000142
     atom   16 type  2   force =    -0.00108244   -0.00089100   -0.00000052
     atom   17 type  2   force =     0.00012977    0.00008433    0.00000096
     atom   18 type  2   force =    -0.00129744   -0.00048893   -0.00000142
     atom   19 type  2   force =    -0.00061415    0.00013277   -0.00000050
     atom   20 type  2   force =    -0.00011400    0.00006582    0.00000213
     atom   21 type  2   force =    -0.00012778    0.00007377   -0.00000041
     atom   22 type  2   force =    -0.00001128   -0.00000729   -0.00000042
     atom   23 type  2   force =    -0.00004433   -0.00002737   -0.00000135
     atom   24 type  2   force =     0.00027479   -0.00015387    0.00000239
     atom   25 type  2   force =     0.00019260   -0.00060451    0.00000227
     atom   26 type  2   force =     0.00104418   -0.00087026   -0.00000007
     atom   27 type  2   force =    -0.00001553    0.00957825    0.00001143
     atom   28 type  3   force =    -0.00106612    0.00061552    0.00013778
     atom   29 type  2   force =     0.00836294   -0.00482835    0.00000058
     atom   30 type  2   force =    -0.00022530    0.00136808   -0.00000142
     atom   31 type  2   force =    -0.00042206    0.00046549   -0.00000050
     atom   32 type  2   force =     0.00000507    0.00031290    0.00000291
     atom   33 type  2   force =     0.00003741    0.00014566    0.00000090
     atom   34 type  2   force =     0.00022038    0.00012595   -0.00000202
     atom   35 type  2   force =     0.00014629   -0.00004457    0.00000290
     atom   36 type  2   force =     0.00014964   -0.00008639    0.00000521
     atom   37 type  2   force =    -0.00012767    0.00007371   -0.00001302
     atom   38 type  2   force =     0.00127576   -0.00046916   -0.00000007
     atom   39 type  2   force =    -0.00830277   -0.00477567    0.00001143
     atom   40 type  2   force =     0.00023041    0.00138292   -0.00000052
     atom   41 type  2   force =    -0.00000815   -0.00015455    0.00000096
     atom   42 type  2   force =     0.00000030    0.00016797    0.00000203
     atom   43 type  2   force =    -0.00003864    0.00014686    0.00000154
     atom   44 type  2   force =    -0.00021948    0.00012671   -0.00000200
     atom   45 type  2   force =     0.00000052   -0.00000030   -0.00000107
     atom   46 type  2   force =     0.00000112   -0.00025383   -0.00000202
     atom   47 type  2   force =     0.00011174   -0.00010440    0.00000290
     atom   48 type  2   force =     0.00027065   -0.00016104    0.00000239
     atom   49 type  2   force =     0.00061982    0.00013546    0.00000227
     atom   50 type  2   force =     0.00011847    0.00006777    0.00000190
     atom   51 type  2   force =     0.00043587    0.00047785    0.00000142
     atom   52 type  2   force =    -0.00000481    0.00031749    0.00000036
     The Hubbard contrib.    to forces
     atom    1 type  1   force =     0.00000000    0.00000000    0.00000000
     atom    2 type  1   force =     0.00000000    0.00000000    0.00000000
     atom    3 type  2   force =     0.00000000    0.00000000    0.00000000
     atom    4 type  2   force =     0.00000000    0.00000000    0.00000000
     atom    5 type  2   force =     0.00000000    0.00000000    0.00000000
     atom    6 type  2   force =     0.00000000    0.00000000    0.00000000
     atom    7 type  2   force =     0.00000000    0.00000000    0.00000000
     atom    8 type  2   force =     0.00000000    0.00000000    0.00000000
     atom    9 type  2   force =     0.00000000    0.00000000    0.00000000
     atom   10 type  2   force =     0.00000000    0.00000000    0.00000000
     atom   11 type  2   force =     0.00000000    0.00000000    0.00000000
     atom   12 type  2   force =     0.00000000    0.00000000    0.00000000
     atom   13 type  2   force =     0.00000000    0.00000000    0.00000000
     atom   14 type  2   force =     0.00000000    0.00000000    0.00000000
     atom   15 type  2   force =     0.00000000    0.00000000    0.00000000
     atom   16 type  2   force =     0.00000000    0.00000000    0.00000000
     atom   17 type  2   force =     0.00000000    0.00000000    0.00000000
     atom   18 type  2   force =     0.00000000    0.00000000    0.00000000
     atom   19 type  2   force =     0.00000000    0.00000000    0.00000000
     atom   20 type  2   force =     0.00000000    0.00000000    0.00000000
     atom   21 type  2   force =     0.00000000    0.00000000    0.00000000
     atom   22 type  2   force =     0.00000000    0.00000000    0.00000000
     atom   23 type  2   force =     0.00000000    0.00000000    0.00000000
     atom   24 type  2   force =     0.00000000    0.00000000    0.00000000
     atom   25 type  2   force =     0.00000000    0.00000000    0.00000000
     atom   26 type  2   force =     0.00000000    0.00000000    0.00000000
     atom   27 type  2   force =     0.00000000    0.00000000    0.00000000
     atom   28 type  3   force =     0.00000000    0.00000000    0.00000000
     atom   29 type  2   force =     0.00000000    0.00000000    0.00000000
     atom   30 type  2   force =     0.00000000    0.00000000    0.00000000
     atom   31 type  2   force =     0.00000000    0.00000000    0.00000000
     atom   32 type  2   force =     0.00000000    0.00000000    0.00000000
     atom   33 type  2   force =     0.00000000    0.00000000    0.00000000
     atom   34 type  2   force =     0.00000000    0.00000000    0.00000000
     atom   35 type  2   force =     0.00000000    0.00000000    0.00000000
     atom   36 type  2   force =     0.00000000    0.00000000    0.00000000
     atom   37 type  2   force =     0.00000000    0.00000000    0.00000000
     atom   38 type  2   force =     0.00000000    0.00000000    0.00000000
     atom   39 type  2   force =     0.00000000    0.00000000    0.00000000
     atom   40 type  2   force =     0.00000000    0.00000000    0.00000000
     atom   41 type  2   force =     0.00000000    0.00000000    0.00000000
     atom   42 type  2   force =     0.00000000    0.00000000    0.00000000
     atom   43 type  2   force =     0.00000000    0.00000000    0.00000000
     atom   44 type  2   force =     0.00000000    0.00000000    0.00000000
     atom   45 type  2   force =     0.00000000    0.00000000    0.00000000
     atom   46 type  2   force =     0.00000000    0.00000000    0.00000000
     atom   47 type  2   force =     0.00000000    0.00000000    0.00000000
     atom   48 type  2   force =     0.00000000    0.00000000    0.00000000
     atom   49 type  2   force =     0.00000000    0.00000000    0.00000000
     atom   50 type  2   force =     0.00000000    0.00000000    0.00000000
     atom   51 type  2   force =     0.00000000    0.00000000    0.00000000
     atom   52 type  2   force =     0.00000000    0.00000000    0.00000000
     The SCF correction term to forces
     atom    1 type  1   force =    -0.00000011    0.00000006   -0.00000033
     atom    2 type  1   force =    -0.00000000    0.00000000   -0.00000030
     atom    3 type  2   force =    -0.00000000    0.00000000    0.00000000
     atom    4 type  2   force =     0.00000000    0.00000000    0.00000000
     atom    5 type  2   force =     0.00000000   -0.00000000    0.00000000
     atom    6 type  2   force =     0.00000000   -0.00000000   -0.00000000
     atom    7 type  2   force =     0.00000000   -0.00000000   -0.00000000
     atom    8 type  2   force =    -0.00000000   -0.00000000    0.00000000
     atom    9 type  2   force =    -0.00000000    0.00000000    0.00000000
     atom   10 type  2   force =    -0.00000000    0.00000000    0.00000000
     atom   11 type  2   force =    -0.00000000    0.00000000    0.00000000
     atom   12 type  2   force =    -0.00000000    0.00000000    0.00000000
     atom   13 type  2   force =    -0.00000000    0.00000000    0.00000000
     atom   14 type  2   force =    -0.00000000    0.00000000    0.00000000
     atom   15 type  2   force =    -0.00000000    0.00000000    0.00000000
     atom   16 type  2   force =     0.00000000   -0.00000000   -0.00000000
     atom   17 type  2   force =     0.00000000   -0.00000000   -0.00000000
     atom   18 type  2   force =    -0.00000000   -0.00000000   -0.00000000
     atom   19 type  2   force =    -0.00000000   -0.00000000   -0.00000000
     atom   20 type  2   force =    -0.00000000    0.00000000    0.00000000
     atom   21 type  2   force =    -0.00000000    0.00000000    0.00000000
     atom   22 type  2   force =    -0.00000000    0.00000000    0.00000000
     atom   23 type  2   force =    -0.00000000    0.00000000    0.00000000
     atom   24 type  2   force =    -0.00000000   -0.00000000    0.00000000
     atom   25 type  2   force =    -0.00000000   -0.00000000   -0.00000000
     atom   26 type  2   force =    -0.00000000    0.00000000   -0.00000000
     atom   27 type  2   force =    -0.00000000    0.00000000   -0.00000000
     atom   28 type  3   force =     0.00000000   -0.00000000   -0.00000000
     atom   29 type  2   force =     0.00000000   -0.00000000   -0.00000000
     atom   30 type  2   force =     0.00000000    0.00000000   -0.00000000
     atom   31 type  2   force =    -0.00000000    0.00000000   -0.00000000
     atom   32 type  2   force =     0.00000000    0.00000000    0.00000000
     atom   33 type  2   force =     0.00000000    0.00000000   -0.00000000
     atom   34 type  2   force =     0.00000000   -0.00000000    0.00000000
     atom   35 type  2   force =     0.00000000   -0.00000000    0.00000000
     atom   36 type  2   force =    -0.00000000    0.00000000    0.00000000
     atom   37 type  2   force =     0.00000000   -0.00000000    0.00000000
     atom   38 type  2   force =    -0.00000000    0.00000000   -0.00000000
     atom   39 type  2   force =    -0.00000000    0.00000000   -0.00000000
     atom   40 type  2   force =     0.00000000   -0.00000000   -0.00000000
     atom   41 type  2   force =     0.00000000   -0.00000000   -0.00000000
     atom   42 type  2   force =     0.00000000   -0.00000000   -0.00000000
     atom   43 type  2   force =     0.00000000   -0.00000000    0.00000000
     atom   44 type  2   force =     0.00000000   -0.00000000   -0.00000000
     atom   45 type  2   force =     0.00000000   -0.00000000    0.00000000
     atom   46 type  2   force =     0.00000000   -0.00000000    0.00000000
     atom   47 type  2   force =     0.00000000   -0.00000000    0.00000000
     atom   48 type  2   force =     0.00000000    0.00000000    0.00000000
     atom   49 type  2   force =    -0.00000000    0.00000000   -0.00000000
     atom   50 type  2   force =    -0.00000000    0.00000000    0.00000000
     atom   51 type  2   force =    -0.00000000   -0.00000000    0.00000000
     atom   52 type  2   force =     0.00000000   -0.00000000    0.00000000

     Total force =     0.000301     Total SCF correction =     0.000000

     bfgs converged in   3 scf cycles and   2 bfgs steps
     (criteria: energy <  1.0E-04 Ry, force <  1.0E-03 Ry/Bohr)

     End of BFGS Geometry Optimization

     Final energy   =    -734.7610506519 Ry
Begin final coordinates

ATOMIC_POSITIONS (angstrom)
H        3.697921712   4.981704347   2.801701605
H        3.697969764   4.981676605   3.550135296
C        0.000000000   0.000000000   0.000000000    0   0   0
C        0.000000000   1.423340089   0.000000000    0   0   0
C       -1.232648675   2.135010133   0.000000000    0   0   0
C       -1.232648675   3.558350222   0.000000000    0   0   0
C       -2.465297350   4.270020266   0.000000000    0   0   0
C       -2.465297350   5.693360355   0.000000000    0   0   0
C       -3.697946025   6.405030399   0.000000000    0   0   0
C       -3.697946025   7.828370488   0.000000000    0   0   0
C       -4.930594700   8.540040532   0.000000000    0   0   0
C       -4.930594700   9.963380621   0.000000000    0   0   0
C        2.465297350   0.000000000   0.000000000    0   0   0
C        2.465297350   1.423340089   0.000000000    0   0   0
C        1.232648675   2.135010133   0.000000000    0   0   0
C        1.232648675   3.558350222   0.000000000    0   0   0
C        0.000000000   4.270020266   0.000000000    0   0   0
C        0.000000000   5.693360355   0.000000000    0   0   0
C       -1.232648675   6.405030399   0.000000000    0   0   0
C       -1.232648675   7.828370488   0.000000000    0   0   0
C       -2.465297350   8.540040532   0.000000000    0   0   0
C       -2.465297350   9.963380621   0.000000000    0   0   0
C        4.930594700   0.000000000   0.000000000    0   0   0
C        4.930594700   1.423340089   0.000000000    0   0   0
C        3.697946025   2.135010133   0.000000000    0   0   0
C        3.697946025   3.558350222   0.000000000    0   0   0
C        2.465297350   4.270020266   0.000000000    0   0   0
Cu       2.465297350   5.693360355   0.000000000    0   0   0
C        1.232648675   6.405030399   0.000000000    0   0   0
C        1.232648675   7.828370488   0.000000000    0   0   0
C        0.000000000   8.540040532   0.000000000    0   0   0
C        0.000000000   9.963380621   0.000000000    0   0   0
C        7.395892050   0.000000000   0.000000000    0   0   0
C        7.395892050   1.423340089   0.000000000    0   0   0
C        6.163243375   2.135010133   0.000000000    0   0   0
C        6.163243375   3.558350222   0.000000000    0   0   0
C        4.930594700   4.270020266   0.000000000    0   0   0
C        4.930594700   5.693360355   0.000000000    0   0   0
C        3.697946025   6.405030399   0.000000000    0   0   0
C        3.697946025   7.828370488   0.000000000    0   0   0
C        2.465297350   8.540040532   0.000000000    0   0   0
C        2.465297350   9.963380621   0.000000000    0   0   0
C        9.861189400   0.000000000   0.000000000    0   0   0
C        9.861189400   1.423340089   0.000000000    0   0   0
C        8.628540725   2.135010133   0.000000000    0   0   0
C        8.628540725   3.558350222   0.000000000    0   0   0
C        7.395892050   4.270020266   0.000000000    0   0   0
C        7.395892050   5.693360355   0.000000000    0   0   0
C        6.163243375   6.405030399   0.000000000    0   0   0
C        6.163243375   7.828370488   0.000000000    0   0   0
C        4.930594700   8.540040532   0.000000000    0   0   0
C        4.930594700   9.963380621   0.000000000    0   0   0
End final coordinates

     Writing output data file cobre-sixhollow-2.8.save/

     General routines

     Parallel routines

   This run was terminated on:  21:32:17   8Sep2022

   JOB DONE.