     Program PWSCF v.6.4.1 starts on  8Jan2023 at  3:50:28

     R & G space division:  proc/nbgrp/npool/nimage =       6
     Reading input from distance-4.0.in

     Current dimensions of program PWSCF are:
     Max number of different atomic species (ntypx) = 10
     Max number of k-points (npk) =  40000
     Max angular momentum in pseudopotentials (lmaxx) =  3

     IMPORTANT: XC functional enforced from input :
     Exchange-correlation      = RVV10 ( 1  4 13  4 3 0)
     Any further DFT definition will be discarded
     Please, verify this is what you really want

               file H.pbe-rrkjus.UPF: wavefunction(s)  1S renormalized

     Subspace diagonalization in iterative solution of the eigenvalue problem:
     a serial algorithm will be used

     bravais-lattice index     =            4
     lattice parameter (alat)  =      23.2937  a.u.
     unit-cell volume          =    8879.8548 (a.u.)^3
     number of atoms/cell      =           52
     number of atomic types    =            3
     number of electrons       =       214.00
     number of Kohn-Sham states=          128
     kinetic-energy cutoff     =      70.0000  Ry
     charge density cutoff     =     490.0000  Ry
     convergence threshold     =      1.0E-06
     mixing beta               =       0.3000
     number of iterations used =            4  plain     mixing
     Exchange-correlation      = RVV10 ( 1  4 13  4 3 0)

     celldm(1)=  23.293684  celldm(2)=   0.000000  celldm(3)=   0.811261
     celldm(4)=   0.000000  celldm(5)=   0.000000  celldm(6)=   0.000000

     crystal axes: (cart. coord. in units of alat)
               a(1) = (   1.000000   0.000000   0.000000 )
               a(2) = (  -0.500000   0.866025   0.000000 )
               a(3) = (   0.000000   0.000000   0.811261 )

     reciprocal axes: (cart. coord. in units 2 pi/alat)
               b(1) = (  1.000000  0.577350 -0.000000 )
               b(2) = (  0.000000  1.154701  0.000000 )
               b(3) = (  0.000000 -0.000000  1.232649 )

     PseudoPot. # 1 for H  read from file:
     /home/cristian/Escritorio/Proyecto_Grafeno/pseudopotenciales/H.pbe-rrkjus.UPF
     MD5 check sum: 7cc9d459525c9a0585f487a71c3c9563
     Pseudo is Ultrasoft, Zval =  1.0
     Generated by new atomic code, or converted to UPF format
     Using radial grid of 1061 points,  2 beta functions with:
                l(1) =   0
                l(2) =   0
     Q(r) pseudized with 0 coefficients

     PseudoPot. # 2 for C  read from file:
     /home/cristian/Escritorio/Proyecto_Grafeno/pseudopotenciales/C.pbe-n-rrkjus_psl.1.0.0.UPF
     MD5 check sum: 1fdd950c42eb37d8afe3dd2f8d12311e
     Pseudo is Ultrasoft + core correction, Zval =  4.0
     Generated using "atomic" code by A. Dal Corso v.6.3MaX
     Using radial grid of 1073 points,  4 beta functions with:
                l(1) =   0
                l(2) =   0
                l(3) =   1
                l(4) =   1
     Q(r) pseudized with 0 coefficients

     PseudoPot. # 3 for Fe read from file:
     /home/cristian/Escritorio/Proyecto_Grafeno/pseudopotenciales/Fe.pbe-spn-rrkjus_psl.1.0.0.UPF
     MD5 check sum: 72ea77fed8e64ab3a2ccf2804dfc1862
     Pseudo is Ultrasoft + core correction, Zval = 16.0
     Generated using "atomic" code by A. Dal Corso v.6.3
     Using radial grid of 1191 points,  6 beta functions with:
                l(1) =   0
                l(2) =   0
                l(3) =   1
                l(4) =   1
                l(5) =   2
                l(6) =   2
     Q(r) pseudized with 0 coefficients

     vdW kernel table read from file rVV10_kernel_table
     MD5 check sum: b8e2538accc0c0b3206b45ba4daaba6c

     atomic species   valence    mass     pseudopotential
        H              1.00     1.00794     H ( 1.00)
        C              4.00    12.01070     C ( 1.00)
        Fe            16.00    55.84500     Fe( 1.00)

     Starting magnetic structure
     atomic species   magnetization
        H            0.500
        C            0.300
        Fe           0.800

     No symmetry found

                                    s                        frac. trans.

      isym =  1     identity

 cryst.   s( 1) = (     1          0          0      )
                  (     0          1          0      )
                  (     0          0          1      )

 cart.    s( 1) = (  1.0000000  0.0000000  0.0000000 )
                  (  0.0000000  1.0000000  0.0000000 )
                  (  0.0000000  0.0000000  1.0000000 )

     point group C_1 (1)
     there are  1 classes
     the character table:

       E
A      1.00

     the symmetry operations in each class and the name of the first element:

     E        1
          identity

   Cartesian axes

     site n.     atom                  positions (alat units)
         1           H   tau(   1) = (   0.1694937   0.4618802   0.3245045  )
         2           H   tau(   2) = (   0.2305063   0.4618802   0.3245045  )
         3           C   tau(   3) = (   0.0000000   0.0000000   0.0000000  )
         4           C   tau(   4) = (   0.0000000   0.1154701   0.0000000  )
         5           C   tau(   5) = (  -0.1000000   0.1732051   0.0000000  )
         6           C   tau(   6) = (  -0.1000000   0.2886751   0.0000000  )
         7           C   tau(   7) = (  -0.2000000   0.3464102   0.0000000  )
         8           C   tau(   8) = (  -0.2000000   0.4618802   0.0000000  )
         9           C   tau(   9) = (  -0.3000000   0.5196152   0.0000000  )
        10           C   tau(  10) = (  -0.3000000   0.6350853   0.0000000  )
        11           C   tau(  11) = (  -0.4000000   0.6928203   0.0000000  )
        12           C   tau(  12) = (  -0.4000000   0.8082904   0.0000000  )
        13           C   tau(  13) = (   0.2000000   0.0000000   0.0000000  )
        14           C   tau(  14) = (   0.2000000   0.1154701   0.0000000  )
        15           C   tau(  15) = (   0.1000000   0.1732051   0.0000000  )
        16           C   tau(  16) = (   0.1000000   0.2886751   0.0000000  )
        17           C   tau(  17) = (   0.0000000   0.3464102   0.0000000  )
        18           C   tau(  18) = (   0.0000000   0.4618802   0.0000000  )
        19           C   tau(  19) = (  -0.1000000   0.5196152   0.0000000  )
        20           C   tau(  20) = (  -0.1000000   0.6350853   0.0000000  )
        21           C   tau(  21) = (  -0.2000000   0.6928203   0.0000000  )
        22           C   tau(  22) = (  -0.2000000   0.8082904   0.0000000  )
        23           C   tau(  23) = (   0.4000000   0.0000000   0.0000000  )
        24           C   tau(  24) = (   0.4000000   0.1154701   0.0000000  )
        25           C   tau(  25) = (   0.3000000   0.1732051   0.0000000  )
        26           C   tau(  26) = (   0.3000000   0.2886751   0.0000000  )
        27           C   tau(  27) = (   0.2000000   0.3464102   0.0000000  )
        28           Fe  tau(  28) = (   0.2000000   0.4618802   0.0000000  )
        29           C   tau(  29) = (   0.1000000   0.5196152   0.0000000  )
        30           C   tau(  30) = (   0.1000000   0.6350853   0.0000000  )
        31           C   tau(  31) = (   0.0000000   0.6928203   0.0000000  )
        32           C   tau(  32) = (   0.0000000   0.8082904   0.0000000  )
        33           C   tau(  33) = (   0.6000000   0.0000000   0.0000000  )
        34           C   tau(  34) = (   0.6000000   0.1154701   0.0000000  )
        35           C   tau(  35) = (   0.5000000   0.1732051   0.0000000  )
        36           C   tau(  36) = (   0.5000000   0.2886751   0.0000000  )
        37           C   tau(  37) = (   0.4000000   0.3464102   0.0000000  )
        38           C   tau(  38) = (   0.4000000   0.4618802   0.0000000  )
        39           C   tau(  39) = (   0.3000000   0.5196152   0.0000000  )
        40           C   tau(  40) = (   0.3000000   0.6350853   0.0000000  )
        41           C   tau(  41) = (   0.2000000   0.6928203   0.0000000  )
        42           C   tau(  42) = (   0.2000000   0.8082904   0.0000000  )
        43           C   tau(  43) = (   0.8000000   0.0000000   0.0000000  )
        44           C   tau(  44) = (   0.8000000   0.1154701   0.0000000  )
        45           C   tau(  45) = (   0.7000000   0.1732051   0.0000000  )
        46           C   tau(  46) = (   0.7000000   0.2886751   0.0000000  )
        47           C   tau(  47) = (   0.6000000   0.3464102   0.0000000  )
        48           C   tau(  48) = (   0.6000000   0.4618802   0.0000000  )
        49           C   tau(  49) = (   0.5000000   0.5196152   0.0000000  )
        50           C   tau(  50) = (   0.5000000   0.6350853   0.0000000  )
        51           C   tau(  51) = (   0.4000000   0.6928203   0.0000000  )
        52           C   tau(  52) = (   0.4000000   0.8082904   0.0000000  )

   Crystallographic axes

     site n.     atom                  positions (cryst. coord.)
         1           H   tau(   1) = (  0.4361603  0.5333333  0.4000000  )
         2           H   tau(   2) = (  0.4971730  0.5333333  0.4000000  )
         3           C   tau(   3) = (  0.0000000  0.0000000  0.0000000  )
         4           C   tau(   4) = (  0.0666667  0.1333333  0.0000000  )
         5           C   tau(   5) = (  0.0000000  0.2000000  0.0000000  )
         6           C   tau(   6) = (  0.0666667  0.3333333  0.0000000  )
         7           C   tau(   7) = (  0.0000000  0.4000000  0.0000000  )
         8           C   tau(   8) = (  0.0666667  0.5333333  0.0000000  )
         9           C   tau(   9) = (  0.0000000  0.6000000  0.0000000  )
        10           C   tau(  10) = (  0.0666667  0.7333333  0.0000000  )
        11           C   tau(  11) = (  0.0000000  0.8000000  0.0000000  )
        12           C   tau(  12) = (  0.0666667  0.9333333  0.0000000  )
        13           C   tau(  13) = (  0.2000000  0.0000000  0.0000000  )
        14           C   tau(  14) = (  0.2666667  0.1333333  0.0000000  )
        15           C   tau(  15) = (  0.2000000  0.2000000  0.0000000  )
        16           C   tau(  16) = (  0.2666667  0.3333333  0.0000000  )
        17           C   tau(  17) = (  0.2000000  0.4000000  0.0000000  )
        18           C   tau(  18) = (  0.2666667  0.5333333  0.0000000  )
        19           C   tau(  19) = (  0.2000000  0.6000000  0.0000000  )
        20           C   tau(  20) = (  0.2666667  0.7333333  0.0000000  )
        21           C   tau(  21) = (  0.2000000  0.8000000  0.0000000  )
        22           C   tau(  22) = (  0.2666667  0.9333333  0.0000000  )
        23           C   tau(  23) = (  0.4000000  0.0000000  0.0000000  )
        24           C   tau(  24) = (  0.4666667  0.1333333  0.0000000  )
        25           C   tau(  25) = (  0.4000000  0.2000000  0.0000000  )
        26           C   tau(  26) = (  0.4666667  0.3333333  0.0000000  )
        27           C   tau(  27) = (  0.4000000  0.4000000  0.0000000  )
        28           Fe  tau(  28) = (  0.4666667  0.5333333  0.0000000  )
        29           C   tau(  29) = (  0.4000000  0.6000000  0.0000000  )
        30           C   tau(  30) = (  0.4666667  0.7333333  0.0000000  )
[...]
        42           C   tau(  42) = (  0.6666667  0.9333333  0.0000000  )
        43           C   tau(  43) = (  0.8000000  0.0000000  0.0000000  )
        44           C   tau(  44) = (  0.8666667  0.1333333  0.0000000  )
        45           C   tau(  45) = (  0.8000000  0.2000000  0.0000000  )
        46           C   tau(  46) = (  0.8666667  0.3333333  0.0000000  )
        47           C   tau(  47) = (  0.8000000  0.4000000  0.0000000  )
        48           C   tau(  48) = (  0.8666667  0.5333333  0.0000000  )
        49           C   tau(  49) = (  0.8000000  0.6000000  0.0000000  )
        50           C   tau(  50) = (  0.8666667  0.7333333  0.0000000  )
        51           C   tau(  51) = (  0.8000000  0.8000000  0.0000000  )
        52           C   tau(  52) = (  0.8666667  0.9333333  0.0000000  )

     number of k points=     1  Marzari-Vanderbilt smearing, width (Ry)=  0.0010
                       cart. coord. in units 2pi/alat
        k(    1) = (   0.0000000   0.0000000   0.0000000), wk =   1.0000000

                       cryst. coord.
        k(    1) = (   0.0000000   0.0000000   0.0000000), wk =   1.0000000

     Check: negative core charge=   -0.000002

     Initial potential from superposition of free atoms

     starting charge  213.80512, renormalised to  214.00000

     negative rho (up, down):  5.367E-05 8.511E-03

Carrying out rVV10 run using the following parameters:
Nqs =      20    Nr_points =    1024   r_max =   100.000
b_value =  6.30000    beta =  0.00901
     q_mesh =  0.00010000  0.00030000  0.00058939  0.00100810
               0.00161396  0.00249058  0.00375900  0.00559430
               0.00824984  0.01209221  0.01765183  0.02569619
               0.03733578  0.05417739  0.07854596  0.11380545
               0.16482331  0.23864234  0.34545298  0.50000000

Gradients computed in Reciprocal space

     Starting wfcs are  208 randomized atomic wfcs

     Self-consistent Calculation

     iteration #  1     ecut=    70.00 Ry     beta= 0.30
     Davidson diagonalization with overlap
     ethr =  1.00E-02,  avg # of iterations =  2.5

[...]

     total energy              =    -858.09911460 Ry
     Harris-Foulkes estimate   =    -858.62692491 Ry
     estimated scf accuracy    <      10.07309521 Ry

     total magnetization       =     6.00 Bohr mag/cell
     absolute magnetization    =     6.66 Bohr mag/cell

[...]

     Magnetic moment per site:
     atom:    1    charge:    0.2116    magn:    0.0000    constr:    0.0000
     atom:    2    charge:    0.2116    magn:   -0.0000    constr:    0.0000
     atom:    3    charge:    1.7172    magn:   -0.0129    constr:    0.0000
     atom:    4    charge:    1.7152    magn:    0.0181    constr:    0.0000
     atom:    5    charge:    1.7178    magn:   -0.0092    constr:    0.0000
     atom:    6    charge:    1.7141    magn:    0.0066    constr:    0.0000
     atom:    7    charge:    1.7178    magn:   -0.0093    constr:    0.0000
     atom:    8    charge:    1.7152    magn:    0.0181    constr:    0.0000
     atom:    9    charge:    1.7172    magn:   -0.0129    constr:    0.0000
     atom:   10    charge:    1.7148    magn:    0.0590    constr:    0.0000
     atom:   11    charge:    1.7177    magn:   -0.0167    constr:    0.0000
     atom:   12    charge:    1.7148    magn:    0.0586    constr:    0.0000
     atom:   13    charge:    1.7177    magn:   -0.0168    constr:    0.0000
     atom:   14    charge:    1.7155    magn:    0.0458    constr:    0.0000
     atom:   15    charge:    1.7139    magn:   -0.0133    constr:    0.0000
     atom:   16    charge:    1.7107    magn:    0.0562    constr:    0.0000
     atom:   17    charge:    1.7232    magn:   -0.0129    constr:    0.0000
     atom:   18    charge:    1.7107    magn:    0.0562    constr:    0.0000
     atom:   19    charge:    1.7140    magn:   -0.0132    constr:    0.0000
     atom:   20    charge:    1.7155    magn:    0.0456    constr:    0.0000
     atom:   21    charge:    1.7177    magn:   -0.0168    constr:    0.0000
     atom:   22    charge:    1.7147    magn:    0.0580    constr:    0.0000
     atom:   23    charge:    1.7172    magn:   -0.0127    constr:    0.0000
     atom:   24    charge:    1.7152    magn:    0.0179    constr:    0.0000
     atom:   25    charge:    1.7139    magn:   -0.0131    constr:    0.0000
     atom:   26    charge:    1.7106    magn:    0.0555    constr:    0.0000
     atom:   27    charge:    1.8524    magn:   -0.0191    constr:    0.0000
     atom:   28    charge:   11.1428    magn:    0.4835    constr:    0.0000
     atom:   29    charge:    1.8525    magn:   -0.0196    constr:    0.0000
     atom:   30    charge:    1.7106    magn:    0.0552    constr:    0.0000
     atom:   31    charge:    1.7140    magn:   -0.0130    constr:    0.0000
     atom:   32    charge:    1.7152    magn:    0.0179    constr:    0.0000
     atom:   33    charge:    1.7178    magn:   -0.0091    constr:    0.0000
     atom:   34    charge:    1.7137    magn:    0.0139    constr:    0.0000
     atom:   35    charge:    1.7178    magn:   -0.0091    constr:    0.0000
     atom:   36    charge:    1.7141    magn:    0.0065    constr:    0.0000
     atom:   37    charge:    1.7232    magn:   -0.0125    constr:    0.0000
     atom:   38    charge:    1.7106    magn:    0.0553    constr:    0.0000
     atom:   39    charge:    1.8524    magn:   -0.0192    constr:    0.0000
     atom:   40    charge:    1.7106    magn:    0.0550    constr:    0.0000
     atom:   41    charge:    1.7232    magn:   -0.0124    constr:    0.0000
     atom:   42    charge:    1.7141    magn:    0.0065    constr:    0.0000
     atom:   43    charge:    1.7178    magn:   -0.0091    constr:    0.0000
     atom:   44    charge:    1.7137    magn:    0.0140    constr:    0.0000
     atom:   45    charge:    1.7241    magn:   -0.0074    constr:    0.0000
     atom:   46    charge:    1.7137    magn:    0.0141    constr:    0.0000
     atom:   47    charge:    1.7178    magn:   -0.0092    constr:    0.0000
     atom:   48    charge:    1.7153    magn:    0.0182    constr:    0.0000
     atom:   49    charge:    1.7140    magn:   -0.0129    constr:    0.0000
     atom:   50    charge:    1.7155    magn:    0.0450    constr:    0.0000
     atom:   51    charge:    1.7140    magn:   -0.0128    constr:    0.0000
     atom:   52    charge:    1.7152    magn:    0.0181    constr:    0.0000

[...]

     total energy              =    -860.05352265 Ry
     Harris-Foulkes estimate   =    -860.05352808 Ry
     estimated scf accuracy    <       0.00000350 Ry

[...]

     iteration #140     ecut=    70.00 Ry     beta= 0.30
     Davidson diagonalization with overlap
     ethr =  8.42E-10,  avg # of iterations =  4.0

     negative rho (up, down):  5.505E-04 7.198E-03

     Magnetic moment per site:
     atom:    1    charge:    0.2116    magn:   -0.0000    constr:    0.0000
     atom:    2    charge:    0.2116    magn:   -0.0000    constr:    0.0000
     atom:    3    charge:    1.7172    magn:   -0.0130    constr:    0.0000
     atom:    4    charge:    1.7152    magn:    0.0181    constr:    0.0000
     atom:    5    charge:    1.7178    magn:   -0.0090    constr:    0.0000
     atom:    6    charge:    1.7141    magn:    0.0060    constr:    0.0000
     atom:    7    charge:    1.7178    magn:   -0.0090    constr:    0.0000
     atom:    8    charge:    1.7152    magn:    0.0181    constr:    0.0000
     atom:    9    charge:    1.7173    magn:   -0.0130    constr:    0.0000
     atom:   10    charge:    1.7148    magn:    0.0590    constr:    0.0000
     atom:   11    charge:    1.7177    magn:   -0.0173    constr:    0.0000
     atom:   12    charge:    1.7148    magn:    0.0590    constr:    0.0000
     atom:   13    charge:    1.7177    magn:   -0.0173    constr:    0.0000
     atom:   14    charge:    1.7155    magn:    0.0461    constr:    0.0000
     atom:   15    charge:    1.7139    magn:   -0.0136    constr:    0.0000
     atom:   16    charge:    1.7106    magn:    0.0556    constr:    0.0000
     atom:   17    charge:    1.7232    magn:   -0.0126    constr:    0.0000
     atom:   18    charge:    1.7106    magn:    0.0556    constr:    0.0000
     atom:   19    charge:    1.7140    magn:   -0.0136    constr:    0.0000
     atom:   20    charge:    1.7155    magn:    0.0461    constr:    0.0000
     atom:   21    charge:    1.7177    magn:   -0.0173    constr:    0.0000
     atom:   22    charge:    1.7148    magn:    0.0590    constr:    0.0000
     atom:   23    charge:    1.7172    magn:   -0.0130    constr:    0.0000
     atom:   24    charge:    1.7152    magn:    0.0181    constr:    0.0000
     atom:   25    charge:    1.7139    magn:   -0.0135    constr:    0.0000
     atom:   26    charge:    1.7106    magn:    0.0556    constr:    0.0000
     atom:   27    charge:    1.8524    magn:   -0.0194    constr:    0.0000
     atom:   28    charge:   11.1424    magn:    0.4825    constr:    0.0000
     atom:   29    charge:    1.8525    magn:   -0.0194    constr:    0.0000
     atom:   30    charge:    1.7106    magn:    0.0555    constr:    0.0000
     atom:   31    charge:    1.7140    magn:   -0.0135    constr:    0.0000
     atom:   32    charge:    1.7152    magn:    0.0181    constr:    0.0000
     atom:   33    charge:    1.7178    magn:   -0.0089    constr:    0.0000
     atom:   34    charge:    1.7137    magn:    0.0130    constr:    0.0000
     atom:   35    charge:    1.7178    magn:   -0.0090    constr:    0.0000
     atom:   36    charge:    1.7141    magn:    0.0059    constr:    0.0000
     atom:   37    charge:    1.7232    magn:   -0.0125    constr:    0.0000
     atom:   38    charge:    1.7106    magn:    0.0554    constr:    0.0000
     atom:   39    charge:    1.8525    magn:   -0.0192    constr:    0.0000
     atom:   40    charge:    1.7106    magn:    0.0554    constr:    0.0000
     atom:   41    charge:    1.7232    magn:   -0.0125    constr:    0.0000
     atom:   42    charge:    1.7141    magn:    0.0059    constr:    0.0000
     atom:   43    charge:    1.7178    magn:   -0.0089    constr:    0.0000
     atom:   44    charge:    1.7137    magn:    0.0130    constr:    0.0000
     atom:   45    charge:    1.7242    magn:   -0.0061    constr:    0.0000
     atom:   46    charge:    1.7137    magn:    0.0130    constr:    0.0000
     atom:   47    charge:    1.7178    magn:   -0.0089    constr:    0.0000
     atom:   48    charge:    1.7152    magn:    0.0181    constr:    0.0000
     atom:   49    charge:    1.7140    magn:   -0.0135    constr:    0.0000
     atom:   50    charge:    1.7155    magn:    0.0460    constr:    0.0000
     atom:   51    charge:    1.7139    magn:   -0.0135    constr:    0.0000
     atom:   52    charge:    1.7152    magn:    0.0181    constr:    0.0000

     End of self-consistent calculation

 ------ SPIN UP ------------

          k = 0.0000 0.0000 0.0000 ( 87777 PWs)   bands (ev):

   -88.7893 -55.6602 -55.6599 -53.9937 -19.8706 -19.0392 -19.0390 -18.9444
   -18.9062 -18.9060 -18.5676 -17.1606 -17.1594 -17.1593 -17.0885 -17.0883
   -16.7813 -16.3135 -16.3134 -16.2059 -16.1608 -16.1605 -15.4721 -14.2222
   -14.2220 -14.1295 -14.0809 -14.0807 -13.4053 -13.1476 -13.1476 -13.1215
   -12.8418 -12.8416 -12.4385 -11.9278 -11.9277 -11.7347 -11.4911 -11.4910
   -10.6148  -9.7852  -9.7849  -9.5186  -9.4043  -9.4043  -9.3198  -9.2868
    -9.2867  -9.2736  -8.8112  -8.8111  -8.2702  -8.2700  -8.1863  -8.0195
    -7.9192  -7.5296  -7.5294  -7.3246  -7.2221  -7.2208  -7.0682  -7.0681
    -6.9272  -6.9040  -6.9036  -6.7984  -6.6513  -6.6511  -6.6175  -6.6058
    -6.6056  -6.5752  -6.5575  -6.2923  -5.7261  -5.7259  -5.6856  -5.6848
    -5.4661  -5.4660  -5.3042  -5.0765  -4.9595  -4.8294  -4.7998  -4.7995
    -4.5341  -4.5340  -4.4870  -4.3238  -4.3236  -3.9648  -3.9647  -3.8718
    -3.7640  -3.7639  -3.1956  -2.8976  -2.8971  -1.9590  -1.8878  -1.8876
    -1.3077  -1.3073  -1.1694  -0.8733   0.8387   0.8853   0.8855   1.4043
     1.4045   1.5214   2.3569   2.3594   2.5251   2.6800   2.6803   2.7848
     3.3042   3.3057   3.4570   3.5113   3.6652   3.7306   3.7377   3.7399

     occupation numbers
     1.0000   1.0000   1.0000   1.0000   1.0000   1.0000   1.0000   1.0000
     1.0000   1.0000   1.0000   1.0000   1.0000   1.0000   1.0000   1.0000
     1.0000   1.0000   1.0000   1.0000   1.0000   1.0000   1.0000   1.0000
     1.0000   1.0000   1.0000   1.0000   1.0000   1.0000   1.0000   1.0000
     1.0000   1.0000   1.0000   1.0000   1.0000   1.0000   1.0000   1.0000
     1.0000   1.0000   1.0000   1.0000   1.0000   1.0000   1.0000   1.0000
     1.0000   1.0000   1.0000   1.0000   1.0000   1.0000   1.0000   1.0000
     1.0000   1.0000   1.0000   1.0000   1.0000   1.0000   1.0000   1.0000
     1.0000   1.0000   1.0000   1.0000   1.0000   1.0000   1.0000   1.0000
     1.0000   1.0000   1.0000   1.0000   1.0000   1.0000   1.0000   1.0000
     1.0000   1.0000   1.0000   1.0000   1.0000   1.0000   1.0000   1.0000
     1.0000   1.0000   1.0000   1.0000   1.0000   1.0000   1.0000   1.0000
     1.0000   1.0000   1.0000   1.0000   1.0000   1.0000   1.0000   1.0000
     1.0000   1.0000   1.0000   1.0372   0.0000   0.0000   0.0000   0.0000
     0.0000   0.0000   0.0000   0.0000   0.0000   0.0000   0.0000   0.0000
     0.0000   0.0000   0.0000   0.0000   0.0000   0.0000   0.0000   0.0000

 ------ SPIN DOWN ----------

          k = 0.0000 0.0000 0.0000 ( 87777 PWs)   bands (ev):

   -88.0234 -55.0379 -55.0376 -53.0388 -19.8281 -18.9920 -18.9919 -18.9040
   -18.8802 -18.8798 -18.5089 -17.1328 -17.1226 -17.1224 -17.0343 -17.0341
   -16.7507 -16.2682 -16.2680 -16.1719 -16.1169 -16.1166 -15.4471 -14.1503
   -14.1501 -14.0710 -14.0708 -14.0669 -13.4127 -13.1222 -13.1221 -13.0896
   -12.8221 -12.8219 -12.4070 -11.8898 -11.8897 -11.7118 -11.4686 -11.4685
   -10.5908  -9.7334  -9.7332  -9.4863  -9.3722  -9.3721  -9.3026  -9.2632
    -9.2632  -9.2556  -8.7982  -8.7981  -8.2327  -8.2325  -8.1650  -7.9210
    -7.9018  -7.5149  -7.5147  -7.2905  -7.0532  -7.0519  -7.0192  -7.0190
    -6.8443  -6.8438  -6.8255  -6.7830  -6.6344  -6.6342  -6.6069  -6.5924
    -6.5923  -6.5396  -6.4470  -6.2851  -5.6759  -5.6756  -5.4427  -5.4420
    -5.4230  -5.4229  -5.2054  -5.0625  -4.9498  -4.7544  -4.7078  -4.7075
    -4.4480  -4.4477  -4.4121  -4.1952  -4.1949  -3.8311  -3.8310  -3.7750
    -3.7493  -3.7491  -3.1511  -2.6615  -2.6611  -1.8604  -1.8601  -1.7987
    -0.8861  -0.8693  -0.7981  -0.7980   0.9336   0.9340   0.9942   1.5622
     1.5623   1.6461   2.5161   2.5194   2.5382   2.8205   2.8208   2.8580
     3.4610   3.4651   3.5290   3.5541   3.6825   3.7416   3.7438   3.7454

     occupation numbers
     1.0000   1.0000   1.0000   1.0000   1.0000   1.0000   1.0000   1.0000
     1.0000   1.0000   1.0000   1.0000   1.0000   1.0000   1.0000   1.0000
     1.0000   1.0000   1.0000   1.0000   1.0000   1.0000   1.0000   1.0000
     1.0000   1.0000   1.0000   1.0000   1.0000   1.0000   1.0000   1.0000
     1.0000   1.0000   1.0000   1.0000   1.0000   1.0000   1.0000   1.0000
     1.0000   1.0000   1.0000   1.0000   1.0000   1.0000   1.0000   1.0000
     1.0000   1.0000   1.0000   1.0000   1.0000   1.0000   1.0000   1.0000
     1.0000   1.0000   1.0000   1.0000   1.0000   1.0000   1.0000   1.0000
     1.0000   1.0000   1.0000   1.0000   1.0000   1.0000   1.0000   1.0000
     1.0000   1.0000   1.0000   1.0000   1.0000   1.0000   1.0000   1.0000
     1.0000   1.0000   1.0000   1.0000   1.0000   1.0000   1.0000   1.0000
     1.0000   1.0000   1.0000   1.0000   1.0000   1.0000   1.0000   1.0000
     1.0000   1.0000   1.0000   1.0000   1.0000   1.0000   1.0000   1.0000
     1.0435   0.9193   0.0000   0.0000   0.0000   0.0000   0.0000   0.0000
     0.0000   0.0000   0.0000   0.0000   0.0000   0.0000   0.0000   0.0000
     0.0000   0.0000   0.0000   0.0000   0.0000   0.0000   0.0000   0.0000

     the Fermi energy is    -0.8592 ev

!    total energy              =    -860.05352805 Ry
     Harris-Foulkes estimate   =    -860.05352553 Ry
     estimated scf accuracy    <       0.00000083 Ry

     The total energy is the sum of the following terms:

     one-electron contribution =   -2782.89830992 Ry
     hartree contribution      =    1435.32828296 Ry
     xc contribution           =    -259.30628837 Ry
     ewald contribution        =     746.82255319 Ry
     smearing contrib. (-TS)   =       0.00023410 Ry

     total magnetization       =     2.07 Bohr mag/cell
     absolute magnetization    =     3.26 Bohr mag/cell

     convergence has been achieved in 140 iterations

     Writing output data file Hierro-top-distance-4.0.save/

     General routines

     Parallel routines

   This run was terminated on:   7:42: 6   8Jan2023

   JOB DONE.