     Program PWSCF v.6.4.1 starts on  8Jan2023 at  0:53:24

     R & G space division:  proc/nbgrp/npool/nimage =       6
     Reading input from distance-5.0.in

     Current dimensions of program PWSCF are:
     Max number of different atomic species (ntypx) = 10
     Max number of k-points (npk) =  40000
     Max angular momentum in pseudopotentials (lmaxx) =  3

     IMPORTANT: XC functional enforced from input :
     Exchange-correlation      = RVV10 ( 1  4 13  4 3 0)
     Any further DFT definition will be discarded
     Please, verify this is what you really want

               file H.pbe-rrkjus.UPF: wavefunction(s)  1S renormalized

     Subspace diagonalization in iterative solution of the eigenvalue problem:
     a serial algorithm will be used

     bravais-lattice index     =            4
     lattice parameter (alat)  =      23.2937  a.u.
     unit-cell volume          =    8879.8548 (a.u.)^3
     number of atoms/cell      =           52
     number of atomic types    =            3
     number of electrons       =       214.00
     number of Kohn-Sham states=          128
     kinetic-energy cutoff     =      70.0000  Ry
     charge density cutoff     =     490.0000  Ry
     convergence threshold     =      1.0E-06
     mixing beta               =       0.3000
     number of iterations used =            4  plain     mixing
     Exchange-correlation      = RVV10 ( 1  4 13  4 3 0)

     celldm(1)=  23.293684  celldm(2)=   0.000000  celldm(3)=   0.811261
     celldm(4)=   0.000000  celldm(5)=   0.000000  celldm(6)=   0.000000

     crystal axes: (cart. coord. in units of alat)
               a(1) = (   1.000000   0.000000   0.000000 )
               a(2) = (  -0.500000   0.866025   0.000000 )
               a(3) = (   0.000000   0.000000   0.811261 )

     reciprocal axes: (cart. coord. in units 2 pi/alat)
               b(1) = (  1.000000  0.577350 -0.000000 )
               b(2) = (  0.000000  1.154701  0.000000 )
               b(3) = (  0.000000 -0.000000  1.232649 )

     PseudoPot. # 1 for H  read from file:
     /home/cristian/Escritorio/Proyecto_Grafeno/pseudopotenciales/H.pbe-rrkjus.UPF
     MD5 check sum: 7cc9d459525c9a0585f487a71c3c9563
     Pseudo is Ultrasoft, Zval =  1.0
     Generated by new atomic code, or converted to UPF format
     Using radial grid of 1061 points,  2 beta functions with:
                l(1) =   0
                l(2) =   0
     Q(r) pseudized with 0 coefficients

     PseudoPot. # 2 for C  read from file:
     /home/cristian/Escritorio/Proyecto_Grafeno/pseudopotenciales/C.pbe-n-rrkjus_psl.1.0.0.UPF
     MD5 check sum: 1fdd950c42eb37d8afe3dd2f8d12311e
     Pseudo is Ultrasoft + core correction, Zval =  4.0
     Generated using "atomic" code by A. Dal Corso v.6.3MaX
     Using radial grid of 1073 points,  4 beta functions with:
                l(1) =   0
                l(2) =   0
                l(3) =   1
                l(4) =   1
     Q(r) pseudized with 0 coefficients

     PseudoPot. # 3 for Fe read from file:
     /home/cristian/Escritorio/Proyecto_Grafeno/pseudopotenciales/Fe.pbe-spn-rrkjus_psl.1.0.0.UPF
     MD5 check sum: 72ea77fed8e64ab3a2ccf2804dfc1862
     Pseudo is Ultrasoft + core correction, Zval = 16.0
     Generated using "atomic" code by A. Dal Corso v.6.3
     Using radial grid of 1191 points,  6 beta functions with:
                l(1) =   0
                l(2) =   0
                l(3) =   1
                l(4) =   1
                l(5) =   2
                l(6) =   2
     Q(r) pseudized with 0 coefficients

     vdW kernel table read from file rVV10_kernel_table
     MD5 check sum: b8e2538accc0c0b3206b45ba4daaba6c

     atomic species   valence    mass     pseudopotential
        H              1.00     1.00794     H ( 1.00)
        C              4.00    12.01070     C ( 1.00)
        Fe            16.00    55.84500     Fe( 1.00)

     Starting magnetic structure
     atomic species   magnetization
        H            0.500
        C            0.300
        Fe           0.800

      2 Sym. Ops. (no inversion) found

                                    s                        frac. trans.

      isym =  1     identity

 cryst.   s( 1) = (     1          0          0      )
                  (     0          1          0      )
                  (     0          0          1      )

 cart.    s( 1) = (  1.0000000  0.0000000  0.0000000 )
                  (  0.0000000  1.0000000  0.0000000 )
                  (  0.0000000  0.0000000  1.0000000 )

      isym =  2     inv. 180 deg rotation - cart. axis [0,0,1]

 cryst.   s( 2) = (     1          0          0      )
                  (     0          1          0      )
                  (     0          0         -1      )

 cart.    s( 2) = (  1.0000000  0.0000000  0.0000000 )
                  (  0.0000000  1.0000000  0.0000000 )
                  (  0.0000000  0.0000000 -1.0000000 )

     point group C_s (m)
     there are  2 classes
     the character table:

       E     s
A'     1.00  1.00
A''    1.00 -1.00

     the symmetry operations in each class and the name of the first element:

     E        1
          identity
     s        2
          inv. 180 deg rotation - cart. axis [0,0,1]

   Cartesian axes

     site n.     atom                  positions (alat units)
         1           H   tau(   1) = (   0.1694937   0.4618802   0.4056306  )
         2           H   tau(   2) = (   0.2305063   0.4618802   0.4056306  )
         3           C   tau(   3) = (   0.0000000   0.0000000   0.0000000  )
         4           C   tau(   4) = (   0.0000000   0.1154701   0.0000000  )
         5           C   tau(   5) = (  -0.1000000   0.1732051   0.0000000  )
         6           C   tau(   6) = (  -0.1000000   0.2886751   0.0000000  )
         7           C   tau(   7) = (  -0.2000000   0.3464102   0.0000000  )
         8           C   tau(   8) = (  -0.2000000   0.4618802   0.0000000  )
         9           C   tau(   9) = (  -0.3000000   0.5196152   0.0000000  )
        10           C   tau(  10) = (  -0.3000000   0.6350853   0.0000000  )
        11           C   tau(  11) = (  -0.4000000   0.6928203   0.0000000  )
        12           C   tau(  12) = (  -0.4000000   0.8082904   0.0000000  )
        13           C   tau(  13) = (   0.2000000   0.0000000   0.0000000  )
        14           C   tau(  14) = (   0.2000000   0.1154701   0.0000000  )
        15           C   tau(  15) = (   0.1000000   0.1732051   0.0000000  )
        16           C   tau(  16) = (   0.1000000   0.2886751   0.0000000  )
        17           C   tau(  17) = (   0.0000000   0.3464102   0.0000000  )
        18           C   tau(  18) = (   0.0000000   0.4618802   0.0000000  )
        19           C   tau(  19) = (  -0.1000000   0.5196152   0.0000000  )
        20           C   tau(  20) = (  -0.1000000   0.6350853   0.0000000  )
        21           C   tau(  21) = (  -0.2000000   0.6928203   0.0000000  )
        22           C   tau(  22) = (  -0.2000000   0.8082904   0.0000000  )
        23           C   tau(  23) = (   0.4000000   0.0000000   0.0000000  )
        24           C   tau(  24) = (   0.4000000   0.1154701   0.0000000  )
        25           C   tau(  25) = (   0.3000000   0.1732051   0.0000000  )
        26           C   tau(  26) = (   0.3000000   0.2886751   0.0000000  )
        27           C   tau(  27) = (   0.2000000   0.3464102   0.0000000  )
        28           Fe  tau(  28) = (   0.2000000   0.4618802   0.0000000  )
        29           C   tau(  29) = (   0.1000000   0.5196152   0.0000000  )
        30           C   tau(  30) = (   0.1000000   0.6350853   0.0000000  )
        31           C   tau(  31) = (   0.0000000   0.6928203   0.0000000  )
        32           C   tau(  32) = (   0.0000000   0.8082904   0.0000000  )
        33           C   tau(  33) = (   0.6000000   0.0000000   0.0000000  )
        34           C   tau(  34) = (   0.6000000   0.1154701   0.0000000  )
        35           C   tau(  35) = (   0.5000000   0.1732051   0.0000000  )
        36           C   tau(  36) = (   0.5000000   0.2886751   0.0000000  )
        37           C   tau(  37) = (   0.4000000   0.3464102   0.0000000  )
        38           C   tau(  38) = (   0.4000000   0.4618802   0.0000000  )
        39           C   tau(  39) = (   0.3000000   0.5196152   0.0000000  )
        40           C   tau(  40) = (   0.3000000   0.6350853   0.0000000  )
        41           C   tau(  41) = (   0.2000000   0.6928203   0.0000000  )
        42           C   tau(  42) = (   0.2000000   0.8082904   0.0000000  )
        43           C   tau(  43) = (   0.8000000   0.0000000   0.0000000  )
        44           C   tau(  44) = (   0.8000000   0.1154701   0.0000000  )
        45           C   tau(  45) = (   0.7000000   0.1732051   0.0000000  )
        46           C   tau(  46) = (   0.7000000   0.2886751   0.0000000  )
        47           C   tau(  47) = (   0.6000000   0.3464102   0.0000000  )
        48           C   tau(  48) = (   0.6000000   0.4618802   0.0000000  )
        49           C   tau(  49) = (   0.5000000   0.5196152   0.0000000  )
        50           C   tau(  50) = (   0.5000000   0.6350853   0.0000000  )
        51           C   tau(  51) = (   0.4000000   0.6928203   0.0000000  )
        52           C   tau(  52) = (   0.4000000   0.8082904   0.0000000  )

   Crystallographic axes

     site n.     atom                  positions (cryst. coord.)
         1           H   tau(   1) = (  0.4361603  0.5333333  0.5000000  )
         2           H   tau(   2) = (  0.4971730  0.5333333  0.5000000  )
         3           C   tau(   3) = (  0.0000000  0.0000000  0.0000000  )
         4           C   tau(   4) = (  0.0666667  0.1333333  0.0000000  )
         5           C   tau(   5) = (  0.0000000  0.2000000  0.0000000  )
         6           C   tau(   6) = (  0.0666667  0.3333333  0.0000000  )
         7           C   tau(   7) = (  0.0000000  0.4000000  0.0000000  )
         8           C   tau(   8) = (  0.0666667  0.5333333  0.0000000  )
         9           C   tau(   9) = (  0.0000000  0.6000000  0.0000000  )
        10           C   tau(  10) = (  0.0666667  0.7333333  0.0000000  )
        11           C   tau(  11) = (  0.0000000  0.8000000  0.0000000  )
        12           C   tau(  12) = (  0.0666667  0.9333333  0.0000000  )
        13           C   tau(  13) = (  0.2000000  0.0000000  0.0000000  )
        14           C   tau(  14) = (  0.2666667  0.1333333  0.0000000  )
        15           C   tau(  15) = (  0.2000000  0.2000000  0.0000000  )
        16           C   tau(  16) = (  0.2666667  0.3333333  0.0000000  )
        17           C   tau(  17) = (  0.2000000  0.4000000  0.0000000  )
        18           C   tau(  18) = (  0.2666667  0.5333333  0.0000000  )
        19           C   tau(  19) = (  0.2000000  0.6000000  0.0000000  )
        20           C   tau(  20) = (  0.2666667  0.7333333  0.0000000  )
        21           C   tau(  21) = (  0.2000000  0.8000000  0.0000000  )
        22           C   tau(  22) = (  0.2666667  0.9333333  0.0000000  )
        23           C   tau(  23) = (  0.4000000  0.0000000  0.0000000  )
        24           C   tau(  24) = (  0.4666667  0.1333333  0.0000000  )
        25           C   tau(  25) = (  0.4000000  0.2000000  0.0000000  )
        26           C   tau(  26) = (  0.4666667  0.3333333  0.0000000  )
        27           C   tau(  27) = (  0.4000000  0.4000000  0.0000000  )
        28           Fe  tau(  28) = (  0.4666667  0.5333333  0.0000000  )
        29           C   tau(  29) = (  0.4000000  0.6000000  0.0000000  )
        30           C   tau(  30) = (  0.4666667  0.7333333  0.0000000  )
        31           C   tau(  31) = (  0.4000000  0.8000000  0.0000000  )
        32           C   tau(  32) = (  0.4666667  0.9333333  0.0000000  )
        33           C   tau(  33) = (  0.6000000  0.0000000  0.0000000  )
        34           C   tau(  34) = (  0.6666667  0.1333333  0.0000000  )
        35           C   tau(  35) = (  0.6000000  0.2000000  0.0000000  )
        36           C   tau(  36) = (  0.6666667  0.3333333  0.0000000  )
        37           C   tau(  37) = (  0.6000000  0.4000000  0.0000000  )
        38           C   tau(  38) = (  0.6666667  0.5333333  0.0000000  )
        39           C   tau(  39) = (  0.6000000  0.6000000  0.0000000  )
        40           C   tau(  40) = (  0.6666667  0.7333333  0.0000000  )
        41           C   tau(  41) = (  0.6000000  0.8000000  0.0000000  )
        42           C   tau(  42) = (  0.6666667  0.9333333  0.0000000  )
        43           C   tau(  43) = (  0.8000000  0.0000000  0.0000000  )
        44           C   tau(  44) = (  0.8666667  0.1333333  0.0000000  )
        45           C   tau(  45) = (  0.8000000  0.2000000  0.0000000  )
        46           C   tau(  46) = (  0.8666667  0.3333333  0.0000000  )
        47           C   tau(  47) = (  0.8000000  0.4000000  0.0000000  )
        48           C   tau(  48) = (  0.8666667  0.5333333  0.0000000  )
        49           C   tau(  49) = (  0.8000000  0.6000000  0.0000000  )
        50           C   tau(  50) = (  0.8666667  0.7333333  0.0000000  )
        51           C   tau(  51) = (  0.8000000  0.8000000  0.0000000  )
        52           C   tau(  52) = (  0.8666667  0.9333333  0.0000000  )

     number of k points=     1  Marzari-Vanderbilt smearing, width (Ry)=  0.0010
                       cart. coord. in units 2pi/alat
        k(    1) = (   0.0000000   0.0000000   0.0000000), wk =   1.0000000

                       cryst. coord.
        k(    1) = (   0.0000000   0.0000000   0.0000000), wk =   1.0000000

     Check: negative core charge=   -0.000002

     Initial potential from superposition of free atoms

     starting charge  213.80512, renormalised to  214.00000

     negative rho (up, down):  5.172E-05 7.739E-03

Carrying out rVV10 run using the following parameters:
Nqs =      20    Nr_points =    1024   r_max =   100.000
b_value =  6.30000    beta =  0.00901
     q_mesh =  0.00010000  0.00030000  0.00058939  0.00100810
               0.00161396  0.00249058  0.00375900  0.00559430
               0.00824984  0.01209221  0.01765183  0.02569619
               0.03733578  0.05417739  0.07854596  0.11380545
               0.16482331  0.23864234  0.34545298  0.50000000

Gradients computed in Reciprocal space

     Starting wfcs are  208 randomized atomic wfcs

     Self-consistent Calculation

     iteration #  1     ecut=    70.00 Ry     beta= 0.30
     Davidson diagonalization with overlap
     ethr =  1.00E-02,  avg # of iterations =  2.5

[...]

     total energy              =    -858.11564972 Ry
     Harris-Foulkes estimate   =    -858.63680155 Ry
     estimated scf accuracy    <      10.05585217 Ry

     total magnetization       =     6.00 Bohr mag/cell
     absolute magnetization    =     6.66 Bohr mag/cell

[...]

     total energy              =    -860.05302018 Ry
     Harris-Foulkes estimate   =    -860.05302304 Ry
     estimated scf accuracy    <       0.00000325 Ry

[...]

     iteration # 51     ecut=    70.00 Ry     beta= 0.30
     Davidson diagonalization with overlap
     ethr =  6.68E-10,  avg # of iterations =  2.5

     negative rho (up, down):  5.305E-04 6.983E-03

     Magnetic moment per site:
     atom:    1    charge:    0.2109    magn:   -0.0000    constr:    0.0000
     atom:    2    charge:    0.2109    magn:   -0.0000    constr:    0.0000
     atom:    3    charge:    1.7172    magn:   -0.0124    constr:    0.0000
     atom:    4    charge:    1.7152    magn:    0.0177    constr:    0.0000
     atom:    5    charge:    1.7178    magn:   -0.0082    constr:    0.0000
     atom:    6    charge:    1.7141    magn:    0.0055    constr:    0.0000
     atom:    7    charge:    1.7178    magn:   -0.0082    constr:    0.0000
     atom:    8    charge:    1.7152    magn:    0.0177    constr:    0.0000
     atom:    9    charge:    1.7172    magn:   -0.0124    constr:    0.0000
     atom:   10    charge:    1.7148    magn:    0.0587    constr:    0.0000
     atom:   11    charge:    1.7177    magn:   -0.0170    constr:    0.0000
     atom:   12    charge:    1.7148    magn:    0.0587    constr:    0.0000
     atom:   13    charge:    1.7177    magn:   -0.0170    constr:    0.0000
     atom:   14    charge:    1.7155    magn:    0.0458    constr:    0.0000
     atom:   15    charge:    1.7140    magn:   -0.0132    constr:    0.0000
     atom:   16    charge:    1.7106    magn:    0.0552    constr:    0.0000
     atom:   17    charge:    1.7231    magn:   -0.0110    constr:    0.0000
     atom:   18    charge:    1.7106    magn:    0.0551    constr:    0.0000
     atom:   19    charge:    1.7140    magn:   -0.0132    constr:    0.0000
     atom:   20    charge:    1.7155    magn:    0.0458    constr:    0.0000
     atom:   21    charge:    1.7177    magn:   -0.0170    constr:    0.0000
     atom:   22    charge:    1.7148    magn:    0.0587    constr:    0.0000
     atom:   23    charge:    1.7172    magn:   -0.0124    constr:    0.0000
     atom:   24    charge:    1.7152    magn:    0.0177    constr:    0.0000
     atom:   25    charge:    1.7140    magn:   -0.0132    constr:    0.0000
     atom:   26    charge:    1.7106    magn:    0.0552    constr:    0.0000
     atom:   27    charge:    1.8523    magn:   -0.0183    constr:    0.0000
     atom:   28    charge:   11.1426    magn:    0.4737    constr:    0.0000
     atom:   29    charge:    1.8523    magn:   -0.0182    constr:    0.0000
     atom:   30    charge:    1.7106    magn:    0.0552    constr:    0.0000
     atom:   31    charge:    1.7140    magn:   -0.0132    constr:    0.0000
     atom:   32    charge:    1.7152    magn:    0.0177    constr:    0.0000
     atom:   33    charge:    1.7178    magn:   -0.0082    constr:    0.0000
     atom:   34    charge:    1.7137    magn:    0.0124    constr:    0.0000
     atom:   35    charge:    1.7178    magn:   -0.0082    constr:    0.0000
     atom:   36    charge:    1.7141    magn:    0.0055    constr:    0.0000
     atom:   37    charge:    1.7231    magn:   -0.0111    constr:    0.0000
     atom:   38    charge:    1.7106    magn:    0.0552    constr:    0.0000
     atom:   39    charge:    1.8523    magn:   -0.0183    constr:    0.0000
     atom:   40    charge:    1.7106    magn:    0.0552    constr:    0.0000
     atom:   41    charge:    1.7231    magn:   -0.0111    constr:    0.0000
     atom:   42    charge:    1.7141    magn:    0.0055    constr:    0.0000
     atom:   43    charge:    1.7177    magn:   -0.0082    constr:    0.0000
     atom:   44    charge:    1.7137    magn:    0.0124    constr:    0.0000
     atom:   45    charge:    1.7240    magn:   -0.0037    constr:    0.0000
     atom:   46    charge:    1.7137    magn:    0.0124    constr:    0.0000
     atom:   47    charge:    1.7178    magn:   -0.0082    constr:    0.0000
     atom:   48    charge:    1.7152    magn:    0.0177    constr:    0.0000
     atom:   49    charge:    1.7140    magn:   -0.0132    constr:    0.0000
     atom:   50    charge:    1.7155    magn:    0.0459    constr:    0.0000
     atom:   51    charge:    1.7140    magn:   -0.0133    constr:    0.0000
     atom:   52    charge:    1.7152    magn:    0.0177    constr:    0.0000

     End of self-consistent calculation

 ------ SPIN UP ------------

          k = 0.0000 0.0000 0.0000 ( 87777 PWs)   bands (ev):

   -88.7622 -55.6372 -55.6371 -53.9593 -19.8736 -19.0411 -19.0409 -18.9489
   -18.9103 -18.9102 -18.5703 -17.1633 -17.1626 -17.1625 -17.0915 -17.0913
   -16.7850 -16.3164 -16.3163 -16.2109 -16.1636 -16.1634 -15.4743 -14.2234
   -14.2233 -14.1324 -14.0847 -14.0845 -13.4120 -13.1504 -13.1504 -13.1249
   -12.8451 -12.8450 -12.4403 -11.9304 -11.9303 -11.7387 -11.4938 -11.4938
   -10.6165  -9.7856  -9.7855  -9.5198  -9.4072  -9.4071  -9.3231  -9.2906
    -9.2906  -9.2777  -8.8141  -8.8140  -8.2723  -8.2721  -8.1874  -8.0223
    -7.9221  -7.5328  -7.5326  -7.3271  -7.2210  -7.2200  -7.0698  -7.0697
    -6.9313  -6.9080  -6.9075  -6.8001  -6.6544  -6.6542  -6.6215  -6.6095
    -6.6094  -6.5714  -6.5618  -6.3122  -5.7269  -5.7268  -5.6805  -5.6799
    -5.4684  -5.4683  -5.2953  -5.0789  -4.9636  -4.8318  -4.8037  -4.8035
    -4.5323  -4.5322  -4.4910  -4.3261  -4.3259  -3.9677  -3.9677  -3.8774
    -3.7681  -3.7680  -3.1991  -2.8960  -2.8956  -1.9621  -1.8918  -1.8916
    -1.3027  -1.3026  -1.1431  -0.8800   0.8349   0.8818   0.8820   1.4030
     1.4031   1.5182   2.3674   2.3690   2.5192   2.6764   2.6767   2.7791
     3.3048   3.3049   3.4488   3.5216   3.6645   3.7260   3.7358   4.0358

     occupation numbers
     1.0000   1.0000   1.0000   1.0000   1.0000   1.0000   1.0000   1.0000
     1.0000   1.0000   1.0000   1.0000   1.0000   1.0000   1.0000   1.0000
     1.0000   1.0000   1.0000   1.0000   1.0000   1.0000   1.0000   1.0000
     1.0000   1.0000   1.0000   1.0000   1.0000   1.0000   1.0000   1.0000
     1.0000   1.0000   1.0000   1.0000   1.0000   1.0000   1.0000   1.0000
     1.0000   1.0000   1.0000   1.0000   1.0000   1.0000   1.0000   1.0000
     1.0000   1.0000   1.0000   1.0000   1.0000   1.0000   1.0000   1.0000
     1.0000   1.0000   1.0000   1.0000   1.0000   1.0000   1.0000   1.0000
     1.0000   1.0000   1.0000   1.0000   1.0000   1.0000   1.0000   1.0000
     1.0000   1.0000   1.0000   1.0000   1.0000   1.0000   1.0000   1.0000
     1.0000   1.0000   1.0000   1.0000   1.0000   1.0000   1.0000   1.0000
     1.0000   1.0000   1.0000   1.0000   1.0000   1.0000   1.0000   1.0000
     1.0000   1.0000   1.0000   1.0000   1.0000   1.0000   1.0000   1.0000
     1.0000   1.0000   1.0000   1.0418   0.0000   0.0000   0.0000   0.0000
     0.0000   0.0000   0.0000   0.0000   0.0000   0.0000   0.0000   0.0000
     0.0000   0.0000   0.0000   0.0000   0.0000   0.0000   0.0000   0.0000

 ------ SPIN DOWN ----------

          k = 0.0000 0.0000 0.0000 ( 87777 PWs)   bands (ev):

   -88.0108 -55.0265 -55.0264 -53.0226 -19.8307 -18.9939 -18.9938 -18.9080
   -18.8835 -18.8833 -18.5107 -17.1354 -17.1253 -17.1252 -17.0368 -17.0367
   -16.7538 -16.2707 -16.2706 -16.1757 -16.1193 -16.1191 -15.4486 -14.1514
   -14.1512 -14.0743 -14.0741 -14.0696 -13.4161 -13.1249 -13.1249 -13.0925
   -12.8250 -12.8250 -12.4087 -11.8921 -11.8920 -11.7150 -11.4710 -11.4710
   -10.5921  -9.7343  -9.7340  -9.4877  -9.3746  -9.3745  -9.3059  -9.2668
    -9.2668  -9.2593  -8.8009  -8.8008  -8.2353  -8.2351  -8.1662  -7.9228
    -7.9046  -7.5179  -7.5177  -7.2933  -7.0520  -7.0511  -7.0211  -7.0210
    -6.8471  -6.8467  -6.8287  -6.7847  -6.6373  -6.6372  -6.6108  -6.5959
    -6.5958  -6.5434  -6.4331  -6.3124  -5.6777  -5.6775  -5.4379  -5.4374
    -5.4255  -5.4255  -5.2008  -5.0648  -4.9537  -4.7564  -4.7099  -4.7096
    -4.4469  -4.4466  -4.4145  -4.1970  -4.1967  -3.8328  -3.8327  -3.7778
    -3.7531  -3.7530  -3.1519  -2.6601  -2.6598  -1.8633  -1.8631  -1.8008
    -0.8845  -0.8635  -0.7965  -0.7962   0.9309   0.9312   0.9921   1.5618
     1.5618   1.6439   2.5247   2.5260   2.5338   2.8185   2.8187   2.8555
     3.4652   3.4653   3.5366   3.5477   3.6830   3.7380   3.7409   3.7425

     occupation numbers
     1.0000   1.0000   1.0000   1.0000   1.0000   1.0000   1.0000   1.0000
     1.0000   1.0000   1.0000   1.0000   1.0000   1.0000   1.0000   1.0000
     1.0000   1.0000   1.0000   1.0000   1.0000   1.0000   1.0000   1.0000
     1.0000   1.0000   1.0000   1.0000   1.0000   1.0000   1.0000   1.0000
     1.0000   1.0000   1.0000   1.0000   1.0000   1.0000   1.0000   1.0000
     1.0000   1.0000   1.0000   1.0000   1.0000   1.0000   1.0000   1.0000
     1.0000   1.0000   1.0000   1.0000   1.0000   1.0000   1.0000   1.0000
     1.0000   1.0000   1.0000   1.0000   1.0000   1.0000   1.0000   1.0000
     1.0000   1.0000   1.0000   1.0000   1.0000   1.0000   1.0000   1.0000
     1.0000   1.0000   1.0000   1.0000   1.0000   1.0000   1.0000   1.0000
     1.0000   1.0000   1.0000   1.0000   1.0000   1.0000   1.0000   1.0000
     1.0000   1.0000   1.0000   1.0000   1.0000   1.0000   1.0000   1.0000
     1.0000   1.0000   1.0000   1.0000   1.0000   1.0000   1.0000   1.0000
     1.0181   0.9401   0.0000   0.0000   0.0000   0.0000   0.0000   0.0000
     0.0000   0.0000   0.0000   0.0000   0.0000   0.0000   0.0000   0.0000
     0.0000   0.0000   0.0000   0.0000   0.0000   0.0000   0.0000   0.0000

     the Fermi energy is    -0.8529 ev

!    total energy              =    -860.05302245 Ry
     Harris-Foulkes estimate   =    -860.05302144 Ry
     estimated scf accuracy    <       0.00000050 Ry

     The total energy is the sum of the following terms:

     one-electron contribution =   -2777.96398448 Ry
     hartree contribution      =    1432.85149798 Ry
     xc contribution           =    -259.30261588 Ry
     ewald contribution        =     744.36190399 Ry
     smearing contrib. (-TS)   =       0.00017594 Ry

     total magnetization       =     2.08 Bohr mag/cell
     absolute magnetization    =     3.19 Bohr mag/cell

     convergence has been achieved in  51 iterations

     Writing output data file Hierro-top-distance-5.0.save/

     General routines

     Parallel routines

   This run was terminated on:   2:14:22   8Jan2023

   JOB DONE.