     Program PWSCF v.6.4.1 starts on  8Jan2023 at 10:37: 3

     R & G space division:  proc/nbgrp/npool/nimage =       6
     Reading input from distance-3.0.in

     Current dimensions of program PWSCF are:
     Max number of different atomic species (ntypx) = 10
     Max number of k-points (npk) =  40000
     Max angular momentum in pseudopotentials (lmaxx) =  3

     IMPORTANT: XC functional enforced from input :
     Exchange-correlation      = RVV10 ( 1  4 13  4 3 0)
     Any further DFT definition will be discarded
     Please, verify this is what you really want

               file H.pbe-rrkjus.UPF: wavefunction(s)  1S renormalized

     Subspace diagonalization in iterative solution of the eigenvalue problem:
     a serial algorithm will be used

     bravais-lattice index     =            4
     lattice parameter (alat)  =      23.2937  a.u.
     unit-cell volume          =    8879.8548 (a.u.)^3
     number of atoms/cell      =           52
     number of atomic types    =            3
     number of electrons       =       214.00
     number of Kohn-Sham states=          128
     kinetic-energy cutoff     =      70.0000  Ry
     charge density cutoff     =     490.0000  Ry
     convergence threshold     =      1.0E-06
     mixing beta               =       0.3000
     number of iterations used =            4  plain     mixing
     Exchange-correlation      = RVV10 ( 1  4 13  4 3 0)

     celldm(1)=  23.293684  celldm(2)=   0.000000  celldm(3)=   0.811261
     celldm(4)=   0.000000  celldm(5)=   0.000000  celldm(6)=   0.000000

     crystal axes: (cart. coord. in units of alat)
               a(1) = (   1.000000   0.000000   0.000000 )
               a(2) = (  -0.500000   0.866025   0.000000 )
               a(3) = (   0.000000   0.000000   0.811261 )

     reciprocal axes: (cart. coord. in units 2 pi/alat)
               b(1) = (  1.000000  0.577350 -0.000000 )
               b(2) = (  0.000000  1.154701  0.000000 )
               b(3) = (  0.000000 -0.000000  1.232649 )

     PseudoPot. # 1 for H  read from file:
     /home/cristian/Escritorio/Proyecto_Grafeno/pseudopotenciales/H.pbe-rrkjus.UPF
     MD5 check sum: 7cc9d459525c9a0585f487a71c3c9563
     Pseudo is Ultrasoft, Zval =  1.0
     Generated by new atomic code, or converted to UPF format
     Using radial grid of 1061 points,  2 beta functions with:
                l(1) =   0
                l(2) =   0
     Q(r) pseudized with 0 coefficients

     PseudoPot. # 2 for C  read from file:
     /home/cristian/Escritorio/Proyecto_Grafeno/pseudopotenciales/C.pbe-n-rrkjus_psl.1.0.0.UPF
     MD5 check sum: 1fdd950c42eb37d8afe3dd2f8d12311e
     Pseudo is Ultrasoft + core correction, Zval =  4.0
     Generated using "atomic" code by A. Dal Corso v.6.3MaX
     Using radial grid of 1073 points,  4 beta functions with:
                l(1) =   0
                l(2) =   0
                l(3) =   1
                l(4) =   1
     Q(r) pseudized with 0 coefficients

     PseudoPot. # 3 for Fe read from file:
     /home/cristian/Escritorio/Proyecto_Grafeno/pseudopotenciales/Fe.pbe-spn-rrkjus_psl.1.0.0.UPF
     MD5 check sum: 72ea77fed8e64ab3a2ccf2804dfc1862
     Pseudo is Ultrasoft + core correction, Zval = 16.0
     Generated using "atomic" code by A. Dal Corso v.6.3
     Using radial grid of 1191 points,  6 beta functions with:
                l(1) =   0
                l(2) =   0
                l(3) =   1
                l(4) =   1
                l(5) =   2
                l(6) =   2
     Q(r) pseudized with 0 coefficients

     vdW kernel table read from file rVV10_kernel_table
     MD5 check sum: b8e2538accc0c0b3206b45ba4daaba6c

     atomic species   valence    mass     pseudopotential
        H              1.00     1.00794     H ( 1.00)
        C              4.00    12.01070     C ( 1.00)
        Fe            16.00    55.84500     Fe( 1.00)

     Starting magnetic structure
     atomic species   magnetization
        H            0.500
        C            0.300
        Fe           0.800

     No symmetry found

                                    s                        frac. trans.

      isym =  1     identity

 cryst.   s( 1) = (     1          0          0      )
                  (     0          1          0      )
                  (     0          0          1      )

 cart.    s( 1) = (  1.0000000  0.0000000  0.0000000 )
                  (  0.0000000  1.0000000  0.0000000 )
                  (  0.0000000  0.0000000  1.0000000 )

     point group C_1 (1)
     there are  1 classes
     the character table:

       E
A      1.00

     the symmetry operations in each class and the name of the first element:

     E        1
          identity

   Cartesian axes

     site n.     atom                  positions (alat units)
         1           H   tau(   1) = (   0.1694937   0.4618802   0.2433783  )
         2           H   tau(   2) = (   0.2305063   0.4618802   0.2433783  )
         3           C   tau(   3) = (   0.0000000   0.0000000   0.0000000  )
         4           C   tau(   4) = (   0.0000000   0.1154701   0.0000000  )
         5           C   tau(   5) = (  -0.1000000   0.1732051   0.0000000  )
         6           C   tau(   6) = (  -0.1000000   0.2886751   0.0000000  )
         7           C   tau(   7) = (  -0.2000000   0.3464102   0.0000000  )
         8           C   tau(   8) = (  -0.2000000   0.4618802   0.0000000  )
         9           C   tau(   9) = (  -0.3000000   0.5196152   0.0000000  )
        10           C   tau(  10) = (  -0.3000000   0.6350853   0.0000000  )
        11           C   tau(  11) = (  -0.4000000   0.6928203   0.0000000  )
        12           C   tau(  12) = (  -0.4000000   0.8082904   0.0000000  )
        13           C   tau(  13) = (   0.2000000   0.0000000   0.0000000  )
        14           C   tau(  14) = (   0.2000000   0.1154701   0.0000000  )
        15           C   tau(  15) = (   0.1000000   0.1732051   0.0000000  )
        16           C   tau(  16) = (   0.1000000   0.2886751   0.0000000  )
        17           C   tau(  17) = (   0.0000000   0.3464102   0.0000000  )
        18           C   tau(  18) = (   0.0000000   0.4618802   0.0000000  )
        19           C   tau(  19) = (  -0.1000000   0.5196152   0.0000000  )
        20           C   tau(  20) = (  -0.1000000   0.6350853   0.0000000  )
        21           C   tau(  21) = (  -0.2000000   0.6928203   0.0000000  )
        22           C   tau(  22) = (  -0.2000000   0.8082904   0.0000000  )
        23           C   tau(  23) = (   0.4000000   0.0000000   0.0000000  )
        24           C   tau(  24) = (   0.4000000   0.1154701   0.0000000  )
        25           C   tau(  25) = (   0.3000000   0.1732051   0.0000000  )
        26           C   tau(  26) = (   0.3000000   0.2886751   0.0000000  )
        27           C   tau(  27) = (   0.2000000   0.3464102   0.0000000  )
        28           Fe  tau(  28) = (   0.2000000   0.4618802   0.0000000  )
        29           C   tau(  29) = (   0.1000000   0.5196152   0.0000000  )
        30           C   tau(  30) = (   0.1000000   0.6350853   0.0000000  )
        31           C   tau(  31) = (   0.0000000   0.6928203   0.0000000  )
        32           C   tau(  32) = (   0.0000000   0.8082904   0.0000000  )
        33           C   tau(  33) = (   0.6000000   0.0000000   0.0000000  )
        34           C   tau(  34) = (   0.6000000   0.1154701   0.0000000  )
        35           C   tau(  35) = (   0.5000000   0.1732051   0.0000000  )
        36           C   tau(  36) = (   0.5000000   0.2886751   0.0000000  )
        37           C   tau(  37) = (   0.4000000   0.3464102   0.0000000  )
        38           C   tau(  38) = (   0.4000000   0.4618802   0.0000000  )
        39           C   tau(  39) = (   0.3000000   0.5196152   0.0000000  )
        40           C   tau(  40) = (   0.3000000   0.6350853   0.0000000  )
        41           C   tau(  41) = (   0.2000000   0.6928203   0.0000000  )
        42           C   tau(  42) = (   0.2000000   0.8082904   0.0000000  )
        43           C   tau(  43) = (   0.8000000   0.0000000   0.0000000  )
        44           C   tau(  44) = (   0.8000000   0.1154701   0.0000000  )
        45           C   tau(  45) = (   0.7000000   0.1732051   0.0000000  )
        46           C   tau(  46) = (   0.7000000   0.2886751   0.0000000  )
        47           C   tau(  47) = (   0.6000000   0.3464102   0.0000000  )
        48           C   tau(  48) = (   0.6000000   0.4618802   0.0000000  )
        49           C   tau(  49) = (   0.5000000   0.5196152   0.0000000  )
        50           C   tau(  50) = (   0.5000000   0.6350853   0.0000000  )
        51           C   tau(  51) = (   0.4000000   0.6928203   0.0000000  )
        52           C   tau(  52) = (   0.4000000   0.8082904   0.0000000  )

   Crystallographic axes

     site n.     atom                  positions (cryst. coord.)
         1           H   tau(   1) = (  0.4361603  0.5333333  0.3000000  )
         2           H   tau(   2) = (  0.4971730  0.5333333  0.3000000  )
         3           C   tau(   3) = (  0.0000000  0.0000000  0.0000000  )
         4           C   tau(   4) = (  0.0666667  0.1333333  0.0000000  )
         5           C   tau(   5) = (  0.0000000  0.2000000  0.0000000  )
         6           C   tau(   6) = (  0.0666667  0.3333333  0.0000000  )
         7           C   tau(   7) = (  0.0000000  0.4000000  0.0000000  )
         8           C   tau(   8) = (  0.0666667  0.5333333  0.0000000  )
         9           C   tau(   9) = (  0.0000000  0.6000000  0.0000000  )
        10           C   tau(  10) = (  0.0666667  0.7333333  0.0000000  )
        11           C   tau(  11) = (  0.0000000  0.8000000  0.0000000  )
        12           C   tau(  12) = (  0.0666667  0.9333333  0.0000000  )
        13           C   tau(  13) = (  0.2000000  0.0000000  0.0000000  )
        14           C   tau(  14) = (  0.2666667  0.1333333  0.0000000  )
        15           C   tau(  15) = (  0.2000000  0.2000000  0.0000000  )
        16           C   tau(  16) = (  0.2666667  0.3333333  0.0000000  )
        17           C   tau(  17) = (  0.2000000  0.4000000  0.0000000  )
        18           C   tau(  18) = (  0.2666667  0.5333333  0.0000000  )
        19           C   tau(  19) = (  0.2000000  0.6000000  0.0000000  )
        20           C   tau(  20) = (  0.2666667  0.7333333  0.0000000  )
        21           C   tau(  21) = (  0.2000000  0.8000000  0.0000000  )
        22           C   tau(  22) = (  0.2666667  0.9333333  0.0000000  )
        23           C   tau(  23) = (  0.4000000  0.0000000  0.0000000  )
        24           C   tau(  24) = (  0.4666667  0.1333333  0.0000000  )
        25           C   tau(  25) = (  0.4000000  0.2000000  0.0000000  )
        26           C   tau(  26) = (  0.4666667  0.3333333  0.0000000  )
        27           C   tau(  27) = (  0.4000000  0.4000000  0.0000000  )
        28           Fe  tau(  28) = (  0.4666667  0.5333333  0.0000000  )
        29           C   tau(  29) = (  0.4000000  0.6000000  0.0000000  )
        30           C   tau(  30) = (  0.4666667  0.7333333  0.0000000  )
[...]
        45           C   tau(  45) = (  0.8000000  0.2000000  0.0000000  )
        46           C   tau(  46) = (  0.8666667  0.3333333  0.0000000  )
        47           C   tau(  47) = (  0.8000000  0.4000000  0.0000000  )
        48           C   tau(  48) = (  0.8666667  0.5333333  0.0000000  )
        49           C   tau(  49) = (  0.8000000  0.6000000  0.0000000  )
        50           C   tau(  50) = (  0.8666667  0.7333333  0.0000000  )
        51           C   tau(  51) = (  0.8000000  0.8000000  0.0000000  )
        52           C   tau(  52) = (  0.8666667  0.9333333  0.0000000  )

     number of k points=     1  Marzari-Vanderbilt smearing, width (Ry)=  0.0010
                       cart. coord. in units 2pi/alat
        k(    1) = (   0.0000000   0.0000000   0.0000000), wk =   1.0000000

                       cryst. coord.
        k(    1) = (   0.0000000   0.0000000   0.0000000), wk =   1.0000000

     Check: negative core charge=   -0.000002

     Initial potential from superposition of free atoms

     starting charge  213.80512, renormalised to  214.00000

     negative rho (up, down):  5.966E-05 1.057E-02

Carrying out rVV10 run using the following parameters:
Nqs =      20    Nr_points =    1024   r_max =   100.000
b_value =  6.30000    beta =  0.00901
     q_mesh =  0.00010000  0.00030000  0.00058939  0.00100810
               0.00161396  0.00249058  0.00375900  0.00559430
               0.00824984  0.01209221  0.01765183  0.02569619
               0.03733578  0.05417739  0.07854596  0.11380545
               0.16482331  0.23864234  0.34545298  0.50000000

Gradients computed in Reciprocal space

     Starting wfcs are  208 randomized atomic wfcs

     Self-consistent Calculation

     iteration #  1     ecut=    70.00 Ry     beta= 0.30
     Davidson diagonalization with overlap
     ethr =  1.00E-02,  avg # of iterations =  2.5

[...]

     total energy              =    -858.02426287 Ry
     Harris-Foulkes estimate   =    -858.62691768 Ry
     estimated scf accuracy    <      10.24413283 Ry

     total magnetization       =     6.00 Bohr mag/cell
     absolute magnetization    =     6.64 Bohr mag/cell

[...]

     iteration #  6     ecut=    70.00 Ry     beta= 0.30
     Davidson diagonalization with overlap
     c_bands:  4 eigenvalues not converged
     ethr =  2.30E-04,  avg # of iterations = 13.0

[...]

     Magnetic moment per site:
     atom:    1    charge:    0.2107    magn:    0.0009    constr:    0.0000
     atom:    2    charge:    0.2107    magn:    0.0009    constr:    0.0000
     atom:    3    charge:    1.7168    magn:   -0.0077    constr:    0.0000
     atom:    4    charge:    1.7152    magn:    0.0145    constr:    0.0000
     atom:    5    charge:    1.7176    magn:   -0.0051    constr:    0.0000
     atom:    6    charge:    1.7143    magn:    0.0034    constr:    0.0000
     atom:    7    charge:    1.7172    magn:   -0.0038    constr:    0.0000
     atom:    8    charge:    1.7158    magn:    0.0105    constr:    0.0000
     atom:    9    charge:    1.7162    magn:   -0.0074    constr:    0.0000
     atom:   10    charge:    1.7176    magn:    0.0328    constr:    0.0000
     atom:   11    charge:    1.7167    magn:   -0.0111    constr:    0.0000
     atom:   12    charge:    1.7152    magn:    0.0484    constr:    0.0000
     atom:   13    charge:    1.7171    magn:   -0.0123    constr:    0.0000
     atom:   14    charge:    1.7170    magn:    0.0286    constr:    0.0000
     atom:   15    charge:    1.7131    magn:   -0.0079    constr:    0.0000
     atom:   16    charge:    1.7128    magn:    0.0359    constr:    0.0000
     atom:   17    charge:    1.7218    magn:   -0.0043    constr:    0.0000
     atom:   18    charge:    1.7134    magn:    0.0341    constr:    0.0000
     atom:   19    charge:    1.7133    magn:   -0.0081    constr:    0.0000
     atom:   20    charge:    1.7161    magn:    0.0357    constr:    0.0000
     atom:   21    charge:    1.7167    magn:   -0.0112    constr:    0.0000
     atom:   22    charge:    1.7150    magn:    0.0506    constr:    0.0000
     atom:   23    charge:    1.7169    magn:   -0.0079    constr:    0.0000
     atom:   24    charge:    1.7151    magn:    0.0148    constr:    0.0000
     atom:   25    charge:    1.7132    magn:   -0.0079    constr:    0.0000
     atom:   26    charge:    1.7127    magn:    0.0377    constr:    0.0000
     atom:   27    charge:    1.8518    magn:   -0.0169    constr:    0.0000
     atom:   28    charge:   11.1523    magn:    0.5116    constr:    0.0000
     atom:   29    charge:    1.8522    magn:   -0.0115    constr:    0.0000
     atom:   30    charge:    1.7115    magn:    0.0483    constr:    0.0000
     atom:   31    charge:    1.7135    magn:   -0.0080    constr:    0.0000
     atom:   32    charge:    1.7156    magn:    0.0126    constr:    0.0000
     atom:   33    charge:    1.7174    magn:   -0.0042    constr:    0.0000
     atom:   34    charge:    1.7143    magn:    0.0094    constr:    0.0000
     atom:   35    charge:    1.7177    magn:   -0.0052    constr:    0.0000
     atom:   36    charge:    1.7143    magn:    0.0034    constr:    0.0000
     atom:   37    charge:    1.7219    magn:   -0.0045    constr:    0.0000
     atom:   38    charge:    1.7134    magn:    0.0360    constr:    0.0000
     atom:   39    charge:    1.8524    magn:   -0.0108    constr:    0.0000
     atom:   40    charge:    1.7116    magn:    0.0484    constr:    0.0000
     atom:   41    charge:    1.7223    magn:   -0.0042    constr:    0.0000
     atom:   42    charge:    1.7145    magn:    0.0026    constr:    0.0000
     atom:   43    charge:    1.7174    magn:   -0.0041    constr:    0.0000
     atom:   44    charge:    1.7143    magn:    0.0090    constr:    0.0000
     atom:   45    charge:    1.7227    magn:    0.0023    constr:    0.0000
     atom:   46    charge:    1.7147    magn:    0.0059    constr:    0.0000
     atom:   47    charge:    1.7172    magn:   -0.0037    constr:    0.0000
     atom:   48    charge:    1.7159    magn:    0.0102    constr:    0.0000
     atom:   49    charge:    1.7134    magn:   -0.0082    constr:    0.0000
     atom:   50    charge:    1.7161    magn:    0.0371    constr:    0.0000
     atom:   51    charge:    1.7136    magn:   -0.0081    constr:    0.0000
     atom:   52    charge:    1.7157    magn:    0.0120    constr:    0.0000

[...]

     total energy              =    -860.05010781 Ry
     Harris-Foulkes estimate   =    -860.05010865 Ry
     estimated scf accuracy    <       0.00000106 Ry

[...]

     iteration #200     ecut=    70.00 Ry     beta= 0.30
     Davidson diagonalization with overlap
     ethr =  4.95E-10,  avg # of iterations =  3.0

     negative rho (up, down):  6.117E-04 1.411E-02

     Magnetic moment per site:
     atom:    1    charge:    0.2107    magn:    0.0008    constr:    0.0000
     atom:    2    charge:    0.2108    magn:    0.0008    constr:    0.0000
     atom:    3    charge:    1.7169    magn:   -0.0099    constr:    0.0000
     atom:    4    charge:    1.7151    magn:    0.0165    constr:    0.0000
     atom:    5    charge:    1.7177    magn:   -0.0071    constr:    0.0000
     atom:    6    charge:    1.7142    magn:    0.0046    constr:    0.0000
     atom:    7    charge:    1.7173    magn:   -0.0053    constr:    0.0000
     atom:    8    charge:    1.7157    magn:    0.0120    constr:    0.0000
     atom:    9    charge:    1.7163    magn:   -0.0092    constr:    0.0000
     atom:   10    charge:    1.7174    magn:    0.0355    constr:    0.0000
     atom:   11    charge:    1.7168    magn:   -0.0131    constr:    0.0000
     atom:   12    charge:    1.7151    magn:    0.0528    constr:    0.0000
     atom:   13    charge:    1.7173    magn:   -0.0144    constr:    0.0000
     atom:   14    charge:    1.7169    magn:    0.0312    constr:    0.0000
     atom:   15    charge:    1.7132    magn:   -0.0093    constr:    0.0000
     atom:   16    charge:    1.7126    magn:    0.0391    constr:    0.0000
     atom:   17    charge:    1.7220    magn:   -0.0072    constr:    0.0000
     atom:   18    charge:    1.7133    magn:    0.0363    constr:    0.0000
     atom:   19    charge:    1.7134    magn:   -0.0094    constr:    0.0000
     atom:   20    charge:    1.7162    magn:    0.0383    constr:    0.0000
     atom:   21    charge:    1.7168    magn:   -0.0130    constr:    0.0000
     atom:   22    charge:    1.7148    magn:    0.0550    constr:    0.0000
     atom:   23    charge:    1.7171    magn:   -0.0101    constr:    0.0000
     atom:   24    charge:    1.7151    magn:    0.0168    constr:    0.0000
     atom:   25    charge:    1.7133    magn:   -0.0092    constr:    0.0000
     atom:   26    charge:    1.7124    magn:    0.0409    constr:    0.0000
     atom:   27    charge:    1.8520    magn:   -0.0187    constr:    0.0000
     atom:   28    charge:   11.1510    magn:    0.5134    constr:    0.0000
     atom:   29    charge:    1.8524    magn:   -0.0126    constr:    0.0000
     atom:   30    charge:    1.7114    magn:    0.0524    constr:    0.0000
     atom:   31    charge:    1.7136    magn:   -0.0098    constr:    0.0000
     atom:   32    charge:    1.7155    magn:    0.0146    constr:    0.0000
     atom:   33    charge:    1.7174    magn:   -0.0060    constr:    0.0000
     atom:   34    charge:    1.7141    magn:    0.0114    constr:    0.0000
     atom:   35    charge:    1.7177    magn:   -0.0071    constr:    0.0000
     atom:   36    charge:    1.7142    magn:    0.0047    constr:    0.0000
     atom:   37    charge:    1.7221    magn:   -0.0079    constr:    0.0000
     atom:   38    charge:    1.7130    magn:    0.0393    constr:    0.0000
     atom:   39    charge:    1.8527    magn:   -0.0130    constr:    0.0000
     atom:   40    charge:    1.7112    magn:    0.0536    constr:    0.0000
     atom:   41    charge:    1.7225    magn:   -0.0077    constr:    0.0000
     atom:   42    charge:    1.7145    magn:    0.0038    constr:    0.0000
     atom:   43    charge:    1.7174    magn:   -0.0061    constr:    0.0000
     atom:   44    charge:    1.7142    magn:    0.0111    constr:    0.0000
     atom:   45    charge:    1.7229    magn:   -0.0020    constr:    0.0000
     atom:   46    charge:    1.7146    magn:    0.0075    constr:    0.0000
     atom:   47    charge:    1.7173    magn:   -0.0054    constr:    0.0000
     atom:   48    charge:    1.7158    magn:    0.0118    constr:    0.0000
     atom:   49    charge:    1.7135    magn:   -0.0097    constr:    0.0000
     atom:   50    charge:    1.7159    magn:    0.0408    constr:    0.0000
     atom:   51    charge:    1.7137    magn:   -0.0102    constr:    0.0000
     atom:   52    charge:    1.7156    magn:    0.0139    constr:    0.0000

     End of self-consistent calculation

 ------ SPIN UP ------------

          k = 0.0000 0.0000 0.0000 ( 87777 PWs)   bands (ev):

   -88.9763 -55.8776 -55.7554 -54.2587 -19.8204 -18.9993 -18.9711 -18.8905
   -18.8793 -18.8715 -18.5524 -17.1366 -17.1142 -17.1092 -17.0509 -17.0410
   -16.7379 -16.2779 -16.2677 -16.1680 -16.1310 -16.1247 -15.4567 -14.2029
   -14.1614 -14.0947 -14.0389 -14.0318 -13.3961 -13.1116 -13.1050 -13.0792
   -12.8125 -12.8079 -12.3900 -11.9008 -11.8946 -11.6992 -11.4623 -11.4569
   -10.5969  -9.7875  -9.7805  -9.4856  -9.3588  -9.3573  -9.2684  -9.2398
    -9.2377  -9.2268  -8.7790  -8.7749  -8.2642  -8.2550  -8.1450  -7.9766
    -7.8784  -7.4880  -7.4809  -7.3201  -7.2307  -7.2065  -7.0508  -7.0481
    -6.8850  -6.8723  -6.8523  -6.7636  -6.7396  -6.6140  -6.5935  -6.5763
    -6.5688  -6.5618  -6.5214  -6.3510  -5.7594  -5.7305  -5.7228  -5.6981
    -5.4438  -5.4371  -5.3878  -5.0285  -4.9269  -4.7860  -4.7591  -4.7493
    -4.5382  -4.5329  -4.4397  -4.3047  -4.2756  -3.9126  -3.9049  -3.8250
    -3.7296  -3.7227  -3.1882  -2.9102  -2.8903  -1.9135  -1.8464  -1.8412
    -1.5096  -1.3134  -1.1883  -0.9076   0.8794   0.9253   0.9298   1.4141
     1.4510   1.5623   2.2407   2.2719   2.5377   2.7310   2.7317   2.8194
     3.2874   3.3364   3.4846   3.4911   3.6650   3.7516   3.7586   3.7595

     occupation numbers
     1.0000   1.0000   1.0000   1.0000   1.0000   1.0000   1.0000   1.0000
     1.0000   1.0000   1.0000   1.0000   1.0000   1.0000   1.0000   1.0000
     1.0000   1.0000   1.0000   1.0000   1.0000   1.0000   1.0000   1.0000
     1.0000   1.0000   1.0000   1.0000   1.0000   1.0000   1.0000   1.0000
     1.0000   1.0000   1.0000   1.0000   1.0000   1.0000   1.0000   1.0000
     1.0000   1.0000   1.0000   1.0000   1.0000   1.0000   1.0000   1.0000
     1.0000   1.0000   1.0000   1.0000   1.0000   1.0000   1.0000   1.0000
     1.0000   1.0000   1.0000   1.0000   1.0000   1.0000   1.0000   1.0000
     1.0000   1.0000   1.0000   1.0000   1.0000   1.0000   1.0000   1.0000
     1.0000   1.0000   1.0000   1.0000   1.0000   1.0000   1.0000   1.0000
     1.0000   1.0000   1.0000   1.0000   1.0000   1.0000   1.0000   1.0000
     1.0000   1.0000   1.0000   1.0000   1.0000   1.0000   1.0000   1.0000
     1.0000   1.0000   1.0000   1.0000   1.0000   1.0000   1.0000   1.0000
     1.0000   1.0000   1.0000   1.0080   0.0000   0.0000   0.0000   0.0000
     0.0000   0.0000   0.0000   0.0000   0.0000   0.0000   0.0000   0.0000
     0.0000   0.0000   0.0000   0.0000   0.0000   0.0000   0.0000   0.0000

 ------ SPIN DOWN ----------

          k = 0.0000 0.0000 0.0000 ( 87777 PWs)   bands (ev):

   -88.1556 -55.1728 -55.1375 -53.2191 -19.7850 -18.9561 -18.9311 -18.8618
   -18.8546 -18.8497 -18.5009 -17.0992 -17.0895 -17.0830 -17.0051 -16.9974
   -16.7109 -16.2361 -16.2332 -16.1386 -16.0914 -16.0896 -15.4318 -14.1325
   -14.1095 -14.0453 -14.0292 -14.0213 -13.3960 -13.0878 -13.0830 -13.0525
   -12.7926 -12.7919 -12.3618 -11.8672 -11.8594 -11.6782 -11.4396 -11.4388
   -10.5696  -9.7316  -9.7262  -9.4585  -9.3307  -9.3304  -9.2536  -9.2195
    -9.2185  -9.2115  -8.7654  -8.7623  -8.2236  -8.2155  -8.1196  -7.8948
    -7.8634  -7.4760  -7.4674  -7.2815  -7.0645  -7.0577  -6.9964  -6.9959
    -6.8174  -6.8087  -6.7907  -6.7505  -6.6865  -6.5978  -6.5798  -6.5670
    -6.5577  -6.5507  -6.5049  -6.2748  -5.6645  -5.6590  -5.5030  -5.5025
    -5.3997  -5.3947  -5.2261  -5.0158  -4.9190  -4.7209  -4.6797  -4.6786
    -4.4548  -4.4466  -4.3729  -4.1804  -4.1770  -3.8023  -3.7966  -3.7458
    -3.7146  -3.7092  -3.1360  -2.6847  -2.6772  -1.8218  -1.8167  -1.7855
    -0.9320  -0.8848  -0.8478  -0.7970   0.9656   0.9704   1.0053   1.5713
     1.5717   1.6729   2.4292   2.4488   2.5480   2.8429   2.8505   2.8843
     3.4210   3.4604   3.5258   3.5840   3.6784   3.7558   3.7621   3.7667

     occupation numbers
     1.0000   1.0000   1.0000   1.0000   1.0000   1.0000   1.0000   1.0000
     1.0000   1.0000   1.0000   1.0000   1.0000   1.0000   1.0000   1.0000
     1.0000   1.0000   1.0000   1.0000   1.0000   1.0000   1.0000   1.0000
     1.0000   1.0000   1.0000   1.0000   1.0000   1.0000   1.0000   1.0000
     1.0000   1.0000   1.0000   1.0000   1.0000   1.0000   1.0000   1.0000
     1.0000   1.0000   1.0000   1.0000   1.0000   1.0000   1.0000   1.0000
     1.0000   1.0000   1.0000   1.0000   1.0000   1.0000   1.0000   1.0000
     1.0000   1.0000   1.0000   1.0000   1.0000   1.0000   1.0000   1.0000
     1.0000   1.0000   1.0000   1.0000   1.0000   1.0000   1.0000   1.0000
     1.0000   1.0000   1.0000   1.0000   1.0000   1.0000   1.0000   1.0000
     1.0000   1.0000   1.0000   1.0000   1.0000   1.0000   1.0000   1.0000
     1.0000   1.0000   1.0000   1.0000   1.0000   1.0000   1.0000   1.0000
     1.0000   1.0000   1.0000   1.0000   1.0000   1.0000   1.0000   1.0000
     1.0000   0.9912   0.0008   0.0000   0.0000   0.0000   0.0000   0.0000
     0.0000   0.0000   0.0000   0.0000   0.0000   0.0000   0.0000   0.0000
     0.0000   0.0000   0.0000   0.0000   0.0000   0.0000   0.0000   0.0000

     the Fermi energy is    -0.8725 ev

!    total energy              =    -860.05010914 Ry
     Harris-Foulkes estimate   =    -860.05010831 Ry
     estimated scf accuracy    <       0.00000059 Ry

     The total energy is the sum of the following terms:

     one-electron contribution =   -2798.36154837 Ry
     hartree contribution      =    1443.22555369 Ry
     xc contribution           =    -259.34938403 Ry
     ewald contribution        =     754.43517518 Ry
     smearing contrib. (-TS)   =       0.00009438 Ry

     total magnetization       =     2.02 Bohr mag/cell
     absolute magnetization    =     2.87 Bohr mag/cell

     convergence has been achieved in 200 iterations

     Writing output data file Hierro-top-distance-3.0.save/

     General routines

     Parallel routines

   This run was terminated on:  16:17: 3   8Jan2023

   JOB DONE.