     Program PWSCF v.6.4.1 starts on 30Jul2022 at 21: 3:46

     R & G space division:  proc/nbgrp/npool/nimage =       6
     Reading input from mn-20.in

     Current dimensions of program PWSCF are:
     Max number of different atomic species (ntypx) = 10
     Max number of k-points (npk) =  40000
     Max angular momentum in pseudopotentials (lmaxx) =  3
               file Mn.pbe-spn-rrkjus_psl.0.3.1.UPF: wavefunction(s)  3D renormalized

     Subspace diagonalization in iterative solution of the eigenvalue problem:
     a serial algorithm will be used

     Message from routine setup:
     DEPRECATED: symmetry with ibrav=0, use correct ibrav instead

     bravais-lattice index     =            0
     lattice parameter (alat)  =      14.5833  a.u.
     unit-cell volume          =    2387.5141 (a.u.)^3
     number of atoms/cell      =           29
     number of atomic types    =            1
     number of electrons       =       435.00
     number of Kohn-Sham states=          262
     kinetic-energy cutoff     =      20.0000  Ry
     charge density cutoff     =      80.0000  Ry
     convergence threshold     =      1.0E-06
     mixing beta               =       0.7000
     number of iterations used =            8  plain     mixing
     Exchange-correlation      = PBE ( 1  4  3  4 0 0)

     celldm(1)=  14.583305  celldm(2)=   0.000000  celldm(3)=   0.000000
     celldm(4)=   0.000000  celldm(5)=   0.000000  celldm(6)=   0.000000

     crystal axes: (cart. coord. in units of alat)
               a(1) = (  -0.577350   0.577350   0.577350 )
               a(2) = (   0.577350  -0.577350   0.577350 )
               a(3) = (   0.577350   0.577350  -0.577350 )

     reciprocal axes: (cart. coord. in units 2 pi/alat)
               b(1) = (  0.000000  0.866025  0.866025 )
               b(2) = (  0.866025  0.000000  0.866025 )
               b(3) = (  0.866025  0.866025  0.000000 )

     PseudoPot. # 1 for Mn read from file:
     /home/cristian/Escritorio/Proyecto_Grafeno/pseudopotenciales/Mn.pbe-spn-rrkjus_psl.0.3.1.UPF
     MD5 check sum: e1cac159bdd2ba70c18e85765a5d4279
     Pseudo is Ultrasoft + core correction, Zval = 15.0
     Generated using "atomic" code by A. Dal Corso v.6.2.2
     Using radial grid of 1187 points,  6 beta functions with:
                l(1) =   0
                l(2) =   0
                l(3) =   1
                l(4) =   1
                l(5) =   2
                l(6) =   2
     Q(r) pseudized with 0 coefficients

     atomic species   valence    mass     pseudopotential
        Mn            15.00    54.93804     Mn( 1.00)

     Starting magnetic structure
     atomic species   magnetization
        Mn           0.700

     24 Sym. Ops. (no inversion) found

   Cartesian axes

     site n.     atom                  positions (alat units)
         1           Mn  tau(   1) = (   0.0000000   0.0000000   0.0000000  )
         2           Mn  tau(   2) = (   0.3670447   0.3670447   0.3670447  )
         3           Mn  tau(   3) = (   0.2103056   0.2103056  -0.2103056  )
         4           Mn  tau(   4) = (   0.2103056  -0.2103056   0.2103056  )
         5           Mn  tau(   5) = (  -0.2103056   0.2103056   0.2103056  )
         6           Mn  tau(   6) = (   0.4739122   0.4739122  -0.2517940  )
         7           Mn  tau(   7) = (   0.1034381   0.1034381   0.3255563  )
         8           Mn  tau(   8) = (   0.1034381  -0.1034381   0.8291443  )
         9           Mn  tau(   9) = (  -0.1034381   0.1034381   0.8291443  )
        10           Mn  tau(  10) = (  -0.2517940   0.4739122   0.4739122  )
        11           Mn  tau(  11) = (   0.3255563   0.1034381   0.1034381  )
        12           Mn  tau(  12) = (   0.8291443   0.1034381  -0.1034381  )
        13           Mn  tau(  13) = (   0.8291443  -0.1034381   0.1034381  )
        14           Mn  tau(  14) = (   0.4739122  -0.2517940   0.4739122  )
        15           Mn  tau(  15) = (   0.1034381   0.3255563   0.1034381  )
        16           Mn  tau(  16) = (  -0.1034381   0.8291443   0.1034381  )
        17           Mn  tau(  17) = (   0.1034381   0.8291443  -0.1034381  )
        18           Mn  tau(  18) = (   0.1650529   0.1650529   0.6172683  )
        19           Mn  tau(  19) = (   0.4122974   0.4122974   0.0399180  )
        20           Mn  tau(  20) = (  -0.1650529   0.1650529   0.5374323  )
        21           Mn  tau(  21) = (   0.1650529  -0.1650529   0.5374323  )
        22           Mn  tau(  22) = (   0.6172683   0.1650529   0.1650529  )
        23           Mn  tau(  23) = (   0.0399180   0.4122974   0.4122974  )
        24           Mn  tau(  24) = (   0.5374323  -0.1650529   0.1650529  )
        25           Mn  tau(  25) = (   0.5374323   0.1650529  -0.1650529  )
        26           Mn  tau(  26) = (   0.1650529   0.6172683   0.1650529  )
        27           Mn  tau(  27) = (   0.4122974   0.0399180   0.4122974  )
        28           Mn  tau(  28) = (   0.1650529   0.5374323  -0.1650529  )
        29           Mn  tau(  29) = (  -0.1650529   0.5374323   0.1650529  )

     number of k points=     8  Methfessel-Paxton smearing, width (Ry)=  0.0300
                       cart. coord. in units 2pi/alat
        k(    1) = (   0.0000000   0.0000000   0.0000000), wk =   0.0156250
        k(    2) = (   0.2165064   0.2165064   0.0000000), wk =   0.1875000
        k(    3) = (  -0.4330127  -0.4330127   0.0000000), wk =   0.0937500
        k(    4) = (   0.4330127   0.2165064   0.2165064), wk =   0.3750000
        k(    5) = (   0.4330127   0.4330127   0.4330127), wk =   0.0312500
        k(    6) = (   0.0000000   0.0000000   0.4330127), wk =   0.0937500
        k(    7) = (  -0.8660254  -0.2165064  -0.2165064), wk =   0.1875000
        k(    8) = (  -0.8660254  -0.8660254  -0.8660254), wk =   0.0156250

     Check: negative core charge=   -0.007959

     Initial potential from superposition of free atoms

     starting charge  434.98555, renormalised to  435.00000

     negative rho (up, down):  0.000E+00 1.463E-01
     Starting wfcs are  290 randomized atomic wfcs

     Self-consistent Calculation

     iteration #  1     ecut=    20.00 Ry     beta= 0.70
     Davidson diagonalization with overlap
     ethr =  1.00E-02,  avg # of iterations =  4.0

     negative rho (up, down):  0.000E+00 4.060E-03

     total energy              =   -6128.95173036 Ry
     Harris-Foulkes estimate   =   -6129.63246246 Ry
     estimated scf accuracy    <      89.60273394 Ry

     total magnetization       =    85.98 Bohr mag/cell
     absolute magnetization    =    86.15 Bohr mag/cell

[...]

     negative rho (up, down):  0.000E+00 1.317E-04

[...]

     total energy              =   -6151.64570145 Ry
     Harris-Foulkes estimate   =   -6151.64570426 Ry
     estimated scf accuracy    <       0.00000183 Ry

[...]

     iteration # 54     ecut=    20.00 Ry     beta= 0.70
     Davidson diagonalization with overlap
     ethr =  3.05E-10,  avg # of iterations =  3.9

     Magnetic moment per site:
     atom:    1    charge:   12.5069    magn:    0.0456    constr:    0.0000
     atom:    2    charge:   12.5292    magn:    0.0126    constr:    0.0000
     atom:    3    charge:   12.5292    magn:    0.0126    constr:    0.0000
     atom:    4    charge:   12.5292    magn:    0.0126    constr:    0.0000
     atom:    5    charge:   12.5292    magn:    0.0126    constr:    0.0000
     atom:    6    charge:   12.6653    magn:   -0.0004    constr:    0.0000
     atom:    7    charge:   12.6653    magn:   -0.0004    constr:    0.0000
     atom:    8    charge:   12.6653    magn:   -0.0004    constr:    0.0000
     atom:    9    charge:   12.6653    magn:   -0.0004    constr:    0.0000
     atom:   10    charge:   12.6653    magn:   -0.0004    constr:    0.0000
     atom:   11    charge:   12.6653    magn:   -0.0004    constr:    0.0000
     atom:   12    charge:   12.6653    magn:   -0.0004    constr:    0.0000
     atom:   13    charge:   12.6653    magn:   -0.0004    constr:    0.0000
     atom:   14    charge:   12.6653    magn:   -0.0004    constr:    0.0000
     atom:   15    charge:   12.6653    magn:   -0.0004    constr:    0.0000
     atom:   16    charge:   12.6653    magn:   -0.0004    constr:    0.0000
     atom:   17    charge:   12.6653    magn:   -0.0004    constr:    0.0000
     atom:   18    charge:   12.5994    magn:   -0.0009    constr:    0.0000
     atom:   19    charge:   12.5994    magn:   -0.0009    constr:    0.0000
     atom:   20    charge:   12.5994    magn:   -0.0009    constr:    0.0000
     atom:   21    charge:   12.5994    magn:   -0.0009    constr:    0.0000
     atom:   22    charge:   12.5994    magn:   -0.0009    constr:    0.0000
     atom:   23    charge:   12.5994    magn:   -0.0009    constr:    0.0000
     atom:   24    charge:   12.5994    magn:   -0.0009    constr:    0.0000
     atom:   25    charge:   12.5994    magn:   -0.0009    constr:    0.0000
     atom:   26    charge:   12.5994    magn:   -0.0009    constr:    0.0000
     atom:   27    charge:   12.5994    magn:   -0.0009    constr:    0.0000
     atom:   28    charge:   12.5994    magn:   -0.0009    constr:    0.0000
     atom:   29    charge:   12.5994    magn:   -0.0009    constr:    0.0000

     End of self-consistent calculation

 ------ SPIN UP ------------

          k = 0.0000 0.0000 0.0000 (  3559 PWs)   bands (ev):

   -69.6539 -69.5756 -69.5610 -69.5610 -69.5610 -69.5265 -69.5265 -69.5265
   -69.5187 -69.5093 -69.5093 -69.4804 -69.4804 -69.4804 -69.4758 -69.4758
   -69.4758 -69.3873 -69.3605 -69.3605 -69.3605 -69.3592 -69.3592 -69.3453
   -69.3453 -69.3453 -69.3376 -69.3376 -69.3376 -37.7125 -37.6607 -37.6607
   -37.6574 -37.6574 -37.6574 -37.6527 -37.6527 -37.6527 -37.6072 -37.6060
   -37.6060 -37.6060 -37.6053 -37.6053 -37.6053 -37.5836 -37.5836 -37.5836
   -37.5566 -37.5566 -37.5505 -37.5399 -37.5399 -37.5399 -37.5159 -37.5159
   -37.5159 -37.5062 -37.5062 -37.4959 -37.4959 -37.4959 -37.4858 -37.4858
   -37.4858 -37.4849 -37.4849 -37.4827 -37.4827 -37.4827 -37.4483 -37.4483
   -37.4483 -37.4224 -37.3802 -37.3802 -37.3710 -37.3710 -37.3710 -37.3525
   -37.3525 -37.3525 -37.3458 -37.3456 -37.3456 -37.3347 -37.3347 -37.3347
   -37.3131 -37.3131 -37.3131 -37.3062 -37.2981 -37.2981 -37.2981 -37.2781
   -37.2781 -37.2781 -37.2755 -37.2701 -37.2701 -37.2701 -37.2613 -37.2613
   -37.2613 -37.2515 -37.2515 -37.2388 -37.2388 -37.2388 -37.2300 -37.2300
   -37.2300 -37.2261 -37.2261 -37.2261  10.9696  13.7161  13.7161  13.7161
    13.7553  13.7553  13.7553  13.8831  13.8831  13.8831  13.9961  14.0612
    14.0612  14.3977  14.6157  14.6157  14.6157  14.8246  14.8246  14.8246
    14.9387  14.9634  14.9634  15.2874  15.2874  15.2874  15.3091  15.3091
    15.3091  15.3409  15.6669  15.6669  15.6669  15.6712  15.6712  15.6712
    15.6997  15.6997  16.0685  16.0685  16.1151  16.1151  16.1151  16.1716
    16.1716  16.1716  16.2813  16.2813  16.2813  16.2846  16.4883  16.4883
    16.5320  16.5320  16.5320  16.6657  16.6657  16.6982  16.6982  16.6982
    16.8066  16.8066  16.8066  17.0347  17.0347  17.0347  17.0437  17.0437
    17.0437  17.1463  17.1463  17.2343  17.3530  17.3530  17.3530  17.3917
    17.3917  17.3917  17.4438  17.7852  17.7852  17.7852  17.9927  17.9927
    18.0485  18.1786  18.1786  18.1786  18.2475  18.3669  18.3669  18.3669
    18.4779  18.4779  18.8034  18.8034  18.8034  18.8452  18.8452  18.8452
    19.0508  19.0508  19.1161  19.1161  19.3039  19.3039  19.3039  19.4735
    19.4735  19.4735  19.5526  19.5526  19.5526  19.6921  19.6921  19.7226
    19.7226  19.7226  19.9757  19.9757  19.9757  20.0483  20.1446  20.1446
    20.1446  20.2786  20.2786  20.2786  20.7162  20.7274  20.7274  20.7274
    20.9080  20.9080  20.9080  21.1348  21.1348  21.2372  21.2372  21.2372
    21.4395  21.4395  21.4395  21.4849  21.7133  21.8382

[...]

          k =-0.4330-0.4330 0.0000 (  3624 PWs)   bands (ev):

[...]

 ------ SPIN DOWN ----------

[...]

          k = 0.0000 0.0000 0.4330 (  3612 PWs)   bands (ev):

[...]

          k =-0.8660-0.8660-0.8660 (  3564 PWs)   bands (ev):

   -69.6118 -69.5600 -69.5515 -69.5515 -69.5515 -69.5306 -69.5263 -69.5263
   -69.5263 -69.5249 -69.5249 -69.4862 -69.4862 -69.4862 -69.4615 -69.4615
   -69.4615 -69.3777 -69.3777 -69.3683 -69.3683 -69.3683 -69.3456 -69.3442
   -69.3442 -69.3442 -69.3407 -69.3407 -69.3407 -37.6899 -37.6620 -37.6599
   -37.6599 -37.6599 -37.6471 -37.6471 -37.6471 -37.6359 -37.6359 -37.5987
   -37.5987 -37.5979 -37.5979 -37.5979 -37.5734 -37.5734 -37.5734 -37.5471
   -37.5471 -37.5471 -37.5453 -37.5365 -37.5365 -37.5365 -37.5264 -37.5264
   -37.5264 -37.5162 -37.5162 -37.5162 -37.4880 -37.4880 -37.4790 -37.4790
   -37.4790 -37.4687 -37.4687 -37.4687 -37.4565 -37.4459 -37.4459 -37.4459
   -37.4412 -37.4412 -37.3911 -37.3693 -37.3693 -37.3693 -37.3634 -37.3634
   -37.3622 -37.3622 -37.3622 -37.3492 -37.3492 -37.3492 -37.3391 -37.3300
   -37.3300 -37.3300 -37.3030 -37.3030 -37.2982 -37.2982 -37.2982 -37.2970
   -37.2804 -37.2804 -37.2783 -37.2783 -37.2783 -37.2781 -37.2781 -37.2781
   -37.2632 -37.2632 -37.2632 -37.2441 -37.2441 -37.2441 -37.2380 -37.2380
   -37.2380 -37.2212 -37.2212 -37.2212  12.5624  12.5624  12.5624  12.6270
    12.6270  12.7602  14.3883  14.4457  14.4457  14.4457  14.4912  14.6364
    14.6364  14.6364  14.6545  14.6545  14.6545  14.6707  14.7052  14.7052
    14.7052  14.8345  14.8345  15.5080  15.5080  15.5080  15.5289  15.5289
    15.5289  15.5536  15.5536  15.7643  15.7643  15.7643  15.9530  15.9530
    15.9530  15.9901  15.9901  15.9901  16.0180  16.0180  16.1626  16.1626
    16.1626  16.2383  16.2383  16.3292  16.3292  16.3606  16.3606  16.3606
    16.5391  16.5391  16.5391  16.5395  16.5395  16.5395  16.6437  16.6501
    16.7761  16.7761  16.7761  16.8032  16.8032  16.8032  16.9608  16.9754
    16.9754  17.1088  17.1088  17.1629  17.1629  17.1629  17.1940  17.1940
    17.1940  17.3859  17.4490  17.4490  17.4490  17.9031  17.9031  17.9031
    17.9477  17.9477  17.9477  18.0134  18.0134  18.2237  18.2237  18.2237
    18.3933  18.3933  18.3933  18.7762  18.7762  18.8368  18.8368  18.8368
    18.9844  18.9844  18.9844  19.0394  19.0394  19.0394  19.1368  19.3166
    19.5554  19.5554  19.5554  19.5783  19.5783  19.5783  19.6482  19.6482
    19.7052  19.9188  19.9188  19.9188  20.1216  20.1216  20.3381  20.3381
    20.3381  20.5407  20.5407  20.5407  20.6830  20.8636  20.8636  20.8636
    20.9257  20.9257  20.9257  21.0870  21.0870  21.1508  21.1508  21.1508
    21.4488  21.5850  21.5850  21.5850  21.6196  21.6196

     the Fermi energy is    18.7095 ev

!    total energy              =   -6151.64570489 Ry
     Harris-Foulkes estimate   =   -6151.64570484 Ry
     estimated scf accuracy    <       0.00000011 Ry

     The total energy is the sum of the following terms:

     one-electron contribution =   -2428.41217673 Ry
     hartree contribution      =    1378.72495778 Ry
     xc contribution           =    -783.23662582 Ry
     ewald contribution        =   -4318.71627669 Ry
     smearing contrib. (-TS)   =      -0.00558343 Ry

     total magnetization       =     0.08 Bohr mag/cell
     absolute magnetization    =     0.13 Bohr mag/cell

     convergence has been achieved in  54 iterations

     Writing output data file mn-20.save/

     General routines

     Parallel routines

   This run was terminated on:  22:38:15  30Jul2022

   JOB DONE.