     Program PWSCF v.6.4.1 starts on 30Jul2022 at 22:38:15

     R & G space division:  proc/nbgrp/npool/nimage =       6
     Reading input from mn-30.in

     Current dimensions of program PWSCF are:
     Max number of different atomic species (ntypx) = 10
     Max number of k-points (npk) =  40000
     Max angular momentum in pseudopotentials (lmaxx) =  3
               file Mn.pbe-spn-rrkjus_psl.0.3.1.UPF: wavefunction(s)  3D renormalized

     Subspace diagonalization in iterative solution of the eigenvalue problem:
     a serial algorithm will be used

     Message from routine setup:
     DEPRECATED: symmetry with ibrav=0, use correct ibrav instead

     bravais-lattice index     =            0
     lattice parameter (alat)  =      14.5833  a.u.
     unit-cell volume          =    2387.5141 (a.u.)^3
     number of atoms/cell      =           29
     number of atomic types    =            1
     number of electrons       =       435.00
     number of Kohn-Sham states=          262
     kinetic-energy cutoff     =      30.0000  Ry
     charge density cutoff     =     120.0000  Ry
     convergence threshold     =      1.0E-06
     mixing beta               =       0.7000
     number of iterations used =            8  plain     mixing
     Exchange-correlation      = PBE ( 1  4  3  4 0 0)

     celldm(1)=  14.583305  celldm(2)=   0.000000  celldm(3)=   0.000000
     celldm(4)=   0.000000  celldm(5)=   0.000000  celldm(6)=   0.000000

     crystal axes: (cart. coord. in units of alat)
               a(1) = (  -0.577350   0.577350   0.577350 )
               a(2) = (   0.577350  -0.577350   0.577350 )
               a(3) = (   0.577350   0.577350  -0.577350 )

     reciprocal axes: (cart. coord. in units 2 pi/alat)
               b(1) = (  0.000000  0.866025  0.866025 )
               b(2) = (  0.866025  0.000000  0.866025 )
               b(3) = (  0.866025  0.866025  0.000000 )

     PseudoPot. # 1 for Mn read from file:
     /home/cristian/Escritorio/Proyecto_Grafeno/pseudopotenciales/Mn.pbe-spn-rrkjus_psl.0.3.1.UPF
     MD5 check sum: e1cac159bdd2ba70c18e85765a5d4279
     Pseudo is Ultrasoft + core correction, Zval = 15.0
     Generated using "atomic" code by A. Dal Corso v.6.2.2
     Using radial grid of 1187 points,  6 beta functions with:
                l(1) =   0
                l(2) =   0
                l(3) =   1
                l(4) =   1
                l(5) =   2
                l(6) =   2
     Q(r) pseudized with 0 coefficients

     atomic species   valence    mass     pseudopotential
        Mn            15.00    54.93804     Mn( 1.00)

     Starting magnetic structure
     atomic species   magnetization
        Mn           0.700

     24 Sym. Ops. (no inversion) found

   Cartesian axes

     site n.     atom                  positions (alat units)
         1           Mn  tau(   1) = (   0.0000000   0.0000000   0.0000000  )
         2           Mn  tau(   2) = (   0.3670447   0.3670447   0.3670447  )
         3           Mn  tau(   3) = (   0.2103056   0.2103056  -0.2103056  )
         4           Mn  tau(   4) = (   0.2103056  -0.2103056   0.2103056  )
         5           Mn  tau(   5) = (  -0.2103056   0.2103056   0.2103056  )
         6           Mn  tau(   6) = (   0.4739122   0.4739122  -0.2517940  )
         7           Mn  tau(   7) = (   0.1034381   0.1034381   0.3255563  )
         8           Mn  tau(   8) = (   0.1034381  -0.1034381   0.8291443  )
         9           Mn  tau(   9) = (  -0.1034381   0.1034381   0.8291443  )
        10           Mn  tau(  10) = (  -0.2517940   0.4739122   0.4739122  )
        11           Mn  tau(  11) = (   0.3255563   0.1034381   0.1034381  )
        12           Mn  tau(  12) = (   0.8291443   0.1034381  -0.1034381  )
        13           Mn  tau(  13) = (   0.8291443  -0.1034381   0.1034381  )
        14           Mn  tau(  14) = (   0.4739122  -0.2517940   0.4739122  )
        15           Mn  tau(  15) = (   0.1034381   0.3255563   0.1034381  )
        16           Mn  tau(  16) = (  -0.1034381   0.8291443   0.1034381  )
        17           Mn  tau(  17) = (   0.1034381   0.8291443  -0.1034381  )
        18           Mn  tau(  18) = (   0.1650529   0.1650529   0.6172683  )
        19           Mn  tau(  19) = (   0.4122974   0.4122974   0.0399180  )
        20           Mn  tau(  20) = (  -0.1650529   0.1650529   0.5374323  )
        21           Mn  tau(  21) = (   0.1650529  -0.1650529   0.5374323  )
        22           Mn  tau(  22) = (   0.6172683   0.1650529   0.1650529  )
        23           Mn  tau(  23) = (   0.0399180   0.4122974   0.4122974  )
        24           Mn  tau(  24) = (   0.5374323  -0.1650529   0.1650529  )
        25           Mn  tau(  25) = (   0.5374323   0.1650529  -0.1650529  )
        26           Mn  tau(  26) = (   0.1650529   0.6172683   0.1650529  )
        27           Mn  tau(  27) = (   0.4122974   0.0399180   0.4122974  )
        28           Mn  tau(  28) = (   0.1650529   0.5374323  -0.1650529  )
        29           Mn  tau(  29) = (  -0.1650529   0.5374323   0.1650529  )

     number of k points=     8  Methfessel-Paxton smearing, width (Ry)=  0.0300
                       cart. coord. in units 2pi/alat
        k(    1) = (   0.0000000   0.0000000   0.0000000), wk =   0.0156250
        k(    2) = (   0.2165064   0.2165064   0.0000000), wk =   0.1875000
        k(    3) = (  -0.4330127  -0.4330127   0.0000000), wk =   0.0937500
        k(    4) = (   0.4330127   0.2165064   0.2165064), wk =   0.3750000
        k(    5) = (   0.4330127   0.4330127   0.4330127), wk =   0.0312500
        k(    6) = (   0.0000000   0.0000000   0.4330127), wk =   0.0937500
        k(    7) = (  -0.8660254  -0.2165064  -0.2165064), wk =   0.1875000
        k(    8) = (  -0.8660254  -0.8660254  -0.8660254), wk =   0.0156250

     Check: negative core charge=   -0.001980

     Initial potential from superposition of free atoms

     starting charge  434.98555, renormalised to  435.00000

     negative rho (up, down):  0.000E+00 1.461E-03
     Starting wfcs are  290 randomized atomic wfcs

     Self-consistent Calculation

     iteration #  1     ecut=    30.00 Ry     beta= 0.70
     Davidson diagonalization with overlap
     ethr =  1.00E-02,  avg # of iterations =  3.0

     total energy              =   -6192.05885890 Ry
     Harris-Foulkes estimate   =   -6168.77078273 Ry
     estimated scf accuracy    <      38.41421669 Ry

     total magnetization       =    89.00 Bohr mag/cell
     absolute magnetization    =    98.19 Bohr mag/cell

[...]

     total energy              =   -6198.47685379 Ry
     Harris-Foulkes estimate   =   -6198.47685859 Ry
     estimated scf accuracy    <       0.00000142 Ry

[...]

     iteration # 50     ecut=    30.00 Ry     beta= 0.70
     Davidson diagonalization with overlap
     ethr =  2.80E-10,  avg # of iterations =  4.4

     Magnetic moment per site:
     atom:    1    charge:   12.6536    magn:   -2.7425    constr:    0.0000
     atom:    2    charge:   12.6819    magn:   -0.2037    constr:    0.0000
     atom:    3    charge:   12.6819    magn:   -0.2037    constr:    0.0000
     atom:    4    charge:   12.6819    magn:   -0.2037    constr:    0.0000
     atom:    5    charge:   12.6819    magn:   -0.2037    constr:    0.0000
     atom:    6    charge:   12.8042    magn:   -0.2282    constr:    0.0000
     atom:    7    charge:   12.8042    magn:   -0.2282    constr:    0.0000
     atom:    8    charge:   12.8042    magn:   -0.2282    constr:    0.0000
     atom:    9    charge:   12.8042    magn:   -0.2282    constr:    0.0000
     atom:   10    charge:   12.8042    magn:   -0.2282    constr:    0.0000
     atom:   11    charge:   12.8042    magn:   -0.2282    constr:    0.0000
     atom:   12    charge:   12.8042    magn:   -0.2282    constr:    0.0000
     atom:   13    charge:   12.8042    magn:   -0.2282    constr:    0.0000
     atom:   14    charge:   12.8042    magn:   -0.2282    constr:    0.0000
     atom:   15    charge:   12.8042    magn:   -0.2282    constr:    0.0000
     atom:   16    charge:   12.8042    magn:   -0.2282    constr:    0.0000
     atom:   17    charge:   12.8042    magn:   -0.2282    constr:    0.0000
     atom:   18    charge:   12.7446    magn:    0.6275    constr:    0.0000
     atom:   19    charge:   12.7446    magn:    0.6275    constr:    0.0000
     atom:   20    charge:   12.7446    magn:    0.6275    constr:    0.0000
     atom:   21    charge:   12.7446    magn:    0.6275    constr:    0.0000
     atom:   22    charge:   12.7446    magn:    0.6275    constr:    0.0000
     atom:   23    charge:   12.7446    magn:    0.6275    constr:    0.0000
     atom:   24    charge:   12.7446    magn:    0.6275    constr:    0.0000
     atom:   25    charge:   12.7446    magn:    0.6275    constr:    0.0000
     atom:   26    charge:   12.7446    magn:    0.6275    constr:    0.0000
     atom:   27    charge:   12.7446    magn:    0.6275    constr:    0.0000
     atom:   28    charge:   12.7446    magn:    0.6275    constr:    0.0000
     atom:   29    charge:   12.7446    magn:    0.6275    constr:    0.0000

     End of self-consistent calculation

 ------ SPIN UP ------------

          k = 0.0000 0.0000 0.0000 (  6603 PWs)   bands (ev):

   -62.7656 -62.7389 -62.7389 -62.7389 -62.7300 -62.7300 -62.7174 -62.7174
   -62.7174 -62.7156 -62.7156 -62.7156 -62.2749 -62.2520 -62.2520 -62.2520
   -62.2381 -62.2381 -62.2381 -62.2338 -62.2247 -62.2247 -62.1776 -62.1776
   -62.1776 -62.1529 -62.1529 -62.1529 -60.5596 -31.5382 -31.5382 -31.5228
   -31.5228 -31.5228 -31.4945 -31.4945 -31.4945 -31.4885 -31.4885 -31.4885
   -31.4773 -31.4741 -31.4741 -31.4496 -31.4496 -31.4496 -31.4411 -31.4411
   -31.4103 -31.4103 -31.4103 -31.3972 -31.3586 -31.3586 -31.3586 -31.3147
   -31.3147 -31.3147 -31.2913 -31.2913 -31.2913 -31.2896 -31.2706 -31.2706
   -31.2706 -31.1747 -31.1366 -31.1366 -31.1366 -31.0680 -31.0680 -31.0141
   -30.9967 -30.9967 -30.9967 -30.9525 -30.9525 -30.9525 -30.9523 -30.9523
   -30.9523 -30.9310 -30.9310 -30.9064 -30.9064 -30.9064 -30.8937 -30.8395
   -30.8395 -30.8395 -30.8365 -30.8365 -30.8355 -30.8355 -30.8355 -30.7931
   -30.7931 -30.7931 -30.7847 -30.7306 -30.7306 -30.7306 -30.7289 -30.7289
   -30.7271 -30.7271 -30.7271 -30.6690 -30.6690 -30.6690 -30.6115 -30.6115
   -30.6115 -29.2569 -29.2569 -29.2569   9.8082  12.9444  12.9444  12.9444
    13.0148  13.0469  13.0469  13.0469  13.1246  13.1246  13.1246  13.2120
    13.2120  13.7033  13.8081  13.8081  13.8081  13.8880  13.8880  14.0717
    14.0717  14.0717  14.1495  14.3866  14.3866  14.3866  14.5417  14.5417
    14.5417  14.5867  14.7182  14.7182  14.8126  14.8126  14.8126  14.8347
    14.8347  14.8347  14.9110  15.1315  15.1315  15.1315  15.1603  15.1603
    15.2646  15.2646  15.2646  15.3160  15.3160  15.3160  15.4122  15.4122
    15.4122  15.5405  15.5405  15.5813  15.5813  15.5813  15.7765  15.7765
    15.7765  15.8243  15.9054  15.9054  15.9054  15.9259  15.9259  15.9443
    15.9443  15.9443  16.0009  16.1616  16.1616  16.1616  16.1665  16.2879
    16.2879  16.2879  16.4004  16.4004  16.4429  16.4429  16.7631  16.7631
    16.7631  16.9791  16.9909  16.9909  16.9909  17.0309  17.0309  17.0309
    17.1323  17.1323  17.1323  17.1631  17.1631  17.1836  17.1836  17.1836
    17.4256  17.4256  17.5502  17.5502  17.5502  17.7100  17.7100  17.7299
    17.7299  17.7299  17.7594  17.7594  17.7594  17.8570  17.8570  17.8570
    18.1028  18.1554  18.1554  18.1554  18.2581  18.2581  18.3314  18.3314
    18.3314  18.3809  18.3809  18.3809  18.4506  18.4506  18.4506  18.5232
    18.5478  18.5478  18.5478  18.5801  18.5801  18.5801  18.6233  18.6233
    18.6961  18.6961  18.8125  18.8125  18.8125  18.8857

[...]

          k =-0.4330-0.4330 0.0000 (  6620 PWs)   bands (ev):

[...]

 ------ SPIN DOWN ----------

[...]

          k = 0.0000 0.0000 0.4330 (  6643 PWs)   bands (ev):

[...]

          k =-0.8660-0.8660-0.8660 (  6602 PWs)   bands (ev):

   -63.8667 -62.5479 -62.5260 -62.5260 -62.5260 -62.5017 -62.5017 -62.4833
   -62.4828 -62.4828 -62.4828 -62.4537 -62.4537 -62.4537 -62.4283 -62.4283
   -62.4283 -61.9910 -61.9910 -61.9791 -61.9791 -61.9791 -61.9626 -61.9605
   -61.9605 -61.9605 -61.9581 -61.9581 -61.9581 -32.5244 -32.5244 -32.5244
   -31.4702 -31.4117 -31.4117 -31.4117 -31.3543 -31.3543 -31.3306 -31.3080
   -31.3080 -31.3080 -31.2897 -31.2897 -31.2897 -31.2838 -31.2838 -31.2838
   -31.2681 -31.2681 -31.1476 -31.1476 -31.1476 -31.1461 -31.1461 -31.1461
   -31.1297 -31.1297 -31.1279 -31.1178 -31.1178 -31.1178 -31.1087 -31.1087
   -31.1087 -31.1022 -31.1022 -31.1022 -31.0995 -31.0783 -31.0783 -31.0783
   -31.0676 -31.0676 -30.9527 -30.9527 -30.9527 -30.8692 -30.8692 -30.8692
   -30.7965 -30.7306 -30.7306 -30.7306 -30.6973 -30.6690 -30.6690 -30.6690
   -30.6512 -30.6512 -30.6303 -30.6303 -30.6303 -30.6199 -30.6199 -30.6192
   -30.6166 -30.6166 -30.6166 -30.6047 -30.6047 -30.6047 -30.5994 -30.5994
   -30.5603 -30.5603 -30.5603 -30.5578 -30.5578 -30.5578 -30.5057 -30.5057
   -30.5057 -30.5018 -30.5018 -30.5018  11.6457  11.7179  11.7179  11.7179
    11.7640  11.7640  13.3152  13.6602  13.6825  13.6825  13.6825  13.7616
    13.7616  13.7616  13.8138  13.8892  13.8892  13.8892  14.0492  14.0492
    14.0593  14.0593  14.0593  14.6011  14.6011  14.6396  14.6396  14.6396
    14.6713  14.6713  14.6713  14.7485  14.7485  14.7485  15.0451  15.0451
    15.0451  15.0677  15.0677  15.1142  15.1142  15.1142  15.1741  15.1741
    15.1741  15.2586  15.2586  15.2586  15.2981  15.2981  15.4372  15.4372
    15.4372  15.5420  15.5420  15.7130  15.7130  15.7130  15.7732  15.7732
    15.9168  15.9168  15.9168  16.0804  16.0811  16.1040  16.1040  16.1040
    16.1275  16.1275  16.1275  16.1384  16.1384  16.3236  16.3978  16.3978
    16.3978  16.4398  16.4398  16.4398  16.5597  16.5696  16.5696  16.5746
    16.5746  16.5746  16.6561  16.6561  16.6561  16.9531  16.9531  16.9531
    17.1651  17.1651  17.3372  17.3372  17.3492  17.3492  17.3492  17.3583
    17.4136  17.4136  17.4136  17.5370  17.5370  17.5370  17.8086  17.8086
    17.8086  17.8430  17.8430  17.8430  17.8964  17.9436  17.9436  18.0089
    18.0089  18.0089  18.1952  18.1952  18.1952  18.2683  18.2683  18.2683
    18.3479  18.3479  18.3908  18.5704  18.5704  18.5704  18.6451  18.6451
    18.6451  18.7833  18.7833  18.7833  18.8173  18.8173  18.8582  18.8668
    18.8678  18.8678  18.8678  18.8875  18.8875  18.8875

     the Fermi energy is    17.4576 ev

!    total energy              =   -6198.47685860 Ry
     Harris-Foulkes estimate   =   -6198.47685860 Ry
     estimated scf accuracy    <       0.00000027 Ry

     The total energy is the sum of the following terms:

     one-electron contribution =   -2613.05127748 Ry
     hartree contribution      =    1538.32779727 Ry
     xc contribution           =    -805.04077300 Ry
     ewald contribution        =   -4318.71624794 Ry
     smearing contrib. (-TS)   =       0.00364256 Ry

     total magnetization       =     1.26 Bohr mag/cell
     absolute magnetization    =    15.64 Bohr mag/cell

     convergence has been achieved in  50 iterations

     Writing output data file mn-30.save/

     General routines

     Parallel routines

   This run was terminated on:   1:17:10  31Jul2022

   JOB DONE.