     Program PWSCF v.6.4.1 starts on 31Jul2022 at  4:20:35

     R & G space division:  proc/nbgrp/npool/nimage =       6
     Reading input from mn-50.in

     Current dimensions of program PWSCF are:
     Max number of different atomic species (ntypx) = 10
     Max number of k-points (npk) =  40000
     Max angular momentum in pseudopotentials (lmaxx) =  3
               file Mn.pbe-spn-rrkjus_psl.0.3.1.UPF: wavefunction(s)  3D renormalized

     Subspace diagonalization in iterative solution of the eigenvalue problem:
     a serial algorithm will be used

     Message from routine setup:
     DEPRECATED: symmetry with ibrav=0, use correct ibrav instead

     bravais-lattice index     =            0
     lattice parameter (alat)  =      14.5833  a.u.
     unit-cell volume          =    2387.5141 (a.u.)^3
     number of atoms/cell      =           29
     number of atomic types    =            1
     number of electrons       =       435.00
     number of Kohn-Sham states=          262
     kinetic-energy cutoff     =      50.0000  Ry
     charge density cutoff     =     200.0000  Ry
     convergence threshold     =      1.0E-06
     mixing beta               =       0.7000
     number of iterations used =            8  plain     mixing
     Exchange-correlation      = PBE ( 1  4  3  4 0 0)

     celldm(1)=  14.583305  celldm(2)=   0.000000  celldm(3)=   0.000000
     celldm(4)=   0.000000  celldm(5)=   0.000000  celldm(6)=   0.000000

     crystal axes: (cart. coord. in units of alat)
               a(1) = (  -0.577350   0.577350   0.577350 )
               a(2) = (   0.577350  -0.577350   0.577350 )
               a(3) = (   0.577350   0.577350  -0.577350 )

     reciprocal axes: (cart. coord. in units 2 pi/alat)
               b(1) = (  0.000000  0.866025  0.866025 )
               b(2) = (  0.866025  0.000000  0.866025 )
               b(3) = (  0.866025  0.866025  0.000000 )

     PseudoPot. # 1 for Mn read from file:
     /home/cristian/Escritorio/Proyecto_Grafeno/pseudopotenciales/Mn.pbe-spn-rrkjus_psl.0.3.1.UPF
     MD5 check sum: e1cac159bdd2ba70c18e85765a5d4279
     Pseudo is Ultrasoft + core correction, Zval = 15.0
     Generated using "atomic" code by A. Dal Corso v.6.2.2
     Using radial grid of 1187 points,  6 beta functions with:
                l(1) =   0
                l(2) =   0
                l(3) =   1
                l(4) =   1
                l(5) =   2
                l(6) =   2
     Q(r) pseudized with 0 coefficients

     atomic species   valence    mass     pseudopotential
        Mn            15.00    54.93804     Mn( 1.00)

     Starting magnetic structure
     atomic species   magnetization
        Mn           0.700

     24 Sym. Ops. (no inversion) found

   Cartesian axes

     site n.     atom                  positions (alat units)
         1           Mn  tau(   1) = (   0.0000000   0.0000000   0.0000000  )
         2           Mn  tau(   2) = (   0.3670447   0.3670447   0.3670447  )
         3           Mn  tau(   3) = (   0.2103056   0.2103056  -0.2103056  )
         4           Mn  tau(   4) = (   0.2103056  -0.2103056   0.2103056  )
         5           Mn  tau(   5) = (  -0.2103056   0.2103056   0.2103056  )
         6           Mn  tau(   6) = (   0.4739122   0.4739122  -0.2517940  )
         7           Mn  tau(   7) = (   0.1034381   0.1034381   0.3255563  )
         8           Mn  tau(   8) = (   0.1034381  -0.1034381   0.8291443  )
         9           Mn  tau(   9) = (  -0.1034381   0.1034381   0.8291443  )
        10           Mn  tau(  10) = (  -0.2517940   0.4739122   0.4739122  )
        11           Mn  tau(  11) = (   0.3255563   0.1034381   0.1034381  )
        12           Mn  tau(  12) = (   0.8291443   0.1034381  -0.1034381  )
        13           Mn  tau(  13) = (   0.8291443  -0.1034381   0.1034381  )
        14           Mn  tau(  14) = (   0.4739122  -0.2517940   0.4739122  )
        15           Mn  tau(  15) = (   0.1034381   0.3255563   0.1034381  )
        16           Mn  tau(  16) = (  -0.1034381   0.8291443   0.1034381  )
        17           Mn  tau(  17) = (   0.1034381   0.8291443  -0.1034381  )
        18           Mn  tau(  18) = (   0.1650529   0.1650529   0.6172683  )
        19           Mn  tau(  19) = (   0.4122974   0.4122974   0.0399180  )
        20           Mn  tau(  20) = (  -0.1650529   0.1650529   0.5374323  )
        21           Mn  tau(  21) = (   0.1650529  -0.1650529   0.5374323  )
        22           Mn  tau(  22) = (   0.6172683   0.1650529   0.1650529  )
        23           Mn  tau(  23) = (   0.0399180   0.4122974   0.4122974  )
        24           Mn  tau(  24) = (   0.5374323  -0.1650529   0.1650529  )
        25           Mn  tau(  25) = (   0.5374323   0.1650529  -0.1650529  )
        26           Mn  tau(  26) = (   0.1650529   0.6172683   0.1650529  )
        27           Mn  tau(  27) = (   0.4122974   0.0399180   0.4122974  )
        28           Mn  tau(  28) = (   0.1650529   0.5374323  -0.1650529  )
        29           Mn  tau(  29) = (  -0.1650529   0.5374323   0.1650529  )

     number of k points=     8  Methfessel-Paxton smearing, width (Ry)=  0.0300
                       cart. coord. in units 2pi/alat
        k(    1) = (   0.0000000   0.0000000   0.0000000), wk =   0.0156250
        k(    2) = (   0.2165064   0.2165064   0.0000000), wk =   0.1875000
        k(    3) = (  -0.4330127  -0.4330127   0.0000000), wk =   0.0937500
        k(    4) = (   0.4330127   0.2165064   0.2165064), wk =   0.3750000
        k(    5) = (   0.4330127   0.4330127   0.4330127), wk =   0.0312500
        k(    6) = (   0.0000000   0.0000000   0.4330127), wk =   0.0937500
        k(    7) = (  -0.8660254  -0.2165064  -0.2165064), wk =   0.1875000
        k(    8) = (  -0.8660254  -0.8660254  -0.8660254), wk =   0.0156250

     Check: negative core charge=   -0.000256

     Initial potential from superposition of free atoms

     starting charge  434.98555, renormalised to  435.00000
     Starting wfcs are  290 randomized atomic wfcs

     Self-consistent Calculation

     iteration #  1     ecut=    50.00 Ry     beta= 0.70
     Davidson diagonalization with overlap
     ethr =  1.00E-02,  avg # of iterations =  3.0

     total energy              =   -6195.39866911 Ry
     Harris-Foulkes estimate   =   -6169.14744405 Ry
     estimated scf accuracy    <      36.57501808 Ry

     total magnetization       =    89.00 Bohr mag/cell
     absolute magnetization    =    95.61 Bohr mag/cell

[...]

     total energy              =   -6201.22325560 Ry
     Harris-Foulkes estimate   =   -6201.22325579 Ry
     estimated scf accuracy    <       0.00000124 Ry

[...]

     iteration # 43     ecut=    50.00 Ry     beta= 0.70
     Davidson diagonalization with overlap
     ethr =  2.85E-10,  avg # of iterations =  2.5

     Magnetic moment per site:
     atom:    1    charge:   12.6576    magn:    0.1140    constr:    0.0000
     atom:    2    charge:   12.6804    magn:   -2.9380    constr:    0.0000
     atom:    3    charge:   12.6804    magn:   -2.9380    constr:    0.0000
     atom:    4    charge:   12.6804    magn:   -2.9380    constr:    0.0000
     atom:    5    charge:   12.6804    magn:   -2.9380    constr:    0.0000
     atom:    6    charge:   12.8170    magn:   -0.7763    constr:    0.0000
     atom:    7    charge:   12.8170    magn:   -0.7763    constr:    0.0000
     atom:    8    charge:   12.8170    magn:   -0.7763    constr:    0.0000
     atom:    9    charge:   12.8170    magn:   -0.7763    constr:    0.0000
     atom:   10    charge:   12.8170    magn:   -0.7763    constr:    0.0000
     atom:   11    charge:   12.8170    magn:   -0.7763    constr:    0.0000
     atom:   12    charge:   12.8170    magn:   -0.7763    constr:    0.0000
     atom:   13    charge:   12.8170    magn:   -0.7763    constr:    0.0000
     atom:   14    charge:   12.8170    magn:   -0.7763    constr:    0.0000
     atom:   15    charge:   12.8170    magn:   -0.7763    constr:    0.0000
     atom:   16    charge:   12.8170    magn:   -0.7763    constr:    0.0000
     atom:   17    charge:   12.8170    magn:   -0.7763    constr:    0.0000
     atom:   18    charge:   12.7544    magn:    1.3946    constr:    0.0000
     atom:   19    charge:   12.7544    magn:    1.3946    constr:    0.0000
     atom:   20    charge:   12.7544    magn:    1.3946    constr:    0.0000
     atom:   21    charge:   12.7544    magn:    1.3946    constr:    0.0000
     atom:   22    charge:   12.7544    magn:    1.3946    constr:    0.0000
     atom:   23    charge:   12.7544    magn:    1.3946    constr:    0.0000
     atom:   24    charge:   12.7544    magn:    1.3946    constr:    0.0000
     atom:   25    charge:   12.7544    magn:    1.3946    constr:    0.0000
     atom:   26    charge:   12.7544    magn:    1.3946    constr:    0.0000
     atom:   27    charge:   12.7544    magn:    1.3946    constr:    0.0000
     atom:   28    charge:   12.7544    magn:    1.3946    constr:    0.0000
     atom:   29    charge:   12.7544    magn:    1.3946    constr:    0.0000

     End of self-consistent calculation

 ------ SPIN UP ------------

          k = 0.0000 0.0000 0.0000 ( 14243 PWs)   bands (ev):

   -62.6435 -62.6189 -62.6189 -62.6189 -62.6102 -62.6102 -62.5974 -62.5974
   -62.5974 -62.5955 -62.5955 -62.5955 -61.8723 -61.3407 -61.3180 -61.3180
   -61.3180 -61.2927 -61.2927 -61.2438 -61.2438 -61.2438 -61.2182 -61.2182
   -61.2182 -59.9144 -59.9144 -59.9144 -59.9142 -31.4766 -31.4766 -31.4766
   -31.4684 -31.4684 -31.4673 -31.4673 -31.4673 -31.4369 -31.4369 -31.4369
   -31.3987 -31.3983 -31.3983 -31.3699 -31.3699 -31.3670 -31.3670 -31.3670
   -31.3615 -31.3336 -31.3336 -31.3336 -31.2730 -31.2730 -31.2730 -31.2498
   -31.2498 -31.2498 -31.1865 -31.1865 -31.1865 -31.1750 -31.1602 -31.1602
   -31.1602 -30.6019 -30.6019 -30.6019 -30.4408 -30.3688 -30.3688 -30.3688
   -30.3030 -30.3030 -30.1063 -30.1034 -30.1034 -30.1034 -30.0854 -30.0854
   -30.0854 -30.0713 -30.0713 -30.0713 -30.0508 -30.0508 -29.9298 -29.9298
   -29.9298 -29.9019 -29.8784 -29.8784 -29.8784 -29.8776 -29.8776 -29.8697
   -29.8697 -29.8697 -29.8689 -29.8689 -29.8689 -29.8103 -29.8103 -29.8103
   -28.7289 -28.7289 -28.7289 -28.7278 -28.7278 -28.7274 -28.7274 -28.7274
   -28.6696 -28.6696 -28.6696 -28.6689   9.4945  12.7079  12.7079  12.7079
    12.8606  12.8618  12.8618  12.8618  12.9157  12.9157  12.9157  12.9902
    12.9902  13.6102  13.7154  13.7154  13.7154  13.7862  13.7862  13.9817
    13.9817  13.9817  14.1544  14.2461  14.2461  14.2461  14.3932  14.5048
    14.5048  14.5048  14.5707  14.5707  14.8151  14.8151  14.8151  14.8702
    14.8702  14.8702  14.9571  14.9571  14.9571  15.0532  15.0549  15.0549
    15.2735  15.2735  15.2735  15.4134  15.4134  15.4134  15.4155  15.4155
    15.4155  15.5394  15.5427  15.5427  15.5427  15.6009  15.6009  15.6518
    15.6518  15.6518  15.8691  15.8691  15.8813  15.9126  15.9126  15.9126
    15.9622  15.9622  15.9622  16.0452  16.1219  16.1219  16.1219  16.2213
    16.2213  16.2213  16.2433  16.2433  16.5064  16.5064  16.7364  16.7364
    16.7364  16.7427  16.7427  16.7427  16.9965  16.9965  16.9965  17.0458
    17.2545  17.2545  17.3935  17.3935  17.3935  17.4617  17.4617  17.5437
    17.5437  17.5437  17.6370  17.6370  17.6370  17.7211  17.7211  17.7211
    17.7933  17.7933  17.7933  17.8612  17.8612  17.9519  17.9519  17.9519
    18.0572  18.0572  18.1647  18.1647  18.1647  18.5030  18.5030  18.5030
    18.5354  18.5354  18.5354  18.5827  18.5827  18.7022  18.7022  18.7022
    18.7778  18.8019  18.8019  18.8019  18.9281  19.0980  19.0980  19.0980
    19.1162  19.1162  19.1162  19.2079  19.3073  19.3073

[...]

          k =-0.4330-0.4330 0.0000 ( 14266 PWs)   bands (ev):

[...]

 ------ SPIN DOWN ----------

[...]

          k = 0.0000 0.0000 0.4330 ( 14235 PWs)   bands (ev):

[...]

          k =-0.8660-0.8660-0.8660 ( 14182 PWs)   bands (ev):

   -63.4784 -63.4784 -63.4784 -63.4784 -62.2781 -62.2541 -62.2541 -62.2541
   -62.2306 -62.2306 -62.1823 -62.1823 -62.1823 -62.1573 -62.1573 -62.1573
   -61.7596 -60.9432 -60.9432 -60.9302 -60.9302 -60.9302 -60.9114 -60.9090
   -60.9090 -60.9090 -60.9068 -60.9068 -60.9068 -32.2092 -32.2092 -32.2092
   -32.2068 -32.2068 -32.2068 -32.2057 -32.2057 -32.1838 -32.1838 -32.1838
   -32.1805 -31.2533 -31.1843 -31.1843 -31.1843 -31.1302 -31.1302 -31.1208
   -31.1013 -31.1013 -31.1013 -31.0594 -31.0594 -31.0594 -31.0328 -31.0328
   -31.0328 -31.0320 -31.0320 -30.8970 -30.8970 -30.8970 -30.8969 -30.8969
   -30.8969 -30.8846 -30.8846 -30.8846 -30.8673 -30.8661 -30.8661 -30.7167
   -30.7167 -30.7167 -30.6348 -30.6348 -30.6348 -30.4711 -30.4711 -30.4711
   -29.8683 -29.7976 -29.7976 -29.7976 -29.7577 -29.7432 -29.7432 -29.7432
   -29.7257 -29.7257 -29.7047 -29.6937 -29.6937 -29.6937 -29.6863 -29.6863
   -29.6797 -29.6797 -29.6797 -29.6557 -29.6557 -29.6557 -29.6329 -29.6329
   -29.6329 -29.6263 -29.6263 -29.5860 -29.5860 -29.5860 -29.5827 -29.5827
   -29.5827 -29.5499 -29.5499 -29.5499  11.3236  11.3236  11.3236  11.4492
    11.4936  11.4936  13.0042  13.3969  13.3969  13.3969  13.3973  13.4971
    13.6053  13.6053  13.6053  13.6655  13.6655  13.6655  13.6721  13.6721
    13.6721  14.1605  14.1605  14.3216  14.3216  14.3216  14.3383  14.3383
    14.3383  14.5003  14.5003  14.5003  14.5738  14.5738  14.6943  14.6943
    14.7522  14.7522  14.7522  14.8448  14.8448  14.9225  14.9225  14.9225
    15.0820  15.0820  15.0820  15.1631  15.1631  15.1631  15.3001  15.3001
    15.3001  15.3396  15.3396  15.4544  15.4544  15.4544  15.6217  15.6217
    15.6837  15.6837  15.6837  15.8268  15.8268  15.8268  15.8996  15.9621
    16.0075  16.0075  16.0075  16.0215  16.0568  16.0568  16.1015  16.1015
    16.1015  16.4025  16.4025  16.4025  16.5684  16.5684  16.5684  16.5749
    16.5749  16.7038  16.7038  16.7038  16.7067  16.7067  16.7067  16.7568
    16.8928  17.0290  17.0290  17.0290  17.0407  17.0407  17.0407  17.2840
    17.2840  17.4346  17.4346  17.4346  17.5220  17.5220  17.5220  17.5653
    17.5653  17.7926  17.7926  17.7926  17.8436  17.9435  17.9435  17.9701
    17.9701  17.9701  18.1474  18.1474  18.1474  18.2366  18.2366  18.2799
    18.2799  18.2799  18.3786  18.5517  18.5517  18.5517  18.6774  18.6774
    18.6774  18.8188  18.8188  18.8188  18.8771  18.8817  18.8817  18.8817
    18.9549  18.9549  18.9695  18.9695  18.9695  19.0190

     the Fermi energy is    17.4574 ev

!    total energy              =   -6201.22325563 Ry
     Harris-Foulkes estimate   =   -6201.22325579 Ry
     estimated scf accuracy    <       0.00000019 Ry

     The total energy is the sum of the following terms:

     one-electron contribution =   -2626.03975499 Ry
     hartree contribution      =    1550.95370199 Ry
     xc contribution           =    -807.42387109 Ry
     ewald contribution        =   -4318.71624771 Ry
     smearing contrib. (-TS)   =       0.00291617 Ry

     total magnetization       =    -4.65 Bohr mag/cell
     absolute magnetization    =    41.73 Bohr mag/cell

     convergence has been achieved in  43 iterations

     Writing output data file mn-50.save/

     General routines

     Parallel routines

   This run was terminated on:   8:14:32  31Jul2022

   JOB DONE.