     Program PWSCF v.6.4.1 starts on 31Jul2022 at 13:44:16

     R & G space division:  proc/nbgrp/npool/nimage =       6
     Reading input from mn-70.in

     Current dimensions of program PWSCF are:
     Max number of different atomic species (ntypx) = 10
     Max number of k-points (npk) =  40000
     Max angular momentum in pseudopotentials (lmaxx) =  3
               file Mn.pbe-spn-rrkjus_psl.0.3.1.UPF: wavefunction(s)  3D renormalized

     Subspace diagonalization in iterative solution of the eigenvalue problem:
     a serial algorithm will be used

     Message from routine setup:
     DEPRECATED: symmetry with ibrav=0, use correct ibrav instead

     bravais-lattice index     =            0
     lattice parameter (alat)  =      14.5833  a.u.
     unit-cell volume          =    2387.5141 (a.u.)^3
     number of atoms/cell      =           29
     number of atomic types    =            1
     number of electrons       =       435.00
     number of Kohn-Sham states=          262
     kinetic-energy cutoff     =      70.0000  Ry
     charge density cutoff     =     280.0000  Ry
     convergence threshold     =      1.0E-06
     mixing beta               =       0.7000
     number of iterations used =            8  plain     mixing
     Exchange-correlation      = PBE ( 1  4  3  4 0 0)

     celldm(1)=  14.583305  celldm(2)=   0.000000  celldm(3)=   0.000000
     celldm(4)=   0.000000  celldm(5)=   0.000000  celldm(6)=   0.000000

     crystal axes: (cart. coord. in units of alat)
               a(1) = (  -0.577350   0.577350   0.577350 )
               a(2) = (   0.577350  -0.577350   0.577350 )
               a(3) = (   0.577350   0.577350  -0.577350 )

     reciprocal axes: (cart. coord. in units 2 pi/alat)
               b(1) = (  0.000000  0.866025  0.866025 )
               b(2) = (  0.866025  0.000000  0.866025 )
               b(3) = (  0.866025  0.866025  0.000000 )

     PseudoPot. # 1 for Mn read from file:
     /home/cristian/Escritorio/Proyecto_Grafeno/pseudopotenciales/Mn.pbe-spn-rrkjus_psl.0.3.1.UPF
     MD5 check sum: e1cac159bdd2ba70c18e85765a5d4279
     Pseudo is Ultrasoft + core correction, Zval = 15.0
     Generated using "atomic" code by A. Dal Corso v.6.2.2
     Using radial grid of 1187 points,  6 beta functions with:
                l(1) =   0
                l(2) =   0
                l(3) =   1
                l(4) =   1
                l(5) =   2
                l(6) =   2
     Q(r) pseudized with 0 coefficients

     atomic species   valence    mass     pseudopotential
        Mn            15.00    54.93804     Mn( 1.00)

     Starting magnetic structure
     atomic species   magnetization
        Mn           0.700

     24 Sym. Ops. (no inversion) found

   Cartesian axes

     site n.     atom                  positions (alat units)
         1           Mn  tau(   1) = (   0.0000000   0.0000000   0.0000000  )
         2           Mn  tau(   2) = (   0.3670447   0.3670447   0.3670447  )
         3           Mn  tau(   3) = (   0.2103056   0.2103056  -0.2103056  )
         4           Mn  tau(   4) = (   0.2103056  -0.2103056   0.2103056  )
         5           Mn  tau(   5) = (  -0.2103056   0.2103056   0.2103056  )
         6           Mn  tau(   6) = (   0.4739122   0.4739122  -0.2517940  )
         7           Mn  tau(   7) = (   0.1034381   0.1034381   0.3255563  )
         8           Mn  tau(   8) = (   0.1034381  -0.1034381   0.8291443  )
         9           Mn  tau(   9) = (  -0.1034381   0.1034381   0.8291443  )
        10           Mn  tau(  10) = (  -0.2517940   0.4739122   0.4739122  )
        11           Mn  tau(  11) = (   0.3255563   0.1034381   0.1034381  )
        12           Mn  tau(  12) = (   0.8291443   0.1034381  -0.1034381  )
        13           Mn  tau(  13) = (   0.8291443  -0.1034381   0.1034381  )
        14           Mn  tau(  14) = (   0.4739122  -0.2517940   0.4739122  )
        15           Mn  tau(  15) = (   0.1034381   0.3255563   0.1034381  )
        16           Mn  tau(  16) = (  -0.1034381   0.8291443   0.1034381  )
        17           Mn  tau(  17) = (   0.1034381   0.8291443  -0.1034381  )
        18           Mn  tau(  18) = (   0.1650529   0.1650529   0.6172683  )
        19           Mn  tau(  19) = (   0.4122974   0.4122974   0.0399180  )
        20           Mn  tau(  20) = (  -0.1650529   0.1650529   0.5374323  )
        21           Mn  tau(  21) = (   0.1650529  -0.1650529   0.5374323  )
        22           Mn  tau(  22) = (   0.6172683   0.1650529   0.1650529  )
        23           Mn  tau(  23) = (   0.0399180   0.4122974   0.4122974  )
        24           Mn  tau(  24) = (   0.5374323  -0.1650529   0.1650529  )
        25           Mn  tau(  25) = (   0.5374323   0.1650529  -0.1650529  )
        26           Mn  tau(  26) = (   0.1650529   0.6172683   0.1650529  )
        27           Mn  tau(  27) = (   0.4122974   0.0399180   0.4122974  )
        28           Mn  tau(  28) = (   0.1650529   0.5374323  -0.1650529  )
        29           Mn  tau(  29) = (  -0.1650529   0.5374323   0.1650529  )

     number of k points=     8  Methfessel-Paxton smearing, width (Ry)=  0.0300
                       cart. coord. in units 2pi/alat
        k(    1) = (   0.0000000   0.0000000   0.0000000), wk =   0.0156250
        k(    2) = (   0.2165064   0.2165064   0.0000000), wk =   0.1875000
        k(    3) = (  -0.4330127  -0.4330127   0.0000000), wk =   0.0937500
        k(    4) = (   0.4330127   0.2165064   0.2165064), wk =   0.3750000
        k(    5) = (   0.4330127   0.4330127   0.4330127), wk =   0.0312500
        k(    6) = (   0.0000000   0.0000000   0.4330127), wk =   0.0937500
        k(    7) = (  -0.8660254  -0.2165064  -0.2165064), wk =   0.1875000
        k(    8) = (  -0.8660254  -0.8660254  -0.8660254), wk =   0.0156250

     Check: negative core charge=   -0.000047

     Initial potential from superposition of free atoms

     starting charge  434.98555, renormalised to  435.00000
     Starting wfcs are  290 randomized atomic wfcs

     Self-consistent Calculation

     iteration #  1     ecut=    70.00 Ry     beta= 0.70
     Davidson diagonalization with overlap
     ethr =  1.00E-02,  avg # of iterations =  3.1

     total energy              =   -6195.45981022 Ry
     Harris-Foulkes estimate   =   -6169.31584664 Ry
     estimated scf accuracy    <      36.49623096 Ry

     total magnetization       =    89.00 Bohr mag/cell
     absolute magnetization    =    95.84 Bohr mag/cell

[...]

     total energy              =   -6201.36480682 Ry
     Harris-Foulkes estimate   =   -6201.36480747 Ry
     estimated scf accuracy    <       0.00000163 Ry

[...]

     iteration # 37     ecut=    70.00 Ry     beta= 0.70
     Davidson diagonalization with overlap
     ethr =  2.50E-10,  avg # of iterations =  3.9

     Magnetic moment per site:
     atom:    1    charge:   12.6687    magn:   -3.0375    constr:    0.0000
     atom:    2    charge:   12.6858    magn:   -2.9805    constr:    0.0000
     atom:    3    charge:   12.6858    magn:   -2.9805    constr:    0.0000
     atom:    4    charge:   12.6858    magn:   -2.9805    constr:    0.0000
     atom:    5    charge:   12.6858    magn:   -2.9805    constr:    0.0000
     atom:    6    charge:   12.8227    magn:   -0.8633    constr:    0.0000
     atom:    7    charge:   12.8227    magn:   -0.8633    constr:    0.0000
     atom:    8    charge:   12.8227    magn:   -0.8633    constr:    0.0000
     atom:    9    charge:   12.8227    magn:   -0.8633    constr:    0.0000
     atom:   10    charge:   12.8227    magn:   -0.8633    constr:    0.0000
     atom:   11    charge:   12.8227    magn:   -0.8633    constr:    0.0000
     atom:   12    charge:   12.8227    magn:   -0.8633    constr:    0.0000
     atom:   13    charge:   12.8227    magn:   -0.8633    constr:    0.0000
     atom:   14    charge:   12.8227    magn:   -0.8633    constr:    0.0000
     atom:   15    charge:   12.8227    magn:   -0.8633    constr:    0.0000
     atom:   16    charge:   12.8227    magn:   -0.8633    constr:    0.0000
     atom:   17    charge:   12.8227    magn:   -0.8633    constr:    0.0000
     atom:   18    charge:   12.7579    magn:    1.5450    constr:    0.0000
     atom:   19    charge:   12.7579    magn:    1.5450    constr:    0.0000
     atom:   20    charge:   12.7579    magn:    1.5450    constr:    0.0000
     atom:   21    charge:   12.7579    magn:    1.5450    constr:    0.0000
     atom:   22    charge:   12.7579    magn:    1.5450    constr:    0.0000
     atom:   23    charge:   12.7579    magn:    1.5450    constr:    0.0000
     atom:   24    charge:   12.7579    magn:    1.5450    constr:    0.0000
     atom:   25    charge:   12.7579    magn:    1.5450    constr:    0.0000
     atom:   26    charge:   12.7579    magn:    1.5450    constr:    0.0000
     atom:   27    charge:   12.7579    magn:    1.5450    constr:    0.0000
     atom:   28    charge:   12.7579    magn:    1.5450    constr:    0.0000
     atom:   29    charge:   12.7579    magn:    1.5450    constr:    0.0000

     End of self-consistent calculation

 ------ SPIN UP ------------

          k = 0.0000 0.0000 0.0000 ( 23623 PWs)   bands (ev):

   -62.6937 -62.6693 -62.6693 -62.6693 -62.6606 -62.6606 -62.6479 -62.6479
   -62.6479 -62.6459 -62.6459 -62.6459 -61.2456 -61.2222 -61.2222 -61.2222
   -61.1969 -61.1969 -61.1478 -61.1478 -61.1478 -61.1222 -61.1222 -61.1222
   -59.8260 -59.8260 -59.8260 -59.8259 -59.5778 -31.5178 -31.5178 -31.5178
   -31.5106 -31.5106 -31.5079 -31.5079 -31.5079 -31.4785 -31.4785 -31.4785
   -31.4490 -31.4490 -31.4459 -31.4201 -31.4201 -31.4181 -31.4181 -31.4181
   -31.4074 -31.3847 -31.3847 -31.3847 -31.3250 -31.3250 -31.3250 -31.3029
   -31.3029 -31.3029 -31.2368 -31.2368 -31.2368 -31.2260 -31.2111 -31.2111
   -31.2111 -30.3564 -30.2826 -30.2826 -30.2826 -30.2151 -30.2151 -30.0164
   -30.0164 -30.0164 -30.0115 -29.9946 -29.9946 -29.9946 -29.9733 -29.9733
   -29.9733 -29.9523 -29.9523 -29.8296 -29.8296 -29.8296 -29.8008 -29.7851
   -29.7851 -29.7851 -29.7832 -29.7832 -29.7779 -29.7779 -29.7779 -29.7728
   -29.7728 -29.7728 -29.7215 -29.7215 -29.7215 -28.6547 -28.6547 -28.6547
   -28.6534 -28.6534 -28.6529 -28.6529 -28.6529 -28.5636 -28.5636 -28.5636
   -28.5561 -28.3696 -28.3696 -28.3696   9.4929  12.6940  12.6940  12.6940
    12.8658  12.8658  12.8658  12.8890  12.9258  12.9258  12.9258  12.9950
    12.9950  13.6321  13.7158  13.7158  13.7158  13.8076  13.8076  13.9851
    13.9851  13.9851  14.1820  14.2292  14.2292  14.2292  14.3596  14.5624
    14.5624  14.5650  14.5650  14.5650  14.8165  14.8165  14.8165  14.9327
    14.9327  14.9327  14.9541  14.9541  14.9541  15.0586  15.0586  15.0887
    15.2939  15.2939  15.2939  15.4148  15.4148  15.4148  15.4392  15.4392
    15.4392  15.4821  15.5595  15.5595  15.5595  15.6387  15.6387  15.6387
    15.7388  15.7388  15.8919  15.9059  15.9059  15.9059  16.0115  16.0115
    16.0115  16.0435  16.0521  16.0521  16.1848  16.1848  16.1848  16.2800
    16.2800  16.2920  16.2920  16.2920  16.5350  16.5350  16.7433  16.7433
    16.7433  16.7870  16.7870  16.7870  17.0686  17.1108  17.1108  17.1108
    17.3007  17.3007  17.3815  17.3815  17.3815  17.5340  17.5340  17.6007
    17.6007  17.6007  17.6978  17.6978  17.6978  17.8061  17.8061  17.8061
    17.9199  17.9199  17.9199  17.9350  17.9350  18.1577  18.1577  18.1577
    18.2834  18.2834  18.2834  18.5777  18.5777  18.5777  18.6080  18.6080
    18.6080  18.6173  18.6173  18.7503  18.7503  18.7503  18.7975  18.7975
    18.8424  18.8571  18.8571  18.8571  18.9853  19.1452  19.1452  19.1452
    19.2797  19.3672  19.3672  19.3672  19.4420  19.4420

[...]

          k =-0.4330-0.4330 0.0000 ( 23636 PWs)   bands (ev):

[...]

 ------ SPIN DOWN ----------

[...]

          k = 0.0000 0.0000 0.4330 ( 23658 PWs)   bands (ev):

[...]

          k =-0.8660-0.8660-0.8660 ( 23634 PWs)   bands (ev):

   -63.4432 -63.4430 -63.4430 -63.4430 -63.2814 -62.2909 -62.2673 -62.2673
   -62.2673 -62.2438 -62.2438 -62.1956 -62.1956 -62.1956 -62.1707 -62.1707
   -62.1707 -60.8120 -60.8120 -60.7989 -60.7989 -60.7989 -60.7799 -60.7776
   -60.7776 -60.7776 -60.7754 -60.7754 -60.7754 -32.1752 -32.1752 -32.1752
   -32.1731 -32.1731 -32.1731 -32.1717 -32.1717 -32.1531 -32.1531 -32.1531
   -32.1435 -31.9926 -31.9926 -31.9926 -31.2542 -31.1871 -31.1871 -31.1871
   -31.1385 -31.1385 -31.1356 -31.1045 -31.1045 -31.1045 -31.0713 -31.0713
   -31.0713 -31.0447 -31.0447 -31.0447 -31.0446 -31.0446 -30.9114 -30.9114
   -30.9114 -30.9085 -30.9085 -30.9085 -30.8980 -30.8980 -30.8980 -30.8795
   -30.8753 -30.8753 -30.7213 -30.7213 -30.7213 -30.6377 -30.6377 -30.6377
   -29.7349 -29.6701 -29.6701 -29.6701 -29.6375 -29.6241 -29.6241 -29.6241
   -29.5993 -29.5993 -29.5788 -29.5742 -29.5742 -29.5742 -29.5598 -29.5598
   -29.5499 -29.5499 -29.5499 -29.5322 -29.5322 -29.5322 -29.5031 -29.5031
   -29.5031 -29.4962 -29.4962 -29.4535 -29.4535 -29.4535 -29.4512 -29.4512
   -29.4512 -29.4159 -29.4159 -29.4159  11.3250  11.3250  11.3250  11.3559
    11.4982  11.4982  12.9902  13.3723  13.4024  13.4024  13.4024  13.4796
    13.4796  13.4796  13.4867  13.6825  13.6825  13.6825  13.6945  13.6945
    13.6945  13.9953  13.9953  14.3185  14.3185  14.3185  14.3680  14.3680
    14.3680  14.4954  14.4954  14.4954  14.5689  14.5689  14.6593  14.6593
    14.6593  14.7178  14.7178  14.8610  14.8610  14.9633  14.9633  14.9633
    15.1133  15.1133  15.1133  15.1175  15.1175  15.1175  15.1829  15.1829
    15.1829  15.2693  15.2693  15.4396  15.4396  15.4396  15.5322  15.5322
    15.7056  15.7056  15.7056  15.8495  15.8495  15.8495  15.8937  15.9743
    15.9743  15.9765  16.0223  16.0223  16.0223  16.0262  16.1140  16.1140
    16.1140  16.2684  16.2684  16.2684  16.5410  16.5410  16.5410  16.6144
    16.6144  16.6262  16.6262  16.6262  16.7452  16.7452  16.7452  16.8302
    16.8974  16.9109  16.9109  16.9764  16.9764  16.9764  17.0709  17.0709
    17.0709  17.1207  17.1207  17.1207  17.4414  17.4414  17.5373  17.5373
    17.5373  17.8564  17.8564  17.8564  17.8868  18.0312  18.0312  18.0426
    18.0426  18.0426  18.1412  18.1412  18.1412  18.2223  18.2223  18.3324
    18.3324  18.3324  18.4032  18.5569  18.5569  18.5569  18.7025  18.7025
    18.7025  18.8199  18.8199  18.8199  18.9132  18.9132  18.9132  18.9328
    18.9933  18.9933  19.0493  19.0493  19.0493  19.1100

     the Fermi energy is    17.4789 ev

!    total energy              =   -6201.36480756 Ry
     Harris-Foulkes estimate   =   -6201.36480754 Ry
     estimated scf accuracy    <       0.00000006 Ry

     The total energy is the sum of the following terms:

     one-electron contribution =   -2626.91763788 Ry
     hartree contribution      =    1552.22947362 Ry
     xc contribution           =    -807.97354204 Ry
     ewald contribution        =   -4318.71624771 Ry
     smearing contrib. (-TS)   =       0.01314645 Ry

     total magnetization       =    -7.32 Bohr mag/cell
     absolute magnetization    =    48.18 Bohr mag/cell

     convergence has been achieved in  37 iterations

     Writing output data file mn-70.save/

     General routines

     Parallel routines

   This run was terminated on:  19: 9:23  31Jul2022

   JOB DONE.