     Program PWSCF v.6.4.1 starts on 31Jul2022 at 19: 9:23

     R & G space division:  proc/nbgrp/npool/nimage =       6
     Reading input from mn-80.in

     Current dimensions of program PWSCF are:
     Max number of different atomic species (ntypx) = 10
     Max number of k-points (npk) =  40000
     Max angular momentum in pseudopotentials (lmaxx) =  3
               file Mn.pbe-spn-rrkjus_psl.0.3.1.UPF: wavefunction(s)  3D renormalized

     Subspace diagonalization in iterative solution of the eigenvalue problem:
     a serial algorithm will be used

     Message from routine setup:
     DEPRECATED: symmetry with ibrav=0, use correct ibrav instead

     bravais-lattice index     =            0
     lattice parameter (alat)  =      14.5833  a.u.
     unit-cell volume          =    2387.5141 (a.u.)^3
     number of atoms/cell      =           29
     number of atomic types    =            1
     number of electrons       =       435.00
     number of Kohn-Sham states=          262
     kinetic-energy cutoff     =      80.0000  Ry
     charge density cutoff     =     320.0000  Ry
     convergence threshold     =      1.0E-06
     mixing beta               =       0.7000
     number of iterations used =            8  plain     mixing
     Exchange-correlation      = PBE ( 1  4  3  4 0 0)

     celldm(1)=  14.583305  celldm(2)=   0.000000  celldm(3)=   0.000000
     celldm(4)=   0.000000  celldm(5)=   0.000000  celldm(6)=   0.000000

     crystal axes: (cart. coord. in units of alat)
               a(1) = (  -0.577350   0.577350   0.577350 )
               a(2) = (   0.577350  -0.577350   0.577350 )
               a(3) = (   0.577350   0.577350  -0.577350 )

     reciprocal axes: (cart. coord. in units 2 pi/alat)
               b(1) = (  0.000000  0.866025  0.866025 )
               b(2) = (  0.866025  0.000000  0.866025 )
               b(3) = (  0.866025  0.866025  0.000000 )

     PseudoPot. # 1 for Mn read from file:
     /home/cristian/Escritorio/Proyecto_Grafeno/pseudopotenciales/Mn.pbe-spn-rrkjus_psl.0.3.1.UPF
     MD5 check sum: e1cac159bdd2ba70c18e85765a5d4279
     Pseudo is Ultrasoft + core correction, Zval = 15.0
     Generated using "atomic" code by A. Dal Corso v.6.2.2
     Using radial grid of 1187 points,  6 beta functions with:
                l(1) =   0
                l(2) =   0
                l(3) =   1
                l(4) =   1
                l(5) =   2
                l(6) =   2
     Q(r) pseudized with 0 coefficients

     atomic species   valence    mass     pseudopotential
        Mn            15.00    54.93804     Mn( 1.00)

     Starting magnetic structure
     atomic species   magnetization
        Mn           0.700

     24 Sym. Ops. (no inversion) found

   Cartesian axes

     site n.     atom                  positions (alat units)
         1           Mn  tau(   1) = (   0.0000000   0.0000000   0.0000000  )
         2           Mn  tau(   2) = (   0.3670447   0.3670447   0.3670447  )
         3           Mn  tau(   3) = (   0.2103056   0.2103056  -0.2103056  )
         4           Mn  tau(   4) = (   0.2103056  -0.2103056   0.2103056  )
         5           Mn  tau(   5) = (  -0.2103056   0.2103056   0.2103056  )
         6           Mn  tau(   6) = (   0.4739122   0.4739122  -0.2517940  )
         7           Mn  tau(   7) = (   0.1034381   0.1034381   0.3255563  )
         8           Mn  tau(   8) = (   0.1034381  -0.1034381   0.8291443  )
         9           Mn  tau(   9) = (  -0.1034381   0.1034381   0.8291443  )
        10           Mn  tau(  10) = (  -0.2517940   0.4739122   0.4739122  )
        11           Mn  tau(  11) = (   0.3255563   0.1034381   0.1034381  )
        12           Mn  tau(  12) = (   0.8291443   0.1034381  -0.1034381  )
        13           Mn  tau(  13) = (   0.8291443  -0.1034381   0.1034381  )
        14           Mn  tau(  14) = (   0.4739122  -0.2517940   0.4739122  )
        15           Mn  tau(  15) = (   0.1034381   0.3255563   0.1034381  )
        16           Mn  tau(  16) = (  -0.1034381   0.8291443   0.1034381  )
        17           Mn  tau(  17) = (   0.1034381   0.8291443  -0.1034381  )
        18           Mn  tau(  18) = (   0.1650529   0.1650529   0.6172683  )
        19           Mn  tau(  19) = (   0.4122974   0.4122974   0.0399180  )
        20           Mn  tau(  20) = (  -0.1650529   0.1650529   0.5374323  )
        21           Mn  tau(  21) = (   0.1650529  -0.1650529   0.5374323  )
        22           Mn  tau(  22) = (   0.6172683   0.1650529   0.1650529  )
        23           Mn  tau(  23) = (   0.0399180   0.4122974   0.4122974  )
        24           Mn  tau(  24) = (   0.5374323  -0.1650529   0.1650529  )
        25           Mn  tau(  25) = (   0.5374323   0.1650529  -0.1650529  )
        26           Mn  tau(  26) = (   0.1650529   0.6172683   0.1650529  )
        27           Mn  tau(  27) = (   0.4122974   0.0399180   0.4122974  )
        28           Mn  tau(  28) = (   0.1650529   0.5374323  -0.1650529  )
        29           Mn  tau(  29) = (  -0.1650529   0.5374323   0.1650529  )

     number of k points=     8  Methfessel-Paxton smearing, width (Ry)=  0.0300
                       cart. coord. in units 2pi/alat
        k(    1) = (   0.0000000   0.0000000   0.0000000), wk =   0.0156250
        k(    2) = (   0.2165064   0.2165064   0.0000000), wk =   0.1875000
        k(    3) = (  -0.4330127  -0.4330127   0.0000000), wk =   0.0937500
        k(    4) = (   0.4330127   0.2165064   0.2165064), wk =   0.3750000
        k(    5) = (   0.4330127   0.4330127   0.4330127), wk =   0.0312500
        k(    6) = (   0.0000000   0.0000000   0.4330127), wk =   0.0937500
        k(    7) = (  -0.8660254  -0.2165064  -0.2165064), wk =   0.1875000
        k(    8) = (  -0.8660254  -0.8660254  -0.8660254), wk =   0.0156250

     Check: negative core charge=   -0.000049

     Initial potential from superposition of free atoms

     starting charge  434.98555, renormalised to  435.00000
     Starting wfcs are  290 randomized atomic wfcs

     Self-consistent Calculation

     iteration #  1     ecut=    80.00 Ry     beta= 0.70
     Davidson diagonalization with overlap
     ethr =  1.00E-02,  avg # of iterations =  3.1

     total energy              =   -6195.46115194 Ry
     Harris-Foulkes estimate   =   -6169.31769650 Ry
     estimated scf accuracy    <      36.49685506 Ry

     total magnetization       =    89.00 Bohr mag/cell
     absolute magnetization    =    95.84 Bohr mag/cell

[...]

     total energy              =   -6201.36638907 Ry
     Harris-Foulkes estimate   =   -6201.36639127 Ry
     estimated scf accuracy    <       0.00000471 Ry

[...]

     iteration # 43     ecut=    80.00 Ry     beta= 0.70
     Davidson diagonalization with overlap
     ethr =  1.08E-09,  avg # of iterations =  3.7

     Magnetic moment per site:
     atom:    1    charge:   12.6701    magn:   -3.0378    constr:    0.0000
     atom:    2    charge:   12.6868    magn:   -2.9815    constr:    0.0000
     atom:    3    charge:   12.6868    magn:   -2.9815    constr:    0.0000
     atom:    4    charge:   12.6868    magn:   -2.9815    constr:    0.0000
     atom:    5    charge:   12.6868    magn:   -2.9815    constr:    0.0000
     atom:    6    charge:   12.8224    magn:   -0.8620    constr:    0.0000
     atom:    7    charge:   12.8224    magn:   -0.8620    constr:    0.0000
     atom:    8    charge:   12.8224    magn:   -0.8620    constr:    0.0000
     atom:    9    charge:   12.8224    magn:   -0.8620    constr:    0.0000
     atom:   10    charge:   12.8224    magn:   -0.8620    constr:    0.0000
     atom:   11    charge:   12.8224    magn:   -0.8620    constr:    0.0000
     atom:   12    charge:   12.8224    magn:   -0.8620    constr:    0.0000
     atom:   13    charge:   12.8224    magn:   -0.8620    constr:    0.0000
     atom:   14    charge:   12.8224    magn:   -0.8620    constr:    0.0000
     atom:   15    charge:   12.8224    magn:   -0.8620    constr:    0.0000
     atom:   16    charge:   12.8224    magn:   -0.8620    constr:    0.0000
     atom:   17    charge:   12.8224    magn:   -0.8620    constr:    0.0000
     atom:   18    charge:   12.7585    magn:    1.5456    constr:    0.0000
     atom:   19    charge:   12.7585    magn:    1.5456    constr:    0.0000
     atom:   20    charge:   12.7585    magn:    1.5456    constr:    0.0000
     atom:   21    charge:   12.7585    magn:    1.5456    constr:    0.0000
     atom:   22    charge:   12.7585    magn:    1.5456    constr:    0.0000
     atom:   23    charge:   12.7585    magn:    1.5456    constr:    0.0000
     atom:   24    charge:   12.7585    magn:    1.5456    constr:    0.0000
     atom:   25    charge:   12.7585    magn:    1.5456    constr:    0.0000
     atom:   26    charge:   12.7585    magn:    1.5456    constr:    0.0000
     atom:   27    charge:   12.7585    magn:    1.5456    constr:    0.0000
     atom:   28    charge:   12.7585    magn:    1.5456    constr:    0.0000
     atom:   29    charge:   12.7585    magn:    1.5456    constr:    0.0000

     End of self-consistent calculation

 ------ SPIN UP ------------

          k = 0.0000 0.0000 0.0000 ( 28867 PWs)   bands (ev):

   -62.6936 -62.6692 -62.6692 -62.6692 -62.6606 -62.6606 -62.6478 -62.6478
   -62.6478 -62.6459 -62.6459 -62.6459 -61.2465 -61.2232 -61.2232 -61.2232
   -61.1978 -61.1978 -61.1487 -61.1487 -61.1487 -61.1231 -61.1231 -61.1231
   -59.8248 -59.8248 -59.8248 -59.8247 -59.5773 -31.5177 -31.5177 -31.5177
   -31.5105 -31.5105 -31.5078 -31.5078 -31.5078 -31.4784 -31.4784 -31.4784
   -31.4489 -31.4489 -31.4459 -31.4201 -31.4201 -31.4181 -31.4181 -31.4181
   -31.4073 -31.3846 -31.3846 -31.3846 -31.3250 -31.3250 -31.3250 -31.3028
   -31.3028 -31.3028 -31.2369 -31.2369 -31.2369 -31.2261 -31.2111 -31.2111
   -31.2111 -30.3572 -30.2834 -30.2834 -30.2834 -30.2159 -30.2159 -30.0172
   -30.0172 -30.0172 -30.0123 -29.9956 -29.9956 -29.9956 -29.9744 -29.9744
   -29.9744 -29.9533 -29.9533 -29.8307 -29.8307 -29.8307 -29.8019 -29.7858
   -29.7858 -29.7858 -29.7841 -29.7841 -29.7787 -29.7787 -29.7787 -29.7736
   -29.7736 -29.7736 -29.7224 -29.7224 -29.7224 -28.6535 -28.6535 -28.6535
   -28.6523 -28.6523 -28.6518 -28.6518 -28.6518 -28.5624 -28.5624 -28.5624
   -28.5549 -28.3692 -28.3692 -28.3692   9.4928  12.6939  12.6939  12.6939
    12.8658  12.8658  12.8658  12.8890  12.9257  12.9257  12.9257  12.9950
    12.9950  13.6318  13.7157  13.7157  13.7157  13.8075  13.8075  13.9850
    13.9850  13.9850  14.1819  14.2290  14.2290  14.2290  14.3594  14.5621
    14.5621  14.5647  14.5647  14.5647  14.8162  14.8162  14.8162  14.9325
    14.9325  14.9325  14.9538  14.9538  14.9538  15.0585  15.0585  15.0883
    15.2935  15.2935  15.2935  15.4148  15.4148  15.4148  15.4389  15.4389
    15.4389  15.4820  15.5593  15.5593  15.5593  15.6384  15.6384  15.6384
    15.7385  15.7385  15.8917  15.9057  15.9057  15.9057  16.0113  16.0113
    16.0113  16.0432  16.0520  16.0520  16.1846  16.1846  16.1846  16.2800
    16.2800  16.2916  16.2916  16.2916  16.5346  16.5346  16.7429  16.7429
    16.7429  16.7867  16.7867  16.7867  17.0684  17.1105  17.1105  17.1105
    17.3002  17.3002  17.3812  17.3812  17.3812  17.5335  17.5335  17.6003
    17.6003  17.6003  17.6976  17.6976  17.6976  17.8057  17.8057  17.8057
    17.9198  17.9198  17.9198  17.9345  17.9345  18.1577  18.1577  18.1577
    18.2831  18.2831  18.2831  18.5770  18.5770  18.5770  18.6078  18.6078
    18.6078  18.6170  18.6170  18.7496  18.7496  18.7496  18.7975  18.7975
    18.8413  18.8566  18.8566  18.8566  18.9857  19.1450  19.1450  19.1450
    19.2786  19.3668  19.3668  19.3668  19.4418  19.4418

[...]

          k =-0.4330-0.4330 0.0000 ( 28918 PWs)   bands (ev):

[...]

 ------ SPIN DOWN ----------

[...]

          k = 0.0000 0.0000 0.4330 ( 28812 PWs)   bands (ev):

[...]

          k =-0.8660-0.8660-0.8660 ( 28880 PWs)   bands (ev):

   -63.4434 -63.4432 -63.4432 -63.4432 -63.2804 -62.2896 -62.2660 -62.2660
   -62.2660 -62.2425 -62.2425 -62.1943 -62.1943 -62.1943 -62.1694 -62.1694
   -62.1694 -60.8109 -60.8109 -60.7979 -60.7979 -60.7979 -60.7788 -60.7765
   -60.7765 -60.7765 -60.7743 -60.7743 -60.7743 -32.1754 -32.1754 -32.1754
   -32.1733 -32.1733 -32.1733 -32.1718 -32.1718 -32.1534 -32.1534 -32.1534
   -32.1438 -31.9917 -31.9917 -31.9917 -31.2530 -31.1859 -31.1859 -31.1859
   -31.1373 -31.1373 -31.1344 -31.1034 -31.1034 -31.1034 -31.0700 -31.0700
   -31.0700 -31.0433 -31.0433 -31.0433 -31.0432 -31.0432 -30.9102 -30.9102
   -30.9102 -30.9072 -30.9072 -30.9072 -30.8967 -30.8967 -30.8967 -30.8781
   -30.8740 -30.8740 -30.7201 -30.7201 -30.7201 -30.6365 -30.6365 -30.6365
   -29.7338 -29.6690 -29.6690 -29.6690 -29.6366 -29.6232 -29.6232 -29.6232
   -29.5984 -29.5984 -29.5777 -29.5733 -29.5733 -29.5733 -29.5587 -29.5587
   -29.5488 -29.5488 -29.5488 -29.5311 -29.5311 -29.5311 -29.5020 -29.5020
   -29.5020 -29.4951 -29.4951 -29.4525 -29.4525 -29.4525 -29.4500 -29.4500
   -29.4500 -29.4148 -29.4148 -29.4148  11.3248  11.3248  11.3248  11.3558
    11.4981  11.4981  12.9904  13.3725  13.4024  13.4024  13.4024  13.4799
    13.4799  13.4799  13.4870  13.6827  13.6827  13.6827  13.6946  13.6946
    13.6946  13.9956  13.9956  14.3186  14.3186  14.3186  14.3680  14.3680
    14.3680  14.4959  14.4959  14.4959  14.5694  14.5694  14.6598  14.6598
    14.6598  14.7178  14.7178  14.8611  14.8611  14.9636  14.9636  14.9636
    15.1139  15.1139  15.1139  15.1179  15.1179  15.1179  15.1834  15.1834
    15.1834  15.2699  15.2699  15.4397  15.4397  15.4397  15.5326  15.5326
    15.7061  15.7061  15.7061  15.8500  15.8500  15.8500  15.8939  15.9750
    15.9750  15.9769  16.0229  16.0229  16.0229  16.0268  16.1144  16.1144
    16.1144  16.2688  16.2688  16.2688  16.5413  16.5413  16.5413  16.6151
    16.6151  16.6265  16.6265  16.6265  16.7458  16.7458  16.7458  16.8308
    16.8976  16.9115  16.9115  16.9771  16.9771  16.9771  17.0713  17.0713
    17.0713  17.1211  17.1211  17.1211  17.4421  17.4421  17.5381  17.5381
    17.5381  17.8571  17.8571  17.8571  17.8873  18.0318  18.0318  18.0433
    18.0433  18.0433  18.1419  18.1419  18.1419  18.2232  18.2232  18.3334
    18.3334  18.3334  18.4041  18.5575  18.5575  18.5575  18.7034  18.7034
    18.7034  18.8205  18.8205  18.8205  18.9141  18.9141  18.9141  18.9333
    18.9940  18.9940  19.0499  19.0499  19.0499  19.1106

     the Fermi energy is    17.4791 ev

!    total energy              =   -6201.36639082 Ry
     Harris-Foulkes estimate   =   -6201.36639141 Ry
     estimated scf accuracy    <       0.00000086 Ry

     The total energy is the sum of the following terms:

     one-electron contribution =   -2626.91604574 Ry
     hartree contribution      =    1552.22452631 Ry
     xc contribution           =    -807.97174227 Ry
     ewald contribution        =   -4318.71624771 Ry
     smearing contrib. (-TS)   =       0.01311859 Ry

     total magnetization       =    -7.30 Bohr mag/cell
     absolute magnetization    =    48.18 Bohr mag/cell

     convergence has been achieved in  43 iterations

     Writing output data file mn-80.save/

     General routines

     Parallel routines

   This run was terminated on:   3: 7: 7   1Aug2022

   JOB DONE.