     Program PWSCF v.6.4.1 starts on 23Jan2023 at  8: 6:51

     R & G space division:  proc/nbgrp/npool/nimage =       6
     Reading input from distance-1.6.in

     Current dimensions of program PWSCF are:
     Max number of different atomic species (ntypx) = 10
     Max number of k-points (npk) =  40000
     Max angular momentum in pseudopotentials (lmaxx) =  3

     IMPORTANT: XC functional enforced from input :
     Exchange-correlation      = RVV10 ( 1  4 13  4 3 0)
     Any further DFT definition will be discarded
     Please, verify this is what you really want

               file H.pbe-rrkjus.UPF: wavefunction(s)  1S renormalized
               file Mn.pbe-spn-rrkjus_psl.0.3.1.UPF: wavefunction(s)  3D renormalized

     Subspace diagonalization in iterative solution of the eigenvalue problem:
     a serial algorithm will be used

     bravais-lattice index     =            4
     lattice parameter (alat)  =      23.2937  a.u.
     unit-cell volume          =    8879.8548 (a.u.)^3
     number of atoms/cell      =           52
     number of atomic types    =            3
     number of electrons       =       213.00
     number of Kohn-Sham states=          128
     kinetic-energy cutoff     =      70.0000  Ry
     charge density cutoff     =     490.0000  Ry
     convergence threshold     =      1.0E-06
     mixing beta               =       0.7000
     number of iterations used =            8  plain     mixing
     Exchange-correlation      = RVV10 ( 1  4 13  4 3 0)

     celldm(1)=  23.293684  celldm(2)=   0.000000  celldm(3)=   0.811261
     celldm(4)=   0.000000  celldm(5)=   0.000000  celldm(6)=   0.000000

     crystal axes: (cart. coord. in units of alat)
               a(1) = (   1.000000   0.000000   0.000000 )
               a(2) = (  -0.500000   0.866025   0.000000 )
               a(3) = (   0.000000   0.000000   0.811261 )

     reciprocal axes: (cart. coord. in units 2 pi/alat)
               b(1) = (  1.000000  0.577350 -0.000000 )
               b(2) = (  0.000000  1.154701  0.000000 )
               b(3) = (  0.000000 -0.000000  1.232649 )

     PseudoPot. # 1 for H  read from file:
     /home/cristian/Escritorio/Proyecto_Grafeno/pseudopotenciales/H.pbe-rrkjus.UPF
     MD5 check sum: 7cc9d459525c9a0585f487a71c3c9563
     Pseudo is Ultrasoft, Zval =  1.0
     Generated by new atomic code, or converted to UPF format
     Using radial grid of 1061 points,  2 beta functions with:
                l(1) =   0
                l(2) =   0
     Q(r) pseudized with 0 coefficients

     PseudoPot. # 2 for C  read from file:
     /home/cristian/Escritorio/Proyecto_Grafeno/pseudopotenciales/C.pbe-n-rrkjus_psl.1.0.0.UPF
     MD5 check sum: 1fdd950c42eb37d8afe3dd2f8d12311e
     Pseudo is Ultrasoft + core correction, Zval =  4.0
     Generated using "atomic" code by A. Dal Corso v.6.3MaX
     Using radial grid of 1073 points,  4 beta functions with:
                l(1) =   0
                l(2) =   0
                l(3) =   1
                l(4) =   1
     Q(r) pseudized with 0 coefficients

     PseudoPot. # 3 for Mn read from file:
     /home/cristian/Escritorio/Proyecto_Grafeno/pseudopotenciales/Mn.pbe-spn-rrkjus_psl.0.3.1.UPF
     MD5 check sum: e1cac159bdd2ba70c18e85765a5d4279
     Pseudo is Ultrasoft + core correction, Zval = 15.0
     Generated using "atomic" code by A. Dal Corso v.6.2.2
     Using radial grid of 1187 points,  6 beta functions with:
                l(1) =   0
                l(2) =   0
                l(3) =   1
                l(4) =   1
                l(5) =   2
                l(6) =   2
     Q(r) pseudized with 0 coefficients

     vdW kernel table read from file rVV10_kernel_table
     MD5 check sum: b8e2538accc0c0b3206b45ba4daaba6c

     atomic species   valence    mass     pseudopotential
        H              1.00     1.00794     H ( 1.00)
        C              4.00    12.01070     C ( 1.00)
        Mn            15.00    54.93804     Mn( 1.00)

     Starting magnetic structure
     atomic species   magnetization
        H            0.500
        C            0.300
        Mn           0.800

     No symmetry found

                                    s                        frac. trans.

      isym =  1     identity

 cryst.   s( 1) = (     1          0          0      )
                  (     0          1          0      )
                  (     0          0          1      )

 cart.    s( 1) = (  1.0000000  0.0000000  0.0000000 )
                  (  0.0000000  1.0000000  0.0000000 )
                  (  0.0000000  0.0000000  1.0000000 )

     point group C_1 (1)
     there are  1 classes
     the character table:

       E
A      1.00

     the symmetry operations in each class and the name of the first element:

     E        1
          identity

   Cartesian axes

     site n.     atom                  positions (alat units)
         1           H   tau(   1) = (   0.1694937   0.4618802   0.1298018  )
         2           H   tau(   2) = (   0.2305063   0.4618802   0.1298018  )
         3           C   tau(   3) = (   0.0000000   0.0000000   0.0000000  )
         4           C   tau(   4) = (   0.0000000   0.1154701   0.0000000  )
         5           C   tau(   5) = (  -0.1000000   0.1732051   0.0000000  )
         6           C   tau(   6) = (  -0.1000000   0.2886751   0.0000000  )
         7           C   tau(   7) = (  -0.2000000   0.3464102   0.0000000  )
         8           C   tau(   8) = (  -0.2000000   0.4618802   0.0000000  )
         9           C   tau(   9) = (  -0.3000000   0.5196152   0.0000000  )
        10           C   tau(  10) = (  -0.3000000   0.6350853   0.0000000  )
        11           C   tau(  11) = (  -0.4000000   0.6928203   0.0000000  )
        12           C   tau(  12) = (  -0.4000000   0.8082904   0.0000000  )
        13           C   tau(  13) = (   0.2000000   0.0000000   0.0000000  )
        14           C   tau(  14) = (   0.2000000   0.1154701   0.0000000  )
        15           C   tau(  15) = (   0.1000000   0.1732051   0.0000000  )
        16           C   tau(  16) = (   0.1000000   0.2886751   0.0000000  )
        17           C   tau(  17) = (   0.0000000   0.3464102   0.0000000  )
        18           C   tau(  18) = (   0.0000000   0.4618802   0.0000000  )
        19           C   tau(  19) = (  -0.1000000   0.5196152   0.0000000  )
        20           C   tau(  20) = (  -0.1000000   0.6350853   0.0000000  )
        21           C   tau(  21) = (  -0.2000000   0.6928203   0.0000000  )
        22           C   tau(  22) = (  -0.2000000   0.8082904   0.0000000  )
        23           C   tau(  23) = (   0.4000000   0.0000000   0.0000000  )
        24           C   tau(  24) = (   0.4000000   0.1154701   0.0000000  )
        25           C   tau(  25) = (   0.3000000   0.1732051   0.0000000  )
        26           C   tau(  26) = (   0.3000000   0.2886751   0.0000000  )
        27           C   tau(  27) = (   0.2000000   0.3464102   0.0000000  )
        28           Mn  tau(  28) = (   0.2000000   0.4618802   0.0000000  )
        29           C   tau(  29) = (   0.1000000   0.5196152   0.0000000  )
        30           C   tau(  30) = (   0.1000000   0.6350853   0.0000000  )
        31           C   tau(  31) = (   0.0000000   0.6928203   0.0000000  )
        32           C   tau(  32) = (   0.0000000   0.8082904   0.0000000  )
        33           C   tau(  33) = (   0.6000000   0.0000000   0.0000000  )
        34           C   tau(  34) = (   0.6000000   0.1154701   0.0000000  )
        35           C   tau(  35) = (   0.5000000   0.1732051   0.0000000  )
        36           C   tau(  36) = (   0.5000000   0.2886751   0.0000000  )
        37           C   tau(  37) = (   0.4000000   0.3464102   0.0000000  )
        38           C   tau(  38) = (   0.4000000   0.4618802   0.0000000  )
        39           C   tau(  39) = (   0.3000000   0.5196152   0.0000000  )
        40           C   tau(  40) = (   0.3000000   0.6350853   0.0000000  )
        41           C   tau(  41) = (   0.2000000   0.6928203   0.0000000  )
        42           C   tau(  42) = (   0.2000000   0.8082904   0.0000000  )
        43           C   tau(  43) = (   0.8000000   0.0000000   0.0000000  )
        44           C   tau(  44) = (   0.8000000   0.1154701   0.0000000  )
        45           C   tau(  45) = (   0.7000000   0.1732051   0.0000000  )
        46           C   tau(  46) = (   0.7000000   0.2886751   0.0000000  )
        47           C   tau(  47) = (   0.6000000   0.3464102   0.0000000  )
        48           C   tau(  48) = (   0.6000000   0.4618802   0.0000000  )
        49           C   tau(  49) = (   0.5000000   0.5196152   0.0000000  )
        50           C   tau(  50) = (   0.5000000   0.6350853   0.0000000  )
        51           C   tau(  51) = (   0.4000000   0.6928203   0.0000000  )
        52           C   tau(  52) = (   0.4000000   0.8082904   0.0000000  )

   Crystallographic axes

     site n.     atom                  positions (cryst. coord.)
         1           H   tau(   1) = (  0.4361603  0.5333333  0.1600000  )
         2           H   tau(   2) = (  0.4971730  0.5333333  0.1600000  )
         3           C   tau(   3) = (  0.0000000  0.0000000  0.0000000  )
         4           C   tau(   4) = (  0.0666667  0.1333333  0.0000000  )
         5           C   tau(   5) = (  0.0000000  0.2000000  0.0000000  )
         6           C   tau(   6) = (  0.0666667  0.3333333  0.0000000  )
         7           C   tau(   7) = (  0.0000000  0.4000000  0.0000000  )
         8           C   tau(   8) = (  0.0666667  0.5333333  0.0000000  )
         9           C   tau(   9) = (  0.0000000  0.6000000  0.0000000  )
        10           C   tau(  10) = (  0.0666667  0.7333333  0.0000000  )
        11           C   tau(  11) = (  0.0000000  0.8000000  0.0000000  )
        12           C   tau(  12) = (  0.0666667  0.9333333  0.0000000  )
        13           C   tau(  13) = (  0.2000000  0.0000000  0.0000000  )
        14           C   tau(  14) = (  0.2666667  0.1333333  0.0000000  )
        15           C   tau(  15) = (  0.2000000  0.2000000  0.0000000  )
        16           C   tau(  16) = (  0.2666667  0.3333333  0.0000000  )
        17           C   tau(  17) = (  0.2000000  0.4000000  0.0000000  )
        18           C   tau(  18) = (  0.2666667  0.5333333  0.0000000  )
        19           C   tau(  19) = (  0.2000000  0.6000000  0.0000000  )
        20           C   tau(  20) = (  0.2666667  0.7333333  0.0000000  )
        21           C   tau(  21) = (  0.2000000  0.8000000  0.0000000  )
        22           C   tau(  22) = (  0.2666667  0.9333333  0.0000000  )
        23           C   tau(  23) = (  0.4000000  0.0000000  0.0000000  )
        24           C   tau(  24) = (  0.4666667  0.1333333  0.0000000  )
        25           C   tau(  25) = (  0.4000000  0.2000000  0.0000000  )
        26           C   tau(  26) = (  0.4666667  0.3333333  0.0000000  )
        27           C   tau(  27) = (  0.4000000  0.4000000  0.0000000  )
        28           Mn  tau(  28) = (  0.4666667  0.5333333  0.0000000  )
        29           C   tau(  29) = (  0.4000000  0.6000000  0.0000000  )
        30           C   tau(  30) = (  0.4666667  0.7333333  0.0000000  )
        31           C   tau(  31) = (  0.4000000  0.8000000  0.0000000  )
        32           C   tau(  32) = (  0.4666667  0.9333333  0.0000000  )
        33           C   tau(  33) = (  0.6000000  0.0000000  0.0000000  )
        34           C   tau(  34) = (  0.6666667  0.1333333  0.0000000  )
        35           C   tau(  35) = (  0.6000000  0.2000000  0.0000000  )
        36           C   tau(  36) = (  0.6666667  0.3333333  0.0000000  )
        37           C   tau(  37) = (  0.6000000  0.4000000  0.0000000  )
        38           C   tau(  38) = (  0.6666667  0.5333333  0.0000000  )
        39           C   tau(  39) = (  0.6000000  0.6000000  0.0000000  )
        40           C   tau(  40) = (  0.6666667  0.7333333  0.0000000  )
        41           C   tau(  41) = (  0.6000000  0.8000000  0.0000000  )
        42           C   tau(  42) = (  0.6666667  0.9333333  0.0000000  )
        43           C   tau(  43) = (  0.8000000  0.0000000  0.0000000  )
        44           C   tau(  44) = (  0.8666667  0.1333333  0.0000000  )
        45           C   tau(  45) = (  0.8000000  0.2000000  0.0000000  )
        46           C   tau(  46) = (  0.8666667  0.3333333  0.0000000  )
        47           C   tau(  47) = (  0.8000000  0.4000000  0.0000000  )
        48           C   tau(  48) = (  0.8666667  0.5333333  0.0000000  )
        49           C   tau(  49) = (  0.8000000  0.6000000  0.0000000  )
        50           C   tau(  50) = (  0.8666667  0.7333333  0.0000000  )
        51           C   tau(  51) = (  0.8000000  0.8000000  0.0000000  )
        52           C   tau(  52) = (  0.8666667  0.9333333  0.0000000  )

     number of k points=     1  Marzari-Vanderbilt smearing, width (Ry)=  0.0010
                       cart. coord. in units 2pi/alat
        k(    1) = (   0.0000000   0.0000000   0.0000000), wk =   1.0000000

                       cryst. coord.
        k(    1) = (   0.0000000   0.0000000   0.0000000), wk =   1.0000000

     Check: negative core charge=   -0.000002

     Initial potential from superposition of free atoms

     starting charge  212.80506, renormalised to  213.00000

     negative rho (up, down):  9.233E-05 1.473E-02

Carrying out rVV10 run using the following parameters:
Nqs =      20    Nr_points =    1024   r_max =   100.000
b_value =  6.30000    beta =  0.00901
     q_mesh =  0.00010000  0.00030000  0.00058939  0.00100810
               0.00161396  0.00249058  0.00375900  0.00559430
               0.00824984  0.01209221  0.01765183  0.02569619
               0.03733578  0.05417739  0.07854596  0.11380545
               0.16482331  0.23864234  0.34545298  0.50000000

Gradients computed in Reciprocal space

     Starting wfcs are  208 randomized atomic wfcs

     Self-consistent Calculation

     iteration #  1     ecut=    70.00 Ry     beta= 0.70
     Davidson diagonalization with overlap
     ethr =  1.00E-02,  avg # of iterations =  3.0

[...]

     total energy              =    -819.50148286 Ry
     Harris-Foulkes estimate   =    -825.41066383 Ry
     estimated scf accuracy    <      14.67446309 Ry

     total magnetization       =     7.00 Bohr mag/cell
     absolute magnetization    =     7.34 Bohr mag/cell

[...]

     total energy              =    -825.92208926 Ry
     Harris-Foulkes estimate   =    -825.92208970 Ry
     estimated scf accuracy    <       0.00000114 Ry

[...]

     iteration # 21     ecut=    70.00 Ry     beta= 0.70
     Davidson diagonalization with overlap
     ethr =  5.35E-10,  avg # of iterations =  3.0

     negative rho (up, down):  7.579E-04 2.492E-03

     Magnetic moment per site:
     atom:    1    charge:    0.2158    magn:   -0.0005    constr:    0.0000
     atom:    2    charge:    0.2158    magn:   -0.0005    constr:    0.0000
     atom:    3    charge:    1.7155    magn:   -0.0055    constr:    0.0000
     atom:    4    charge:    1.7171    magn:    0.0038    constr:    0.0000
     atom:    5    charge:    1.7166    magn:   -0.0041    constr:    0.0000
     atom:    6    charge:    1.7150    magn:    0.0031    constr:    0.0000
     atom:    7    charge:    1.7173    magn:   -0.0053    constr:    0.0000
     atom:    8    charge:    1.7155    magn:    0.0153    constr:    0.0000
     atom:    9    charge:    1.7174    magn:   -0.0083    constr:    0.0000
     atom:   10    charge:    1.7143    magn:    0.0601    constr:    0.0000
     atom:   11    charge:    1.7160    magn:   -0.0090    constr:    0.0000
     atom:   12    charge:    1.7198    magn:    0.0168    constr:    0.0000
     atom:   13    charge:    1.7153    magn:   -0.0084    constr:    0.0000
     atom:   14    charge:    1.7160    magn:    0.0458    constr:    0.0000
     atom:   15    charge:    1.7138    magn:   -0.0089    constr:    0.0000
     atom:   16    charge:    1.7167    magn:    0.0443    constr:    0.0000
     atom:   17    charge:    1.7219    magn:   -0.0086    constr:    0.0000
     atom:   18    charge:    1.7178    magn:    0.0354    constr:    0.0000
     atom:   19    charge:    1.7125    magn:   -0.0035    constr:    0.0000
     atom:   20    charge:    1.7194    magn:    0.0126    constr:    0.0000
     atom:   21    charge:    1.7160    magn:   -0.0090    constr:    0.0000
     atom:   22    charge:    1.7198    magn:    0.0166    constr:    0.0000
     atom:   23    charge:    1.7155    magn:   -0.0055    constr:    0.0000
     atom:   24    charge:    1.7171    magn:    0.0038    constr:    0.0000
     atom:   25    charge:    1.7138    magn:   -0.0089    constr:    0.0000
     atom:   26    charge:    1.7167    magn:    0.0441    constr:    0.0000
     atom:   27    charge:    1.8712    magn:   -0.0086    constr:    0.0000
     atom:   28    charge:   10.0473    magn:    0.1795    constr:    0.0000
     atom:   29    charge:    1.8683    magn:   -0.0080    constr:    0.0000
     atom:   30    charge:    1.7212    magn:    0.0005    constr:    0.0000
     atom:   31    charge:    1.7121    magn:   -0.0039    constr:    0.0000
     atom:   32    charge:    1.7161    magn:    0.0083    constr:    0.0000
     atom:   33    charge:    1.7169    magn:   -0.0039    constr:    0.0000
     atom:   34    charge:    1.7159    magn:    0.0041    constr:    0.0000
     atom:   35    charge:    1.7166    magn:   -0.0041    constr:    0.0000
     atom:   36    charge:    1.7150    magn:    0.0031    constr:    0.0000
     atom:   37    charge:    1.7219    magn:   -0.0086    constr:    0.0000
     atom:   38    charge:    1.7178    magn:    0.0352    constr:    0.0000
     atom:   39    charge:    1.8683    magn:   -0.0080    constr:    0.0000
     atom:   40    charge:    1.7212    magn:    0.0005    constr:    0.0000
     atom:   41    charge:    1.7197    magn:   -0.0024    constr:    0.0000
     atom:   42    charge:    1.7147    magn:    0.0029    constr:    0.0000
     atom:   43    charge:    1.7169    magn:   -0.0039    constr:    0.0000
     atom:   44    charge:    1.7159    magn:    0.0042    constr:    0.0000
     atom:   45    charge:    1.7209    magn:   -0.0041    constr:    0.0000
     atom:   46    charge:    1.7149    magn:    0.0115    constr:    0.0000
     atom:   47    charge:    1.7173    magn:   -0.0053    constr:    0.0000
     atom:   48    charge:    1.7154    magn:    0.0153    constr:    0.0000
     atom:   49    charge:    1.7125    magn:   -0.0035    constr:    0.0000
     atom:   50    charge:    1.7194    magn:    0.0124    constr:    0.0000
     atom:   51    charge:    1.7121    magn:   -0.0039    constr:    0.0000
     atom:   52    charge:    1.7161    magn:    0.0084    constr:    0.0000

     End of self-consistent calculation

 ------ SPIN UP ------------

          k = 0.0000 0.0000 0.0000 ( 87777 PWs)   bands (ev):

   -80.5192 -50.2345 -49.9795 -48.9140 -19.6312 -18.8252 -18.7803 -18.6998
   -18.6882 -18.6683 -18.4317 -16.9817 -16.9506 -16.9028 -16.8723 -16.8550
   -16.5441 -16.1091 -16.0826 -15.9837 -15.9545 -15.9502 -15.3257 -14.0564
   -13.9709 -13.9323 -13.8398 -13.8301 -13.2754 -12.9387 -12.9177 -12.8951
   -12.6326 -12.6290 -12.2075 -11.7354 -11.7311 -11.5297 -11.2781 -11.2724
   -11.0683 -10.2253  -9.6287  -9.6075  -9.3495  -9.1728  -9.1688  -9.0606
    -9.0392  -9.0251  -9.0246  -8.5750  -8.5690  -8.0938  -8.0757  -7.9026
    -7.7439  -7.6978  -7.3258  -7.2786  -7.2498  -7.2244  -7.1028  -6.8110
    -6.8050  -6.7037  -6.6495  -6.6397  -6.6117  -6.4211  -6.4166  -6.3788
    -6.3726  -6.3484  -6.3384  -6.2906  -5.7652  -5.7344  -5.4272  -5.4077
    -5.2078  -5.1943  -5.0065  -4.8296  -4.7532  -4.6217  -4.6027  -4.5517
    -4.2116  -4.2050  -4.1812  -4.1142  -4.0823  -3.7286  -3.6969  -3.6250
    -3.5306  -3.5148  -2.9849  -2.6808  -2.6728  -1.7540  -1.6520  -1.6476
    -1.0474  -0.8786  -0.8426   0.7548   1.0358   1.0977   1.1080   1.6620
     1.7188   1.9326   2.2702   2.4561   2.7911   2.9156   2.9196   2.9963
     3.5344   3.5562   3.5651   3.6360   3.6624   3.7693   3.7946   3.9469

     occupation numbers
     1.0000   1.0000   1.0000   1.0000   1.0000   1.0000   1.0000   1.0000
     1.0000   1.0000   1.0000   1.0000   1.0000   1.0000   1.0000   1.0000
     1.0000   1.0000   1.0000   1.0000   1.0000   1.0000   1.0000   1.0000
     1.0000   1.0000   1.0000   1.0000   1.0000   1.0000   1.0000   1.0000
     1.0000   1.0000   1.0000   1.0000   1.0000   1.0000   1.0000   1.0000
     1.0000   1.0000   1.0000   1.0000   1.0000   1.0000   1.0000   1.0000
     1.0000   1.0000   1.0000   1.0000   1.0000   1.0000   1.0000   1.0000
     1.0000   1.0000   1.0000   1.0000   1.0000   1.0000   1.0000   1.0000
     1.0000   1.0000   1.0000   1.0000   1.0000   1.0000   1.0000   1.0000
     1.0000   1.0000   1.0000   1.0000   1.0000   1.0000   1.0000   1.0000
     1.0000   1.0000   1.0000   1.0000   1.0000   1.0000   1.0000   1.0000
     1.0000   1.0000   1.0000   1.0000   1.0000   1.0000   1.0000   1.0000
     1.0000   1.0000   1.0000   1.0000   1.0000   1.0000   1.0000   1.0000
     1.0000   1.0000   1.0000   0.0000   0.0000   0.0000   0.0000   0.0000
     0.0000   0.0000   0.0000   0.0000   0.0000   0.0000   0.0000   0.0000
     0.0000   0.0000   0.0000   0.0000   0.0000   0.0000   0.0000   0.0000

 ------ SPIN DOWN ----------

          k = 0.0000 0.0000 0.0000 ( 87777 PWs)   bands (ev):

   -80.2215 -49.8757 -49.8607 -48.5325 -19.6086 -18.7860 -18.7563 -18.6888
   -18.6821 -18.6469 -18.4047 -16.9509 -16.9285 -16.8985 -16.8405 -16.8331
   -16.5295 -16.0770 -16.0677 -15.9687 -15.9347 -15.9279 -15.3129 -14.0040
   -13.9504 -13.9066 -13.8348 -13.8219 -13.2792 -12.9201 -12.9077 -12.8797
   -12.6237 -12.6179 -12.1911 -11.7204 -11.7112 -11.5168 -11.2658 -11.2612
   -11.0577 -10.2112  -9.6037  -9.5907  -9.3333  -9.1551  -9.1517  -9.0514
    -9.0235  -9.0185  -9.0162  -8.5686  -8.5625  -8.0779  -8.0606  -7.8931
    -7.6927  -7.6895  -7.3017  -7.2610  -7.1989  -7.1119  -7.0857  -6.7949
    -6.7849  -6.6610  -6.6342  -6.6043  -6.5893  -6.4088  -6.4064  -6.3752
    -6.3661  -6.3439  -6.3282  -6.2196  -5.7284  -5.6056  -5.4060  -5.3931
    -5.1874  -5.1761  -4.9666  -4.8211  -4.7496  -4.5624  -4.5408  -4.5328
    -4.1724  -4.1653  -4.1485  -4.0468  -4.0377  -3.6436  -3.6386  -3.5919
    -3.5216  -3.5076  -2.9525  -2.6185  -2.5531  -1.6724  -1.6392  -1.6287
    -0.8669  -0.7391  -0.7063   0.8394   1.1042   1.1245   1.1381   1.7581
     1.7679   1.9825   2.3128   2.4646   2.8574   2.9830   2.9999   3.0336
     3.5852   3.5881   3.6369   3.6639   3.6880   3.7762   3.7974   3.8301

     occupation numbers
     1.0000   1.0000   1.0000   1.0000   1.0000   1.0000   1.0000   1.0000
     1.0000   1.0000   1.0000   1.0000   1.0000   1.0000   1.0000   1.0000
     1.0000   1.0000   1.0000   1.0000   1.0000   1.0000   1.0000   1.0000
     1.0000   1.0000   1.0000   1.0000   1.0000   1.0000   1.0000   1.0000
     1.0000   1.0000   1.0000   1.0000   1.0000   1.0000   1.0000   1.0000
     1.0000   1.0000   1.0000   1.0000   1.0000   1.0000   1.0000   1.0000
     1.0000   1.0000   1.0000   1.0000   1.0000   1.0000   1.0000   1.0000
     1.0000   1.0000   1.0000   1.0000   1.0000   1.0000   1.0000   1.0000
     1.0000   1.0000   1.0000   1.0000   1.0000   1.0000   1.0000   1.0000
     1.0000   1.0000   1.0000   1.0000   1.0000   1.0000   1.0000   1.0000
     1.0000   1.0000   1.0000   1.0000   1.0000   1.0000   1.0000   1.0000
     1.0000   1.0000   1.0000   1.0000   1.0000   1.0000   1.0000   1.0000
     1.0000   1.0000   1.0000   1.0000   1.0000   1.0000   1.0000   1.0000
     1.0000   0.9961   0.0039   0.0000   0.0000   0.0000   0.0000   0.0000
     0.0000   0.0000   0.0000   0.0000   0.0000   0.0000   0.0000   0.0000
     0.0000   0.0000   0.0000   0.0000   0.0000   0.0000   0.0000   0.0000

     the Fermi energy is    -0.7267 ev

!    total energy              =    -825.92208949 Ry
     Harris-Foulkes estimate   =    -825.92209004 Ry
     estimated scf accuracy    <       0.00000096 Ry

     The total energy is the sum of the following terms:

     one-electron contribution =   -2766.49739639 Ry
     hartree contribution      =    1428.55248987 Ry
     xc contribution           =    -259.83541318 Ry
     ewald contribution        =     771.85815899 Ry
     smearing contrib. (-TS)   =       0.00007121 Ry

     total magnetization       =     1.00 Bohr mag/cell
     absolute magnetization    =     1.60 Bohr mag/cell

     convergence has been achieved in  21 iterations

     Writing output data file manganeso-top-distance-1.6.save/

     General routines

     Parallel routines

   This run was terminated on:   8:46: 2  23Jan2023

   JOB DONE.