     Program PWSCF v.6.4.1 starts on 23Jan2023 at  4:17:20

     R & G space division:  proc/nbgrp/npool/nimage =       6
     Reading input from distance-2.0.in

     Current dimensions of program PWSCF are:
     Max number of different atomic species (ntypx) = 10
     Max number of k-points (npk) =  40000
     Max angular momentum in pseudopotentials (lmaxx) =  3

     IMPORTANT: XC functional enforced from input :
     Exchange-correlation      = RVV10 ( 1  4 13  4 3 0)
     Any further DFT definition will be discarded
     Please, verify this is what you really want

               file H.pbe-rrkjus.UPF: wavefunction(s)  1S renormalized
               file Mn.pbe-spn-rrkjus_psl.0.3.1.UPF: wavefunction(s)  3D renormalized

     Subspace diagonalization in iterative solution of the eigenvalue problem:
     a serial algorithm will be used

     bravais-lattice index     =            4
     lattice parameter (alat)  =      23.2937  a.u.
     unit-cell volume          =    8879.8548 (a.u.)^3
     number of atoms/cell      =           52
     number of atomic types    =            3
     number of electrons       =       213.00
     number of Kohn-Sham states=          128
     kinetic-energy cutoff     =      70.0000  Ry
     charge density cutoff     =     490.0000  Ry
     convergence threshold     =      1.0E-06
     mixing beta               =       0.7000
     number of iterations used =            8  plain     mixing
     Exchange-correlation      = RVV10 ( 1  4 13  4 3 0)

     celldm(1)=  23.293684  celldm(2)=   0.000000  celldm(3)=   0.811261
     celldm(4)=   0.000000  celldm(5)=   0.000000  celldm(6)=   0.000000

     crystal axes: (cart. coord. in units of alat)
               a(1) = (   1.000000   0.000000   0.000000 )
               a(2) = (  -0.500000   0.866025   0.000000 )
               a(3) = (   0.000000   0.000000   0.811261 )

     reciprocal axes: (cart. coord. in units 2 pi/alat)
               b(1) = (  1.000000  0.577350 -0.000000 )
               b(2) = (  0.000000  1.154701  0.000000 )
               b(3) = (  0.000000 -0.000000  1.232649 )

     PseudoPot. # 1 for H  read from file:
     /home/cristian/Escritorio/Proyecto_Grafeno/pseudopotenciales/H.pbe-rrkjus.UPF
     MD5 check sum: 7cc9d459525c9a0585f487a71c3c9563
     Pseudo is Ultrasoft, Zval =  1.0
     Generated by new atomic code, or converted to UPF format
     Using radial grid of 1061 points,  2 beta functions with:
                l(1) =   0
                l(2) =   0
     Q(r) pseudized with 0 coefficients

     PseudoPot. # 2 for C  read from file:
     /home/cristian/Escritorio/Proyecto_Grafeno/pseudopotenciales/C.pbe-n-rrkjus_psl.1.0.0.UPF
     MD5 check sum: 1fdd950c42eb37d8afe3dd2f8d12311e
     Pseudo is Ultrasoft + core correction, Zval =  4.0
     Generated using "atomic" code by A. Dal Corso v.6.3MaX
     Using radial grid of 1073 points,  4 beta functions with:
                l(1) =   0
                l(2) =   0
                l(3) =   1
                l(4) =   1
     Q(r) pseudized with 0 coefficients

     PseudoPot. # 3 for Mn read from file:
     /home/cristian/Escritorio/Proyecto_Grafeno/pseudopotenciales/Mn.pbe-spn-rrkjus_psl.0.3.1.UPF
     MD5 check sum: e1cac159bdd2ba70c18e85765a5d4279
     Pseudo is Ultrasoft + core correction, Zval = 15.0
     Generated using "atomic" code by A. Dal Corso v.6.2.2
     Using radial grid of 1187 points,  6 beta functions with:
                l(1) =   0
                l(2) =   0
                l(3) =   1
                l(4) =   1
                l(5) =   2
                l(6) =   2
     Q(r) pseudized with 0 coefficients

     vdW kernel table read from file rVV10_kernel_table
     MD5 check sum: b8e2538accc0c0b3206b45ba4daaba6c

     atomic species   valence    mass     pseudopotential
        H              1.00     1.00794     H ( 1.00)
        C              4.00    12.01070     C ( 1.00)
        Mn            15.00    54.93804     Mn( 1.00)

     Starting magnetic structure
     atomic species   magnetization
        H            0.500
        C            0.300
        Mn           0.800

     No symmetry found

                                    s                        frac. trans.

      isym =  1     identity

 cryst.   s( 1) = (     1          0          0      )
                  (     0          1          0      )
                  (     0          0          1      )

 cart.    s( 1) = (  1.0000000  0.0000000  0.0000000 )
                  (  0.0000000  1.0000000  0.0000000 )
                  (  0.0000000  0.0000000  1.0000000 )

     point group C_1 (1)
     there are  1 classes
     the character table:

       E
A      1.00

     the symmetry operations in each class and the name of the first element:

     E        1
          identity

   Cartesian axes

     site n.     atom                  positions (alat units)
         1           H   tau(   1) = (   0.1694937   0.4618802   0.1622522  )
         2           H   tau(   2) = (   0.2305063   0.4618802   0.1622522  )
         3           C   tau(   3) = (   0.0000000   0.0000000   0.0000000  )
         4           C   tau(   4) = (   0.0000000   0.1154701   0.0000000  )
         5           C   tau(   5) = (  -0.1000000   0.1732051   0.0000000  )
         6           C   tau(   6) = (  -0.1000000   0.2886751   0.0000000  )
         7           C   tau(   7) = (  -0.2000000   0.3464102   0.0000000  )
         8           C   tau(   8) = (  -0.2000000   0.4618802   0.0000000  )
         9           C   tau(   9) = (  -0.3000000   0.5196152   0.0000000  )
        10           C   tau(  10) = (  -0.3000000   0.6350853   0.0000000  )
        11           C   tau(  11) = (  -0.4000000   0.6928203   0.0000000  )
        12           C   tau(  12) = (  -0.4000000   0.8082904   0.0000000  )
        13           C   tau(  13) = (   0.2000000   0.0000000   0.0000000  )
        14           C   tau(  14) = (   0.2000000   0.1154701   0.0000000  )
        15           C   tau(  15) = (   0.1000000   0.1732051   0.0000000  )
        16           C   tau(  16) = (   0.1000000   0.2886751   0.0000000  )
        17           C   tau(  17) = (   0.0000000   0.3464102   0.0000000  )
        18           C   tau(  18) = (   0.0000000   0.4618802   0.0000000  )
        19           C   tau(  19) = (  -0.1000000   0.5196152   0.0000000  )
        20           C   tau(  20) = (  -0.1000000   0.6350853   0.0000000  )
        21           C   tau(  21) = (  -0.2000000   0.6928203   0.0000000  )
        22           C   tau(  22) = (  -0.2000000   0.8082904   0.0000000  )
        23           C   tau(  23) = (   0.4000000   0.0000000   0.0000000  )
        24           C   tau(  24) = (   0.4000000   0.1154701   0.0000000  )
        25           C   tau(  25) = (   0.3000000   0.1732051   0.0000000  )
        26           C   tau(  26) = (   0.3000000   0.2886751   0.0000000  )
        27           C   tau(  27) = (   0.2000000   0.3464102   0.0000000  )
        28           Mn  tau(  28) = (   0.2000000   0.4618802   0.0000000  )
        29           C   tau(  29) = (   0.1000000   0.5196152   0.0000000  )
        30           C   tau(  30) = (   0.1000000   0.6350853   0.0000000  )
        31           C   tau(  31) = (   0.0000000   0.6928203   0.0000000  )
        32           C   tau(  32) = (   0.0000000   0.8082904   0.0000000  )
        33           C   tau(  33) = (   0.6000000   0.0000000   0.0000000  )
        34           C   tau(  34) = (   0.6000000   0.1154701   0.0000000  )
        35           C   tau(  35) = (   0.5000000   0.1732051   0.0000000  )
        36           C   tau(  36) = (   0.5000000   0.2886751   0.0000000  )
        37           C   tau(  37) = (   0.4000000   0.3464102   0.0000000  )
        38           C   tau(  38) = (   0.4000000   0.4618802   0.0000000  )
        39           C   tau(  39) = (   0.3000000   0.5196152   0.0000000  )
        40           C   tau(  40) = (   0.3000000   0.6350853   0.0000000  )
        41           C   tau(  41) = (   0.2000000   0.6928203   0.0000000  )
        42           C   tau(  42) = (   0.2000000   0.8082904   0.0000000  )
        43           C   tau(  43) = (   0.8000000   0.0000000   0.0000000  )
        44           C   tau(  44) = (   0.8000000   0.1154701   0.0000000  )
        45           C   tau(  45) = (   0.7000000   0.1732051   0.0000000  )
        46           C   tau(  46) = (   0.7000000   0.2886751   0.0000000  )
        47           C   tau(  47) = (   0.6000000   0.3464102   0.0000000  )
        48           C   tau(  48) = (   0.6000000   0.4618802   0.0000000  )
        49           C   tau(  49) = (   0.5000000   0.5196152   0.0000000  )
        50           C   tau(  50) = (   0.5000000   0.6350853   0.0000000  )
        51           C   tau(  51) = (   0.4000000   0.6928203   0.0000000  )
        52           C   tau(  52) = (   0.4000000   0.8082904   0.0000000  )

   Crystallographic axes

     site n.     atom                  positions (cryst. coord.)
         1           H   tau(   1) = (  0.4361603  0.5333333  0.2000000  )
         2           H   tau(   2) = (  0.4971730  0.5333333  0.2000000  )
         3           C   tau(   3) = (  0.0000000  0.0000000  0.0000000  )
         4           C   tau(   4) = (  0.0666667  0.1333333  0.0000000  )
         5           C   tau(   5) = (  0.0000000  0.2000000  0.0000000  )
         6           C   tau(   6) = (  0.0666667  0.3333333  0.0000000  )
         7           C   tau(   7) = (  0.0000000  0.4000000  0.0000000  )
         8           C   tau(   8) = (  0.0666667  0.5333333  0.0000000  )
         9           C   tau(   9) = (  0.0000000  0.6000000  0.0000000  )
        10           C   tau(  10) = (  0.0666667  0.7333333  0.0000000  )
        11           C   tau(  11) = (  0.0000000  0.8000000  0.0000000  )
        12           C   tau(  12) = (  0.0666667  0.9333333  0.0000000  )
        13           C   tau(  13) = (  0.2000000  0.0000000  0.0000000  )
        14           C   tau(  14) = (  0.2666667  0.1333333  0.0000000  )
        15           C   tau(  15) = (  0.2000000  0.2000000  0.0000000  )
        16           C   tau(  16) = (  0.2666667  0.3333333  0.0000000  )
        17           C   tau(  17) = (  0.2000000  0.4000000  0.0000000  )
        18           C   tau(  18) = (  0.2666667  0.5333333  0.0000000  )
        19           C   tau(  19) = (  0.2000000  0.6000000  0.0000000  )
        20           C   tau(  20) = (  0.2666667  0.7333333  0.0000000  )
        21           C   tau(  21) = (  0.2000000  0.8000000  0.0000000  )
        22           C   tau(  22) = (  0.2666667  0.9333333  0.0000000  )
        23           C   tau(  23) = (  0.4000000  0.0000000  0.0000000  )
        24           C   tau(  24) = (  0.4666667  0.1333333  0.0000000  )
        25           C   tau(  25) = (  0.4000000  0.2000000  0.0000000  )
        26           C   tau(  26) = (  0.4666667  0.3333333  0.0000000  )
        27           C   tau(  27) = (  0.4000000  0.4000000  0.0000000  )
        28           Mn  tau(  28) = (  0.4666667  0.5333333  0.0000000  )
        29           C   tau(  29) = (  0.4000000  0.6000000  0.0000000  )
        30           C   tau(  30) = (  0.4666667  0.7333333  0.0000000  )
        31           C   tau(  31) = (  0.4000000  0.8000000  0.0000000  )
        32           C   tau(  32) = (  0.4666667  0.9333333  0.0000000  )
        33           C   tau(  33) = (  0.6000000  0.0000000  0.0000000  )
        34           C   tau(  34) = (  0.6666667  0.1333333  0.0000000  )
        35           C   tau(  35) = (  0.6000000  0.2000000  0.0000000  )
        36           C   tau(  36) = (  0.6666667  0.3333333  0.0000000  )
        37           C   tau(  37) = (  0.6000000  0.4000000  0.0000000  )
        38           C   tau(  38) = (  0.6666667  0.5333333  0.0000000  )
        39           C   tau(  39) = (  0.6000000  0.6000000  0.0000000  )
        40           C   tau(  40) = (  0.6666667  0.7333333  0.0000000  )
        41           C   tau(  41) = (  0.6000000  0.8000000  0.0000000  )
        42           C   tau(  42) = (  0.6666667  0.9333333  0.0000000  )
        43           C   tau(  43) = (  0.8000000  0.0000000  0.0000000  )
        44           C   tau(  44) = (  0.8666667  0.1333333  0.0000000  )
        45           C   tau(  45) = (  0.8000000  0.2000000  0.0000000  )
        46           C   tau(  46) = (  0.8666667  0.3333333  0.0000000  )
        47           C   tau(  47) = (  0.8000000  0.4000000  0.0000000  )
        48           C   tau(  48) = (  0.8666667  0.5333333  0.0000000  )
        49           C   tau(  49) = (  0.8000000  0.6000000  0.0000000  )
        50           C   tau(  50) = (  0.8666667  0.7333333  0.0000000  )
        51           C   tau(  51) = (  0.8000000  0.8000000  0.0000000  )
        52           C   tau(  52) = (  0.8666667  0.9333333  0.0000000  )

     number of k points=     1  Marzari-Vanderbilt smearing, width (Ry)=  0.0010
                       cart. coord. in units 2pi/alat
        k(    1) = (   0.0000000   0.0000000   0.0000000), wk =   1.0000000

                       cryst. coord.
        k(    1) = (   0.0000000   0.0000000   0.0000000), wk =   1.0000000

     Check: negative core charge=   -0.000002

     Initial potential from superposition of free atoms

     starting charge  212.80506, renormalised to  213.00000

     negative rho (up, down):  8.431E-05 1.301E-02

Carrying out rVV10 run using the following parameters:
Nqs =      20    Nr_points =    1024   r_max =   100.000
b_value =  6.30000    beta =  0.00901
     q_mesh =  0.00010000  0.00030000  0.00058939  0.00100810
               0.00161396  0.00249058  0.00375900  0.00559430
               0.00824984  0.01209221  0.01765183  0.02569619
               0.03733578  0.05417739  0.07854596  0.11380545
               0.16482331  0.23864234  0.34545298  0.50000000

Gradients computed in Reciprocal space

     Starting wfcs are  208 randomized atomic wfcs

     Self-consistent Calculation

     iteration #  1     ecut=    70.00 Ry     beta= 0.70
     Davidson diagonalization with overlap
     ethr =  1.00E-02,  avg # of iterations =  2.5

[...]

     total energy              =    -820.87040895 Ry
     Harris-Foulkes estimate   =    -825.17210361 Ry
     estimated scf accuracy    <      12.75263584 Ry

     total magnetization       =     7.00 Bohr mag/cell
     absolute magnetization    =     7.33 Bohr mag/cell

[...]

     total energy              =    -825.91558914 Ry
     Harris-Foulkes estimate   =    -825.91558931 Ry
     estimated scf accuracy    <       0.00000115 Ry

[...]

     iteration # 27     ecut=    70.00 Ry     beta= 0.70
     Davidson diagonalization with overlap
     ethr =  5.41E-10,  avg # of iterations =  3.0

     negative rho (up, down):  7.200E-04 3.540E-03

     Magnetic moment per site:
     atom:    1    charge:    0.2086    magn:   -0.0003    constr:    0.0000
     atom:    2    charge:    0.2086    magn:   -0.0003    constr:    0.0000
     atom:    3    charge:    1.7157    magn:   -0.0078    constr:    0.0000
     atom:    4    charge:    1.7167    magn:    0.0084    constr:    0.0000
     atom:    5    charge:    1.7168    magn:   -0.0074    constr:    0.0000
     atom:    6    charge:    1.7150    magn:    0.0044    constr:    0.0000
     atom:    7    charge:    1.7169    magn:   -0.0077    constr:    0.0000
     atom:    8    charge:    1.7161    magn:    0.0119    constr:    0.0000
     atom:    9    charge:    1.7162    magn:   -0.0087    constr:    0.0000
     atom:   10    charge:    1.7169    magn:    0.0399    constr:    0.0000
     atom:   11    charge:    1.7156    magn:   -0.0094    constr:    0.0000
     atom:   12    charge:    1.7189    magn:    0.0265    constr:    0.0000
     atom:   13    charge:    1.7154    magn:   -0.0093    constr:    0.0000
     atom:   14    charge:    1.7174    magn:    0.0306    constr:    0.0000
     atom:   15    charge:    1.7131    magn:   -0.0074    constr:    0.0000
     atom:   16    charge:    1.7173    magn:    0.0342    constr:    0.0000
     atom:   17    charge:    1.7210    magn:   -0.0143    constr:    0.0000
     atom:   18    charge:    1.7179    magn:    0.0314    constr:    0.0000
     atom:   19    charge:    1.7128    magn:   -0.0058    constr:    0.0000
     atom:   20    charge:    1.7188    magn:    0.0204    constr:    0.0000
     atom:   21    charge:    1.7156    magn:   -0.0094    constr:    0.0000
     atom:   22    charge:    1.7189    magn:    0.0264    constr:    0.0000
     atom:   23    charge:    1.7157    magn:   -0.0078    constr:    0.0000
     atom:   24    charge:    1.7167    magn:    0.0083    constr:    0.0000
     atom:   25    charge:    1.7131    magn:   -0.0074    constr:    0.0000
     atom:   26    charge:    1.7172    magn:    0.0342    constr:    0.0000
     atom:   27    charge:    1.8711    magn:   -0.0192    constr:    0.0000
     atom:   28    charge:   10.0471    magn:    0.2550    constr:    0.0000
     atom:   29    charge:    1.8703    magn:   -0.0185    constr:    0.0000
     atom:   30    charge:    1.7190    magn:    0.0202    constr:    0.0000
     atom:   31    charge:    1.7126    magn:   -0.0058    constr:    0.0000
     atom:   32    charge:    1.7163    magn:    0.0097    constr:    0.0000
     atom:   33    charge:    1.7168    magn:   -0.0074    constr:    0.0000
     atom:   34    charge:    1.7159    magn:    0.0075    constr:    0.0000
     atom:   35    charge:    1.7168    magn:   -0.0074    constr:    0.0000
     atom:   36    charge:    1.7150    magn:    0.0044    constr:    0.0000
     atom:   37    charge:    1.7210    magn:   -0.0143    constr:    0.0000
     atom:   38    charge:    1.7178    magn:    0.0313    constr:    0.0000
     atom:   39    charge:    1.8703    magn:   -0.0185    constr:    0.0000
     atom:   40    charge:    1.7190    magn:    0.0202    constr:    0.0000
     atom:   41    charge:    1.7201    magn:   -0.0126    constr:    0.0000
     atom:   42    charge:    1.7149    magn:    0.0044    constr:    0.0000
     atom:   43    charge:    1.7168    magn:   -0.0074    constr:    0.0000
     atom:   44    charge:    1.7159    magn:    0.0075    constr:    0.0000
     atom:   45    charge:    1.7201    magn:   -0.0151    constr:    0.0000
     atom:   46    charge:    1.7156    magn:    0.0097    constr:    0.0000
     atom:   47    charge:    1.7169    magn:   -0.0077    constr:    0.0000
     atom:   48    charge:    1.7161    magn:    0.0119    constr:    0.0000
     atom:   49    charge:    1.7127    magn:   -0.0058    constr:    0.0000
     atom:   50    charge:    1.7188    magn:    0.0203    constr:    0.0000
     atom:   51    charge:    1.7126    magn:   -0.0058    constr:    0.0000
     atom:   52    charge:    1.7163    magn:    0.0097    constr:    0.0000

     End of self-consistent calculation

 ------ SPIN UP ------------

          k = 0.0000 0.0000 0.0000 ( 87777 PWs)   bands (ev):

   -80.4715 -50.0919 -50.0086 -48.8413 -19.6220 -18.7801 -18.7689 -18.7134
   -18.7110 -18.6728 -18.4107 -16.9539 -16.9418 -16.9215 -16.8577 -16.8544
   -16.5383 -16.0952 -16.0865 -15.9908 -15.9480 -15.9451 -15.2879 -14.0025
   -13.9749 -13.9326 -13.8419 -13.8374 -13.2615 -12.9287 -12.9224 -12.8952
   -12.6252 -12.6228 -12.1587 -11.7231 -11.7222 -11.5294 -11.2684 -11.2675
   -10.4309  -9.6608  -9.5983  -9.5946  -9.3300  -9.1638  -9.1630  -9.0611
    -9.0414  -9.0376  -9.0299  -8.5672  -8.5653  -8.0824  -8.0764  -7.8917
    -7.7334  -7.6947  -7.2827  -7.2734  -7.1631  -7.1442  -7.0962  -6.8013
    -6.7986  -6.6882  -6.6709  -6.6401  -6.6011  -6.4069  -6.4021  -6.3846
    -6.3829  -6.3774  -6.3455  -6.3051  -5.6416  -5.6317  -5.4109  -5.4047
    -5.1964  -5.1936  -4.9665  -4.8263  -4.7606  -4.6010  -4.5854  -4.5736
    -4.2165  -4.1612  -4.1531  -4.0917  -4.0810  -3.7092  -3.7015  -3.6368
    -3.5293  -3.5243  -2.9907  -2.6389  -2.6320  -1.7469  -1.6573  -1.6543
    -0.9320  -0.8754  -0.8621  -0.3143   1.0439   1.0996   1.1068   1.6987
     1.7111   1.7981   2.4621   2.4776   2.8839   2.9288   2.9343   2.9900
     3.4821   3.5610   3.5925   3.6229   3.6458   3.7721   3.7820   3.8171

     occupation numbers
     1.0000   1.0000   1.0000   1.0000   1.0000   1.0000   1.0000   1.0000
     1.0000   1.0000   1.0000   1.0000   1.0000   1.0000   1.0000   1.0000
     1.0000   1.0000   1.0000   1.0000   1.0000   1.0000   1.0000   1.0000
     1.0000   1.0000   1.0000   1.0000   1.0000   1.0000   1.0000   1.0000
     1.0000   1.0000   1.0000   1.0000   1.0000   1.0000   1.0000   1.0000
     1.0000   1.0000   1.0000   1.0000   1.0000   1.0000   1.0000   1.0000
     1.0000   1.0000   1.0000   1.0000   1.0000   1.0000   1.0000   1.0000
     1.0000   1.0000   1.0000   1.0000   1.0000   1.0000   1.0000   1.0000
     1.0000   1.0000   1.0000   1.0000   1.0000   1.0000   1.0000   1.0000
     1.0000   1.0000   1.0000   1.0000   1.0000   1.0000   1.0000   1.0000
     1.0000   1.0000   1.0000   1.0000   1.0000   1.0000   1.0000   1.0000
     1.0000   1.0000   1.0000   1.0000   1.0000   1.0000   1.0000   1.0000
     1.0000   1.0000   1.0000   1.0000   1.0000   1.0000   1.0000   1.0000
     1.0000   1.0000   1.0000   0.0000   0.0000   0.0000   0.0000   0.0000
     0.0000   0.0000   0.0000   0.0000   0.0000   0.0000   0.0000   0.0000
     0.0000   0.0000   0.0000   0.0000   0.0000   0.0000   0.0000   0.0000

 ------ SPIN DOWN ----------

          k = 0.0000 0.0000 0.0000 ( 87777 PWs)   bands (ev):

   -80.0435 -49.7109 -49.7064 -48.2838 -19.6056 -18.7536 -18.7479 -18.7062
   -18.7035 -18.6579 -18.3867 -16.9365 -16.9284 -16.9093 -16.8341 -16.8333
   -16.5289 -16.0709 -16.0673 -15.9816 -15.9312 -15.9274 -15.2788 -13.9675
   -13.9507 -13.9048 -13.8369 -13.8315 -13.2816 -12.9148 -12.9110 -12.8817
   -12.6191 -12.6161 -12.1447 -11.7082 -11.7057 -11.5217 -11.2604 -11.2583
   -10.4240  -9.6475  -9.5766  -9.5750  -9.3154  -9.1506  -9.1494  -9.0535
    -9.0303  -9.0291  -9.0243  -8.5624  -8.5603  -8.0640  -8.0584  -7.8814
    -7.6966  -7.6881  -7.2766  -7.2668  -7.0923  -7.0771  -7.0589  -6.7828
    -6.7791  -6.6610  -6.6517  -6.6040  -6.5949  -6.3970  -6.3936  -6.3809
    -6.3785  -6.3720  -6.3379  -6.2469  -5.5774  -5.5364  -5.3899  -5.3857
    -5.1708  -5.1690  -4.8844  -4.8188  -4.7579  -4.5600  -4.5455  -4.5446
    -4.1910  -4.1103  -4.1048  -4.0364  -4.0348  -3.6430  -3.6415  -3.6123
    -3.5214  -3.5168  -2.9676  -2.5507  -2.5328  -1.6751  -1.6443  -1.6400
    -0.8477  -0.6545  -0.6486  -0.0861   1.1108   1.1184   1.1274   1.7709
     1.7778   1.8481   2.4877   2.5157   2.9588   2.9895   2.9998   3.0132
     3.5298   3.6271   3.6299   3.6734   3.6849   3.7785   3.7871   3.8237

     occupation numbers
     1.0000   1.0000   1.0000   1.0000   1.0000   1.0000   1.0000   1.0000
     1.0000   1.0000   1.0000   1.0000   1.0000   1.0000   1.0000   1.0000
     1.0000   1.0000   1.0000   1.0000   1.0000   1.0000   1.0000   1.0000
     1.0000   1.0000   1.0000   1.0000   1.0000   1.0000   1.0000   1.0000
     1.0000   1.0000   1.0000   1.0000   1.0000   1.0000   1.0000   1.0000
     1.0000   1.0000   1.0000   1.0000   1.0000   1.0000   1.0000   1.0000
     1.0000   1.0000   1.0000   1.0000   1.0000   1.0000   1.0000   1.0000
     1.0000   1.0000   1.0000   1.0000   1.0000   1.0000   1.0000   1.0000
     1.0000   1.0000   1.0000   1.0000   1.0000   1.0000   1.0000   1.0000
     1.0000   1.0000   1.0000   1.0000   1.0000   1.0000   1.0000   1.0000
     1.0000   1.0000   1.0000   1.0000   1.0000   1.0000   1.0000   1.0000
     1.0000   1.0000   1.0000   1.0000   1.0000   1.0000   1.0000   1.0000
     1.0000   1.0000   1.0000   1.0000   1.0000   1.0000   1.0000   1.0000
     1.0000   0.6567   0.3433   0.0000   0.0000   0.0000   0.0000   0.0000
     0.0000   0.0000   0.0000   0.0000   0.0000   0.0000   0.0000   0.0000
     0.0000   0.0000   0.0000   0.0000   0.0000   0.0000   0.0000   0.0000

     the Fermi energy is    -0.6498 ev

!    total energy              =    -825.91558903 Ry
     Harris-Foulkes estimate   =    -825.91558944 Ry
     estimated scf accuracy    <       0.00000065 Ry

     The total energy is the sum of the following terms:

     one-electron contribution =   -2751.21673641 Ry
     hartree contribution      =    1421.04640019 Ry
     xc contribution           =    -259.73814363 Ry
     ewald contribution        =     763.99318529 Ry
     smearing contrib. (-TS)   =      -0.00029447 Ry

     total magnetization       =     1.00 Bohr mag/cell
     absolute magnetization    =     1.95 Bohr mag/cell

     convergence has been achieved in  27 iterations

     Writing output data file manganeso-top-distance-2.0.save/

     General routines

     Parallel routines

   This run was terminated on:   5: 7: 1  23Jan2023

   JOB DONE.