     Program PWSCF v.6.4.1 starts on 23Jan2023 at  5: 7: 1

     R & G space division:  proc/nbgrp/npool/nimage =       6
     Reading input from distance-1.8.in

     Current dimensions of program PWSCF are:
     Max number of different atomic species (ntypx) = 10
     Max number of k-points (npk) =  40000
     Max angular momentum in pseudopotentials (lmaxx) =  3

     IMPORTANT: XC functional enforced from input :
     Exchange-correlation      = RVV10 ( 1  4 13  4 3 0)
     Any further DFT definition will be discarded
     Please, verify this is what you really want

               file H.pbe-rrkjus.UPF: wavefunction(s)  1S renormalized
               file Mn.pbe-spn-rrkjus_psl.0.3.1.UPF: wavefunction(s)  3D renormalized

     Subspace diagonalization in iterative solution of the eigenvalue problem:
     a serial algorithm will be used

     bravais-lattice index     =            4
     lattice parameter (alat)  =      23.2937  a.u.
     unit-cell volume          =    8879.8548 (a.u.)^3
     number of atoms/cell      =           52
     number of atomic types    =            3
     number of electrons       =       213.00
     number of Kohn-Sham states=          128
     kinetic-energy cutoff     =      70.0000  Ry
     charge density cutoff     =     490.0000  Ry
     convergence threshold     =      1.0E-06
     mixing beta               =       0.7000
     number of iterations used =            8  plain     mixing
     Exchange-correlation      = RVV10 ( 1  4 13  4 3 0)

     celldm(1)=  23.293684  celldm(2)=   0.000000  celldm(3)=   0.811261
     celldm(4)=   0.000000  celldm(5)=   0.000000  celldm(6)=   0.000000

     crystal axes: (cart. coord. in units of alat)
               a(1) = (   1.000000   0.000000   0.000000 )
               a(2) = (  -0.500000   0.866025   0.000000 )
               a(3) = (   0.000000   0.000000   0.811261 )

     reciprocal axes: (cart. coord. in units 2 pi/alat)
               b(1) = (  1.000000  0.577350 -0.000000 )
               b(2) = (  0.000000  1.154701  0.000000 )
               b(3) = (  0.000000 -0.000000  1.232649 )

     PseudoPot. # 1 for H  read from file:
     /home/cristian/Escritorio/Proyecto_Grafeno/pseudopotenciales/H.pbe-rrkjus.UPF
     MD5 check sum: 7cc9d459525c9a0585f487a71c3c9563
     Pseudo is Ultrasoft, Zval =  1.0
     Generated by new atomic code, or converted to UPF format
     Using radial grid of 1061 points,  2 beta functions with:
                l(1) =   0
                l(2) =   0
     Q(r) pseudized with 0 coefficients

     PseudoPot. # 2 for C  read from file:
     /home/cristian/Escritorio/Proyecto_Grafeno/pseudopotenciales/C.pbe-n-rrkjus_psl.1.0.0.UPF
     MD5 check sum: 1fdd950c42eb37d8afe3dd2f8d12311e
     Pseudo is Ultrasoft + core correction, Zval =  4.0
     Generated using "atomic" code by A. Dal Corso v.6.3MaX
     Using radial grid of 1073 points,  4 beta functions with:
                l(1) =   0
                l(2) =   0
                l(3) =   1
                l(4) =   1
     Q(r) pseudized with 0 coefficients

     PseudoPot. # 3 for Mn read from file:
     /home/cristian/Escritorio/Proyecto_Grafeno/pseudopotenciales/Mn.pbe-spn-rrkjus_psl.0.3.1.UPF
     MD5 check sum: e1cac159bdd2ba70c18e85765a5d4279
     Pseudo is Ultrasoft + core correction, Zval = 15.0
     Generated using "atomic" code by A. Dal Corso v.6.2.2
     Using radial grid of 1187 points,  6 beta functions with:
                l(1) =   0
                l(2) =   0
                l(3) =   1
                l(4) =   1
                l(5) =   2
                l(6) =   2
     Q(r) pseudized with 0 coefficients

     vdW kernel table read from file rVV10_kernel_table
     MD5 check sum: b8e2538accc0c0b3206b45ba4daaba6c

     atomic species   valence    mass     pseudopotential
        H              1.00     1.00794     H ( 1.00)
        C              4.00    12.01070     C ( 1.00)
        Mn            15.00    54.93804     Mn( 1.00)

     Starting magnetic structure
     atomic species   magnetization
        H            0.500
        C            0.300
        Mn           0.800

     No symmetry found

                                    s                        frac. trans.

      isym =  1     identity

 cryst.   s( 1) = (     1          0          0      )
                  (     0          1          0      )
                  (     0          0          1      )

 cart.    s( 1) = (  1.0000000  0.0000000  0.0000000 )
                  (  0.0000000  1.0000000  0.0000000 )
                  (  0.0000000  0.0000000  1.0000000 )

     point group C_1 (1)
     there are  1 classes
     the character table:

       E
A      1.00

     the symmetry operations in each class and the name of the first element:

     E        1
          identity

   Cartesian axes

     site n.     atom                  positions (alat units)
         1           H   tau(   1) = (   0.1694937   0.4618802   0.1460270  )
         2           H   tau(   2) = (   0.2305063   0.4618802   0.1460270  )
         3           C   tau(   3) = (   0.0000000   0.0000000   0.0000000  )
         4           C   tau(   4) = (   0.0000000   0.1154701   0.0000000  )
         5           C   tau(   5) = (  -0.1000000   0.1732051   0.0000000  )
         6           C   tau(   6) = (  -0.1000000   0.2886751   0.0000000  )
         7           C   tau(   7) = (  -0.2000000   0.3464102   0.0000000  )
         8           C   tau(   8) = (  -0.2000000   0.4618802   0.0000000  )
         9           C   tau(   9) = (  -0.3000000   0.5196152   0.0000000  )
        10           C   tau(  10) = (  -0.3000000   0.6350853   0.0000000  )
        11           C   tau(  11) = (  -0.4000000   0.6928203   0.0000000  )
        12           C   tau(  12) = (  -0.4000000   0.8082904   0.0000000  )
        13           C   tau(  13) = (   0.2000000   0.0000000   0.0000000  )
        14           C   tau(  14) = (   0.2000000   0.1154701   0.0000000  )
        15           C   tau(  15) = (   0.1000000   0.1732051   0.0000000  )
        16           C   tau(  16) = (   0.1000000   0.2886751   0.0000000  )
        17           C   tau(  17) = (   0.0000000   0.3464102   0.0000000  )
        18           C   tau(  18) = (   0.0000000   0.4618802   0.0000000  )
        19           C   tau(  19) = (  -0.1000000   0.5196152   0.0000000  )
        20           C   tau(  20) = (  -0.1000000   0.6350853   0.0000000  )
        21           C   tau(  21) = (  -0.2000000   0.6928203   0.0000000  )
        22           C   tau(  22) = (  -0.2000000   0.8082904   0.0000000  )
        23           C   tau(  23) = (   0.4000000   0.0000000   0.0000000  )
        24           C   tau(  24) = (   0.4000000   0.1154701   0.0000000  )
        25           C   tau(  25) = (   0.3000000   0.1732051   0.0000000  )
        26           C   tau(  26) = (   0.3000000   0.2886751   0.0000000  )
        27           C   tau(  27) = (   0.2000000   0.3464102   0.0000000  )
        28           Mn  tau(  28) = (   0.2000000   0.4618802   0.0000000  )
        29           C   tau(  29) = (   0.1000000   0.5196152   0.0000000  )
        30           C   tau(  30) = (   0.1000000   0.6350853   0.0000000  )
        31           C   tau(  31) = (   0.0000000   0.6928203   0.0000000  )
        32           C   tau(  32) = (   0.0000000   0.8082904   0.0000000  )
        33           C   tau(  33) = (   0.6000000   0.0000000   0.0000000  )
        34           C   tau(  34) = (   0.6000000   0.1154701   0.0000000  )
        35           C   tau(  35) = (   0.5000000   0.1732051   0.0000000  )
        36           C   tau(  36) = (   0.5000000   0.2886751   0.0000000  )
        37           C   tau(  37) = (   0.4000000   0.3464102   0.0000000  )
        38           C   tau(  38) = (   0.4000000   0.4618802   0.0000000  )
        39           C   tau(  39) = (   0.3000000   0.5196152   0.0000000  )
        40           C   tau(  40) = (   0.3000000   0.6350853   0.0000000  )
        41           C   tau(  41) = (   0.2000000   0.6928203   0.0000000  )
        42           C   tau(  42) = (   0.2000000   0.8082904   0.0000000  )
        43           C   tau(  43) = (   0.8000000   0.0000000   0.0000000  )
        44           C   tau(  44) = (   0.8000000   0.1154701   0.0000000  )
        45           C   tau(  45) = (   0.7000000   0.1732051   0.0000000  )
        46           C   tau(  46) = (   0.7000000   0.2886751   0.0000000  )
        47           C   tau(  47) = (   0.6000000   0.3464102   0.0000000  )
        48           C   tau(  48) = (   0.6000000   0.4618802   0.0000000  )
        49           C   tau(  49) = (   0.5000000   0.5196152   0.0000000  )
        50           C   tau(  50) = (   0.5000000   0.6350853   0.0000000  )
        51           C   tau(  51) = (   0.4000000   0.6928203   0.0000000  )
        52           C   tau(  52) = (   0.4000000   0.8082904   0.0000000  )

   Crystallographic axes

     site n.     atom                  positions (cryst. coord.)
         1           H   tau(   1) = (  0.4361603  0.5333333  0.1800000  )
         2           H   tau(   2) = (  0.4971730  0.5333333  0.1800000  )
         3           C   tau(   3) = (  0.0000000  0.0000000  0.0000000  )
         4           C   tau(   4) = (  0.0666667  0.1333333  0.0000000  )
         5           C   tau(   5) = (  0.0000000  0.2000000  0.0000000  )
         6           C   tau(   6) = (  0.0666667  0.3333333  0.0000000  )
         7           C   tau(   7) = (  0.0000000  0.4000000  0.0000000  )
         8           C   tau(   8) = (  0.0666667  0.5333333  0.0000000  )
         9           C   tau(   9) = (  0.0000000  0.6000000  0.0000000  )
        10           C   tau(  10) = (  0.0666667  0.7333333  0.0000000  )
        11           C   tau(  11) = (  0.0000000  0.8000000  0.0000000  )
        12           C   tau(  12) = (  0.0666667  0.9333333  0.0000000  )
        13           C   tau(  13) = (  0.2000000  0.0000000  0.0000000  )
        14           C   tau(  14) = (  0.2666667  0.1333333  0.0000000  )
        15           C   tau(  15) = (  0.2000000  0.2000000  0.0000000  )
        16           C   tau(  16) = (  0.2666667  0.3333333  0.0000000  )
        17           C   tau(  17) = (  0.2000000  0.4000000  0.0000000  )
        18           C   tau(  18) = (  0.2666667  0.5333333  0.0000000  )
        19           C   tau(  19) = (  0.2000000  0.6000000  0.0000000  )
        20           C   tau(  20) = (  0.2666667  0.7333333  0.0000000  )
        21           C   tau(  21) = (  0.2000000  0.8000000  0.0000000  )
        22           C   tau(  22) = (  0.2666667  0.9333333  0.0000000  )
        23           C   tau(  23) = (  0.4000000  0.0000000  0.0000000  )
        24           C   tau(  24) = (  0.4666667  0.1333333  0.0000000  )
        25           C   tau(  25) = (  0.4000000  0.2000000  0.0000000  )
        26           C   tau(  26) = (  0.4666667  0.3333333  0.0000000  )
        27           C   tau(  27) = (  0.4000000  0.4000000  0.0000000  )
        28           Mn  tau(  28) = (  0.4666667  0.5333333  0.0000000  )
        29           C   tau(  29) = (  0.4000000  0.6000000  0.0000000  )
        30           C   tau(  30) = (  0.4666667  0.7333333  0.0000000  )
        31           C   tau(  31) = (  0.4000000  0.8000000  0.0000000  )
        32           C   tau(  32) = (  0.4666667  0.9333333  0.0000000  )
        33           C   tau(  33) = (  0.6000000  0.0000000  0.0000000  )
        34           C   tau(  34) = (  0.6666667  0.1333333  0.0000000  )
        35           C   tau(  35) = (  0.6000000  0.2000000  0.0000000  )
        36           C   tau(  36) = (  0.6666667  0.3333333  0.0000000  )
        37           C   tau(  37) = (  0.6000000  0.4000000  0.0000000  )
        38           C   tau(  38) = (  0.6666667  0.5333333  0.0000000  )
        39           C   tau(  39) = (  0.6000000  0.6000000  0.0000000  )
        40           C   tau(  40) = (  0.6666667  0.7333333  0.0000000  )
        41           C   tau(  41) = (  0.6000000  0.8000000  0.0000000  )
        42           C   tau(  42) = (  0.6666667  0.9333333  0.0000000  )
        43           C   tau(  43) = (  0.8000000  0.0000000  0.0000000  )
        44           C   tau(  44) = (  0.8666667  0.1333333  0.0000000  )
        45           C   tau(  45) = (  0.8000000  0.2000000  0.0000000  )
        46           C   tau(  46) = (  0.8666667  0.3333333  0.0000000  )
        47           C   tau(  47) = (  0.8000000  0.4000000  0.0000000  )
        48           C   tau(  48) = (  0.8666667  0.5333333  0.0000000  )
        49           C   tau(  49) = (  0.8000000  0.6000000  0.0000000  )
        50           C   tau(  50) = (  0.8666667  0.7333333  0.0000000  )
        51           C   tau(  51) = (  0.8000000  0.8000000  0.0000000  )
        52           C   tau(  52) = (  0.8666667  0.9333333  0.0000000  )

     number of k points=     1  Marzari-Vanderbilt smearing, width (Ry)=  0.0010
                       cart. coord. in units 2pi/alat
        k(    1) = (   0.0000000   0.0000000   0.0000000), wk =   1.0000000

                       cryst. coord.
        k(    1) = (   0.0000000   0.0000000   0.0000000), wk =   1.0000000

     Check: negative core charge=   -0.000002

     Initial potential from superposition of free atoms

     starting charge  212.80506, renormalised to  213.00000

     negative rho (up, down):  8.872E-05 1.383E-02

Carrying out rVV10 run using the following parameters:
Nqs =      20    Nr_points =    1024   r_max =   100.000
b_value =  6.30000    beta =  0.00901
     q_mesh =  0.00010000  0.00030000  0.00058939  0.00100810
               0.00161396  0.00249058  0.00375900  0.00559430
               0.00824984  0.01209221  0.01765183  0.02569619
               0.03733578  0.05417739  0.07854596  0.11380545
               0.16482331  0.23864234  0.34545298  0.50000000

Gradients computed in Reciprocal space

     Starting wfcs are  208 randomized atomic wfcs

     Self-consistent Calculation

     iteration #  1     ecut=    70.00 Ry     beta= 0.70
     Davidson diagonalization with overlap
     ethr =  1.00E-02,  avg # of iterations =  2.5

[...]

     total energy              =    -820.32042273 Ry
     Harris-Foulkes estimate   =    -825.27180515 Ry
     estimated scf accuracy    <      13.52713574 Ry

     total magnetization       =     7.00 Bohr mag/cell
     absolute magnetization    =     7.33 Bohr mag/cell

[...]

     total energy              =    -825.92301211 Ry
     Harris-Foulkes estimate   =    -825.92301233 Ry
     estimated scf accuracy    <       0.00000166 Ry

[...]

     iteration # 28     ecut=    70.00 Ry     beta= 0.70
     Davidson diagonalization with overlap
     ethr =  7.78E-10,  avg # of iterations =  2.5

     negative rho (up, down):  7.377E-04 2.447E-03

     Magnetic moment per site:
     atom:    1    charge:    0.2101    magn:   -0.0004    constr:    0.0000
     atom:    2    charge:    0.2101    magn:   -0.0004    constr:    0.0000
     atom:    3    charge:    1.7156    magn:   -0.0061    constr:    0.0000
     atom:    4    charge:    1.7169    magn:    0.0059    constr:    0.0000
     atom:    5    charge:    1.7167    magn:   -0.0048    constr:    0.0000
     atom:    6    charge:    1.7150    magn:    0.0033    constr:    0.0000
     atom:    7    charge:    1.7171    magn:   -0.0055    constr:    0.0000
     atom:    8    charge:    1.7158    magn:    0.0133    constr:    0.0000
     atom:    9    charge:    1.7168    magn:   -0.0079    constr:    0.0000
     atom:   10    charge:    1.7156    magn:    0.0496    constr:    0.0000
     atom:   11    charge:    1.7158    magn:   -0.0089    constr:    0.0000
     atom:   12    charge:    1.7194    magn:    0.0217    constr:    0.0000
     atom:   13    charge:    1.7154    magn:   -0.0087    constr:    0.0000
     atom:   14    charge:    1.7167    magn:    0.0379    constr:    0.0000
     atom:   15    charge:    1.7134    magn:   -0.0080    constr:    0.0000
     atom:   16    charge:    1.7170    magn:    0.0385    constr:    0.0000
     atom:   17    charge:    1.7215    magn:   -0.0090    constr:    0.0000
     atom:   18    charge:    1.7178    magn:    0.0326    constr:    0.0000
     atom:   19    charge:    1.7126    magn:   -0.0045    constr:    0.0000
     atom:   20    charge:    1.7191    magn:    0.0164    constr:    0.0000
     atom:   21    charge:    1.7158    magn:   -0.0089    constr:    0.0000
     atom:   22    charge:    1.7194    magn:    0.0217    constr:    0.0000
     atom:   23    charge:    1.7156    magn:   -0.0061    constr:    0.0000
     atom:   24    charge:    1.7169    magn:    0.0058    constr:    0.0000
     atom:   25    charge:    1.7134    magn:   -0.0080    constr:    0.0000
     atom:   26    charge:    1.7170    magn:    0.0385    constr:    0.0000
     atom:   27    charge:    1.8713    magn:   -0.0108    constr:    0.0000
     atom:   28    charge:   10.0467    magn:    0.1931    constr:    0.0000
     atom:   29    charge:    1.8694    magn:   -0.0098    constr:    0.0000
     atom:   30    charge:    1.7202    magn:    0.0099    constr:    0.0000
     atom:   31    charge:    1.7123    magn:   -0.0046    constr:    0.0000
     atom:   32    charge:    1.7162    magn:    0.0087    constr:    0.0000
     atom:   33    charge:    1.7169    magn:   -0.0046    constr:    0.0000
     atom:   34    charge:    1.7159    magn:    0.0053    constr:    0.0000
     atom:   35    charge:    1.7167    magn:   -0.0048    constr:    0.0000
     atom:   36    charge:    1.7150    magn:    0.0033    constr:    0.0000
     atom:   37    charge:    1.7215    magn:   -0.0090    constr:    0.0000
     atom:   38    charge:    1.7178    magn:    0.0326    constr:    0.0000
     atom:   39    charge:    1.8694    magn:   -0.0098    constr:    0.0000
     atom:   40    charge:    1.7202    magn:    0.0099    constr:    0.0000
     atom:   41    charge:    1.7200    magn:   -0.0050    constr:    0.0000
     atom:   42    charge:    1.7148    magn:    0.0032    constr:    0.0000
     atom:   43    charge:    1.7169    magn:   -0.0046    constr:    0.0000
     atom:   44    charge:    1.7159    magn:    0.0053    constr:    0.0000
     atom:   45    charge:    1.7206    magn:   -0.0057    constr:    0.0000
     atom:   46    charge:    1.7153    magn:    0.0100    constr:    0.0000
     atom:   47    charge:    1.7171    magn:   -0.0055    constr:    0.0000
     atom:   48    charge:    1.7158    magn:    0.0133    constr:    0.0000
     atom:   49    charge:    1.7126    magn:   -0.0045    constr:    0.0000
     atom:   50    charge:    1.7191    magn:    0.0164    constr:    0.0000
     atom:   51    charge:    1.7123    magn:   -0.0046    constr:    0.0000
     atom:   52    charge:    1.7162    magn:    0.0087    constr:    0.0000

     End of self-consistent calculation

 ------ SPIN UP ------------

          k = 0.0000 0.0000 0.0000 ( 87777 PWs)   bands (ev):

   -80.4842 -50.1592 -49.9855 -48.8484 -19.6203 -18.7961 -18.7685 -18.7012
   -18.6948 -18.6637 -18.4175 -16.9617 -16.9395 -16.9078 -16.8595 -16.8496
   -16.5352 -16.0968 -16.0793 -15.9818 -15.9462 -15.9428 -15.3003 -14.0249
   -13.9682 -13.9276 -13.8353 -13.8276 -13.2616 -12.9279 -12.9143 -12.8895
   -12.6229 -12.6201 -12.1713 -11.7241 -11.7213 -11.5238 -11.2678 -11.2644
   -10.6470 -10.0929  -9.6105  -9.5959  -9.3353  -9.1623  -9.1601  -9.0545
    -9.0339  -9.0254  -9.0215  -8.5648  -8.5617  -8.0821  -8.0702  -7.8916
    -7.7333  -7.6906  -7.2889  -7.2678  -7.2032  -7.1828  -7.0923  -6.7998
    -6.7954  -6.6908  -6.6554  -6.6343  -6.6013  -6.4083  -6.4030  -6.3755
    -6.3714  -6.3575  -6.3363  -6.2921  -5.6892  -5.6794  -5.4131  -5.4000
    -5.1959  -5.1881  -4.9798  -4.8229  -4.7504  -4.6059  -4.5898  -4.5593
    -4.2081  -4.1795  -4.1625  -4.0969  -4.0746  -3.7139  -3.6954  -3.6282
    -3.5236  -3.5133  -2.9800  -2.6548  -2.6411  -1.7454  -1.6497  -1.6454
    -0.9829  -0.8664  -0.8410   0.1727   1.0447   1.1023   1.1121   1.6847
     1.7192   1.8402   2.3469   2.4645   2.8363   2.9262   2.9307   2.9955
     3.5194   3.5509   3.5770   3.6301   3.6508   3.7717   3.7895   3.8226

     occupation numbers
     1.0000   1.0000   1.0000   1.0000   1.0000   1.0000   1.0000   1.0000
     1.0000   1.0000   1.0000   1.0000   1.0000   1.0000   1.0000   1.0000
     1.0000   1.0000   1.0000   1.0000   1.0000   1.0000   1.0000   1.0000
     1.0000   1.0000   1.0000   1.0000   1.0000   1.0000   1.0000   1.0000
     1.0000   1.0000   1.0000   1.0000   1.0000   1.0000   1.0000   1.0000
     1.0000   1.0000   1.0000   1.0000   1.0000   1.0000   1.0000   1.0000
     1.0000   1.0000   1.0000   1.0000   1.0000   1.0000   1.0000   1.0000
     1.0000   1.0000   1.0000   1.0000   1.0000   1.0000   1.0000   1.0000
     1.0000   1.0000   1.0000   1.0000   1.0000   1.0000   1.0000   1.0000
     1.0000   1.0000   1.0000   1.0000   1.0000   1.0000   1.0000   1.0000
     1.0000   1.0000   1.0000   1.0000   1.0000   1.0000   1.0000   1.0000
     1.0000   1.0000   1.0000   1.0000   1.0000   1.0000   1.0000   1.0000
     1.0000   1.0000   1.0000   1.0000   1.0000   1.0000   1.0000   1.0000
     1.0000   1.0000   1.0000   0.0000   0.0000   0.0000   0.0000   0.0000
     0.0000   0.0000   0.0000   0.0000   0.0000   0.0000   0.0000   0.0000
     0.0000   0.0000   0.0000   0.0000   0.0000   0.0000   0.0000   0.0000

 ------ SPIN DOWN ----------

          k = 0.0000 0.0000 0.0000 ( 87777 PWs)   bands (ev):

   -80.1635 -49.8224 -49.8082 -48.4356 -19.5999 -18.7633 -18.7455 -18.6908
   -18.6868 -18.6442 -18.3895 -16.9366 -16.9209 -16.8991 -16.8309 -16.8266
   -16.5212 -16.0682 -16.0617 -15.9672 -15.9265 -15.9214 -15.2878 -13.9802
   -13.9452 -13.8995 -13.8296 -13.8199 -13.2683 -12.9113 -12.9032 -12.8745
   -12.6142 -12.6102 -12.1557 -11.7084 -11.7022 -11.5120 -11.2565 -11.2535
   -10.6390 -10.0805  -9.5872  -9.5779  -9.3196  -9.1462  -9.1439  -9.0458
    -9.0198  -9.0170  -9.0134  -8.5587  -8.5554  -8.0660  -8.0546  -7.8820
    -7.6876  -7.6826  -7.2780  -7.2573  -7.1343  -7.0803  -7.0750  -6.7831
    -6.7763  -6.6538  -6.6358  -6.5943  -6.5877  -6.3967  -6.3934  -6.3715
    -6.3657  -6.3521  -6.3263  -6.2229  -5.6380  -5.5666  -5.3930  -5.3842
    -5.1746  -5.1683  -4.9322  -4.8144  -4.7471  -4.5555  -4.5355  -4.5314
    -4.1717  -4.1387  -4.1260  -4.0345  -4.0301  -3.6371  -3.6340  -3.5922
    -3.5149  -3.5058  -2.9491  -2.5745  -2.5384  -1.6672  -1.6352  -1.6275
    -0.8514  -0.6912  -0.6779   0.2821   1.1146   1.1269   1.1390   1.7701
     1.7777   1.8936   2.3898   2.4730   2.9014   2.9928   3.0034   3.0325
     3.5560   3.6026   3.6317   3.6706   3.6861   3.7785   3.7935   3.8300

     occupation numbers
     1.0000   1.0000   1.0000   1.0000   1.0000   1.0000   1.0000   1.0000
     1.0000   1.0000   1.0000   1.0000   1.0000   1.0000   1.0000   1.0000
     1.0000   1.0000   1.0000   1.0000   1.0000   1.0000   1.0000   1.0000
     1.0000   1.0000   1.0000   1.0000   1.0000   1.0000   1.0000   1.0000
     1.0000   1.0000   1.0000   1.0000   1.0000   1.0000   1.0000   1.0000
     1.0000   1.0000   1.0000   1.0000   1.0000   1.0000   1.0000   1.0000
     1.0000   1.0000   1.0000   1.0000   1.0000   1.0000   1.0000   1.0000
     1.0000   1.0000   1.0000   1.0000   1.0000   1.0000   1.0000   1.0000
     1.0000   1.0000   1.0000   1.0000   1.0000   1.0000   1.0000   1.0000
     1.0000   1.0000   1.0000   1.0000   1.0000   1.0000   1.0000   1.0000
     1.0000   1.0000   1.0000   1.0000   1.0000   1.0000   1.0000   1.0000
     1.0000   1.0000   1.0000   1.0000   1.0000   1.0000   1.0000   1.0000
     1.0000   1.0000   1.0000   1.0000   1.0000   1.0000   1.0000   1.0000
     1.0000   0.8221   0.1779   0.0000   0.0000   0.0000   0.0000   0.0000
     0.0000   0.0000   0.0000   0.0000   0.0000   0.0000   0.0000   0.0000
     0.0000   0.0000   0.0000   0.0000   0.0000   0.0000   0.0000   0.0000

     the Fermi energy is    -0.6833 ev

!    total energy              =    -825.92301235 Ry
     Harris-Foulkes estimate   =    -825.92301240 Ry
     estimated scf accuracy    <       0.00000009 Ry

     The total energy is the sum of the following terms:

     one-electron contribution =   -2758.49433180 Ry
     hartree contribution      =    1424.65307095 Ry
     xc contribution           =    -259.77499889 Ry
     ewald contribution        =     767.69342723 Ry
     smearing contrib. (-TS)   =      -0.00017984 Ry

     total magnetization       =     1.00 Bohr mag/cell
     absolute magnetization    =     1.64 Bohr mag/cell

     convergence has been achieved in  28 iterations

     Writing output data file manganeso-top-distance-1.8.save/

     General routines

     Parallel routines

   This run was terminated on:   5:56:30  23Jan2023

   JOB DONE.