     Program PWSCF v.6.4.1 starts on 11Feb2023 at  9:59:21

     R & G space division:  proc/nbgrp/npool/nimage =       6
     Reading input from mn-relax.in

     Current dimensions of program PWSCF are:
     Max number of different atomic species (ntypx) = 10
     Max number of k-points (npk) =  40000
     Max angular momentum in pseudopotentials (lmaxx) =  3

     IMPORTANT: XC functional enforced from input :
     Exchange-correlation      = RVV10 ( 1  4 13  4 3 0)
     Any further DFT definition will be discarded
     Please, verify this is what you really want

               file H.pbe-rrkjus.UPF: wavefunction(s)  1S renormalized
               file Mn.pbe-spn-rrkjus_psl.0.3.1.UPF: wavefunction(s)  3D renormalized

     Subspace diagonalization in iterative solution of the eigenvalue problem:
     a serial algorithm will be used

     bravais-lattice index     =            4
     lattice parameter (alat)  =      23.2937  a.u.
     unit-cell volume          =    8879.8548 (a.u.)^3
     number of atoms/cell      =           52
     number of atomic types    =            3
     number of electrons       =       213.00
     number of Kohn-Sham states=          128
     kinetic-energy cutoff     =      70.0000  Ry
     charge density cutoff     =     490.0000  Ry
     convergence threshold     =      1.0E-10
     mixing beta               =       0.3000
     number of iterations used =            4  plain     mixing
     Exchange-correlation      = RVV10 ( 1  4 13  4 3 0)
     nstep                     =           50

     celldm(1)=  23.293684  celldm(2)=   0.000000  celldm(3)=   0.811261
     celldm(4)=   0.000000  celldm(5)=   0.000000  celldm(6)=   0.000000

     crystal axes: (cart. coord. in units of alat)
               a(1) = (   1.000000   0.000000   0.000000 )
               a(2) = (  -0.500000   0.866025   0.000000 )
               a(3) = (   0.000000   0.000000   0.811261 )

     reciprocal axes: (cart. coord. in units 2 pi/alat)
               b(1) = (  1.000000  0.577350 -0.000000 )
               b(2) = (  0.000000  1.154701  0.000000 )
               b(3) = (  0.000000 -0.000000  1.232649 )

     PseudoPot. # 1 for H  read from file:
     /home/cristian/Escritorio/Proyecto_Grafeno/pseudopotenciales/H.pbe-rrkjus.UPF
     MD5 check sum: 7cc9d459525c9a0585f487a71c3c9563
     Pseudo is Ultrasoft, Zval =  1.0
     Generated by new atomic code, or converted to UPF format
     Using radial grid of 1061 points,  2 beta functions with:
                l(1) =   0
                l(2) =   0
     Q(r) pseudized with 0 coefficients

     PseudoPot. # 2 for C  read from file:
     /home/cristian/Escritorio/Proyecto_Grafeno/pseudopotenciales/C.pbe-n-rrkjus_psl.1.0.0.UPF
     MD5 check sum: 1fdd950c42eb37d8afe3dd2f8d12311e
     Pseudo is Ultrasoft + core correction, Zval =  4.0
     Generated using "atomic" code by A. Dal Corso v.6.3MaX
     Using radial grid of 1073 points,  4 beta functions with:
                l(1) =   0
                l(2) =   0
                l(3) =   1
                l(4) =   1
     Q(r) pseudized with 0 coefficients

     PseudoPot. # 3 for Mn read from file:
     /home/cristian/Escritorio/Proyecto_Grafeno/pseudopotenciales/Mn.pbe-spn-rrkjus_psl.0.3.1.UPF
     MD5 check sum: e1cac159bdd2ba70c18e85765a5d4279
     Pseudo is Ultrasoft + core correction, Zval = 15.0
     Generated using "atomic" code by A. Dal Corso v.6.2.2
     Using radial grid of 1187 points,  6 beta functions with:
                l(1) =   0
                l(2) =   0
                l(3) =   1
                l(4) =   1
                l(5) =   2
                l(6) =   2
     Q(r) pseudized with 0 coefficients

     vdW kernel table read from file rVV10_kernel_table
     MD5 check sum: b8e2538accc0c0b3206b45ba4daaba6c

     atomic species   valence    mass     pseudopotential
        H              1.00     1.00794     H ( 1.00)
        C              4.00    12.01070     C ( 1.00)
        Mn            15.00    54.93804     Mn( 1.00)

     Starting magnetic structure
     atomic species   magnetization
        H            0.500
        C            0.300
        Mn           0.800

      2 Sym. Ops. (no inversion) found

                                    s                        frac. trans.

      isym =  1     identity

 cryst.   s( 1) = (     1          0          0      )
                  (     0          1          0      )
                  (     0          0          1      )

 cart.    s( 1) = (  1.0000000  0.0000000  0.0000000 )
                  (  0.0000000  1.0000000  0.0000000 )
                  (  0.0000000  0.0000000  1.0000000 )

      isym =  2     inv. 180 deg rotation - cryst. axis [1,1,0]

 cryst.   s( 2) = (     0         -1          0      )
                  (    -1          0          0      )
                  (     0          0          1      )

 cart.    s( 2) = (  0.5000000 -0.8660254  0.0000000 )
                  ( -0.8660254 -0.5000000  0.0000000 )
                  (  0.0000000  0.0000000  1.0000000 )

     point group C_s (m)
     there are  2 classes
     the character table:

       E     s
A'     1.00  1.00
A''    1.00 -1.00

     the symmetry operations in each class and the name of the first element:

     E        1
          identity
     s        2
          inv. 180 deg rotation - cryst. axis [1,1,0]

   Cartesian axes

     site n.     atom                  positions (alat units)
         1           H   tau(   1) = (   0.3000000   0.4041452   0.2271531  )
         2           H   tau(   2) = (   0.3000000   0.4041452   0.2881658  )
         3           C   tau(   3) = (   0.0000000   0.0000000   0.0000000  )
         4           C   tau(   4) = (   0.0000000   0.1154701   0.0000000  )
         5           C   tau(   5) = (  -0.1000000   0.1732051   0.0000000  )
         6           C   tau(   6) = (  -0.1000000   0.2886751   0.0000000  )
         7           C   tau(   7) = (  -0.2000000   0.3464102   0.0000000  )
         8           C   tau(   8) = (  -0.2000000   0.4618802   0.0000000  )
         9           C   tau(   9) = (  -0.3000000   0.5196152   0.0000000  )
        10           C   tau(  10) = (  -0.3000000   0.6350853   0.0000000  )
        11           C   tau(  11) = (  -0.4000000   0.6928203   0.0000000  )
        12           C   tau(  12) = (  -0.4000000   0.8082904   0.0000000  )
        13           C   tau(  13) = (   0.2000000   0.0000000   0.0000000  )
        14           C   tau(  14) = (   0.2000000   0.1154701   0.0000000  )
        15           C   tau(  15) = (   0.1000000   0.1732051   0.0000000  )
        16           C   tau(  16) = (   0.1000000   0.2886751   0.0000000  )
        17           C   tau(  17) = (   0.0000000   0.3464102   0.0000000  )
        18           C   tau(  18) = (   0.0000000   0.4618802   0.0000000  )
        19           C   tau(  19) = (  -0.1000000   0.5196152   0.0000000  )
        20           C   tau(  20) = (  -0.1000000   0.6350853   0.0000000  )
        21           C   tau(  21) = (  -0.2000000   0.6928203   0.0000000  )
        22           C   tau(  22) = (  -0.2000000   0.8082904   0.0000000  )
        23           C   tau(  23) = (   0.4000000   0.0000000   0.0000000  )
        24           C   tau(  24) = (   0.4000000   0.1154701   0.0000000  )
        25           C   tau(  25) = (   0.3000000   0.1732051   0.0000000  )
        26           C   tau(  26) = (   0.3000000   0.2886751   0.0000000  )
        27           C   tau(  27) = (   0.2000000   0.3464102   0.0000000  )
        28           Mn  tau(  28) = (   0.2000000   0.4618802   0.0000000  )
        29           C   tau(  29) = (   0.1000000   0.5196152   0.0000000  )
        30           C   tau(  30) = (   0.1000000   0.6350853   0.0000000  )
        31           C   tau(  31) = (   0.0000000   0.6928203   0.0000000  )
        32           C   tau(  32) = (   0.0000000   0.8082904   0.0000000  )
        33           C   tau(  33) = (   0.6000000   0.0000000   0.0000000  )
        34           C   tau(  34) = (   0.6000000   0.1154701   0.0000000  )
        35           C   tau(  35) = (   0.5000000   0.1732051   0.0000000  )
        36           C   tau(  36) = (   0.5000000   0.2886751   0.0000000  )
        37           C   tau(  37) = (   0.4000000   0.3464102   0.0000000  )
        38           C   tau(  38) = (   0.4000000   0.4618802   0.0000000  )
        39           C   tau(  39) = (   0.3000000   0.5196152   0.0000000  )
        40           C   tau(  40) = (   0.3000000   0.6350853   0.0000000  )
        41           C   tau(  41) = (   0.2000000   0.6928203   0.0000000  )
        42           C   tau(  42) = (   0.2000000   0.8082904   0.0000000  )
        43           C   tau(  43) = (   0.8000000   0.0000000   0.0000000  )
        44           C   tau(  44) = (   0.8000000   0.1154701   0.0000000  )
        45           C   tau(  45) = (   0.7000000   0.1732051   0.0000000  )
        46           C   tau(  46) = (   0.7000000   0.2886751   0.0000000  )
        47           C   tau(  47) = (   0.6000000   0.3464102   0.0000000  )
        48           C   tau(  48) = (   0.6000000   0.4618802   0.0000000  )
        49           C   tau(  49) = (   0.5000000   0.5196152   0.0000000  )
        50           C   tau(  50) = (   0.5000000   0.6350853   0.0000000  )
        51           C   tau(  51) = (   0.4000000   0.6928203   0.0000000  )
        52           C   tau(  52) = (   0.4000000   0.8082904   0.0000000  )

   Crystallographic axes

     site n.     atom                  positions (cryst. coord.)
         1           H   tau(   1) = (  0.5333333  0.4666667  0.2800000  )
         2           H   tau(   2) = (  0.5333333  0.4666667  0.3552072  )
         3           C   tau(   3) = (  0.0000000  0.0000000  0.0000000  )
         4           C   tau(   4) = (  0.0666667  0.1333333  0.0000000  )
         5           C   tau(   5) = (  0.0000000  0.2000000  0.0000000  )
         6           C   tau(   6) = (  0.0666667  0.3333333  0.0000000  )
         7           C   tau(   7) = (  0.0000000  0.4000000  0.0000000  )
         8           C   tau(   8) = (  0.0666667  0.5333333  0.0000000  )
         9           C   tau(   9) = (  0.0000000  0.6000000  0.0000000  )
        10           C   tau(  10) = (  0.0666667  0.7333333  0.0000000  )
        11           C   tau(  11) = (  0.0000000  0.8000000  0.0000000  )
        12           C   tau(  12) = (  0.0666667  0.9333333  0.0000000  )
        13           C   tau(  13) = (  0.2000000  0.0000000  0.0000000  )
        14           C   tau(  14) = (  0.2666667  0.1333333  0.0000000  )
        15           C   tau(  15) = (  0.2000000  0.2000000  0.0000000  )
        16           C   tau(  16) = (  0.2666667  0.3333333  0.0000000  )
        17           C   tau(  17) = (  0.2000000  0.4000000  0.0000000  )
        18           C   tau(  18) = (  0.2666667  0.5333333  0.0000000  )
        19           C   tau(  19) = (  0.2000000  0.6000000  0.0000000  )
        20           C   tau(  20) = (  0.2666667  0.7333333  0.0000000  )
        21           C   tau(  21) = (  0.2000000  0.8000000  0.0000000  )
[...]
     atom   34 type  2   force =    -0.11190378   -0.00651074   -0.66283067
     atom   35 type  2   force =    -0.34285711    0.28646698   -0.46272853
     atom   36 type  2   force =    -0.78418853    0.45275146   -0.13977565
     atom   37 type  2   force =    -1.43140309    0.82642096    0.07613002
     atom   38 type  2   force =    -2.12626722    0.15920747   -0.47145099
     atom   39 type  2   force =    -3.19008149   -1.96248684   -1.61820086
     atom   40 type  2   force =    -0.76773885   -1.98315191   -0.79504377
     atom   41 type  2   force =     0.02098780   -1.56639440   -0.41292580
     atom   42 type  2   force =    -0.00813677   -0.75686824   -0.70322342
     atom   43 type  2   force =    -0.03243605   -0.35554898   -0.87921625
     atom   44 type  2   force =     0.04875547   -0.02814898   -1.00256599
     atom   45 type  2   force =    -0.04007099    0.02313500   -0.57157532
     atom   46 type  2   force =    -0.05031343    0.10016688   -0.66283067
     atom   47 type  2   force =    -0.41951624    0.15368947   -0.46272853
     atom   48 type  2   force =    -0.49034312   -0.00206149   -0.84924310
     atom   49 type  2   force =    -1.02988210   -0.29291899   -0.69320924
     atom   50 type  2   force =    -0.65389637   -0.42886015   -0.51614566
     atom   51 type  2   force =    -0.66213408   -0.79071783   -0.69976836
     atom   52 type  2   force =    -0.18323489   -0.39154732   -0.80972944
     The core correction contribution to forces
     atom    1 type  1   force =     0.00000000    0.00000000    0.00000000
     atom    2 type  1   force =     0.00000000    0.00000000    0.00000000
     atom    3 type  2   force =    -0.00009319    0.00005381   -0.00019921
     atom    4 type  2   force =    -0.00012946   -0.00003537   -0.00011498
     atom    5 type  2   force =    -0.00014117   -0.00012364   -0.00023390
     atom    6 type  2   force =     0.00010293    0.00008070   -0.00008795
     atom    7 type  2   force =    -0.00019973   -0.00011464   -0.00023702
     atom    8 type  2   force =    -0.00010299   -0.00004604   -0.00016555
     atom    9 type  2   force =    -0.00000202   -0.00012452   -0.00006904
     atom   10 type  2   force =     0.00001056   -0.00002432   -0.00026513
     atom   11 type  2   force =    -0.00001250   -0.00000358    0.00002267
     atom   12 type  2   force =    -0.00000675    0.00000390   -0.00013519
     atom   13 type  2   force =    -0.00000315    0.00001262    0.00002267
     atom   14 type  2   force =     0.00000805   -0.00012121   -0.00038575
     atom   15 type  2   force =    -0.00029152   -0.00006795    0.00014596
     atom   16 type  2   force =     0.00027296   -0.00015904    0.00081114
     atom   17 type  2   force =    -0.00041151   -0.00025544   -0.00003147
     atom   18 type  2   force =    -0.00006382    0.00033760    0.00074881
     atom   19 type  2   force =    -0.00019955   -0.00024641    0.00003212
     atom   20 type  2   force =    -0.00013820    0.00007979   -0.00027728
     atom   21 type  2   force =    -0.00000971    0.00000561   -0.00005160
     atom   22 type  2   force =     0.00002634    0.00000302   -0.00026513
     atom   23 type  2   force =     0.00010683    0.00006401   -0.00006904
     atom   24 type  2   force =     0.00010912   -0.00004109   -0.00009279
     atom   25 type  2   force =     0.00028267   -0.00006211    0.00019040
     atom   26 type  2   force =    -0.00019348   -0.00021368    0.00072924
     atom   27 type  2   force =    -0.00000036    0.00321486   -0.00086822
     atom   28 type  3   force =     0.00013735   -0.00007930   -0.02460276
     atom   29 type  2   force =     0.00272830   -0.00157518   -0.00103457
     atom   30 type  2   force =    -0.00032428   -0.00011352    0.00074881
     atom   31 type  2   force =     0.00011362    0.00029602    0.00003212
     atom   32 type  2   force =    -0.00001162    0.00011222   -0.00016555
     atom   33 type  2   force =    -0.00000058    0.00023029   -0.00023702
     atom   34 type  2   force =     0.00025937    0.00013258   -0.00009318
     atom   35 type  2   force =     0.00016331   -0.00010501   -0.00008417
     atom   36 type  2   force =    -0.00012748    0.00007360    0.00003777
     atom   37 type  2   force =     0.00043265   -0.00024979    0.00013772
     atom   38 type  2   force =     0.00008831    0.00027440    0.00072924
     atom   39 type  2   force =    -0.00278433   -0.00160712   -0.00086822
     atom   40 type  2   force =     0.00027421   -0.00015687    0.00081114
     atom   41 type  2   force =     0.00001546    0.00048410   -0.00003147
     atom   42 type  2   force =    -0.00001842   -0.00012949   -0.00008795
     atom   43 type  2   force =     0.00003649    0.00018408   -0.00023390
     atom   44 type  2   force =    -0.00028091    0.00016218    0.00004100
     atom   45 type  2   force =     0.00000335   -0.00000194   -0.00031667
     atom   46 type  2   force =     0.00001487   -0.00029091   -0.00009318
     atom   47 type  2   force =     0.00017260   -0.00008893   -0.00008417
     atom   48 type  2   force =     0.00009015   -0.00007395   -0.00009279
     atom   49 type  2   force =     0.00019513   -0.00021375    0.00019040
     atom   50 type  2   force =     0.00010900    0.00005364   -0.00038575
     atom   51 type  2   force =    -0.00008691    0.00028644    0.00014596
     atom   52 type  2   force =    -0.00003410    0.00012981   -0.00011498
     The Hubbard contrib.    to forces
     atom    1 type  1   force =     0.00000000    0.00000000    0.00000000
     atom    2 type  1   force =     0.00000000    0.00000000    0.00000000
     atom    3 type  2   force =     0.00000000    0.00000000    0.00000000
     atom    4 type  2   force =     0.00000000    0.00000000    0.00000000
     atom    5 type  2   force =     0.00000000    0.00000000    0.00000000
     atom    6 type  2   force =     0.00000000    0.00000000    0.00000000
     atom    7 type  2   force =     0.00000000    0.00000000    0.00000000
     atom    8 type  2   force =     0.00000000    0.00000000    0.00000000
     atom    9 type  2   force =     0.00000000    0.00000000    0.00000000
     atom   10 type  2   force =     0.00000000    0.00000000    0.00000000
     atom   11 type  2   force =     0.00000000    0.00000000    0.00000000
     atom   12 type  2   force =     0.00000000    0.00000000    0.00000000
     atom   13 type  2   force =     0.00000000    0.00000000    0.00000000
     atom   14 type  2   force =     0.00000000    0.00000000    0.00000000
     atom   15 type  2   force =     0.00000000    0.00000000    0.00000000
     atom   16 type  2   force =     0.00000000    0.00000000    0.00000000
     atom   17 type  2   force =     0.00000000    0.00000000    0.00000000
     atom   18 type  2   force =     0.00000000    0.00000000    0.00000000
     atom   19 type  2   force =     0.00000000    0.00000000    0.00000000
     atom   20 type  2   force =     0.00000000    0.00000000    0.00000000
     atom   21 type  2   force =     0.00000000    0.00000000    0.00000000
     atom   22 type  2   force =     0.00000000    0.00000000    0.00000000
     atom   23 type  2   force =     0.00000000    0.00000000    0.00000000
     atom   24 type  2   force =     0.00000000    0.00000000    0.00000000
     atom   25 type  2   force =     0.00000000    0.00000000    0.00000000
     atom   26 type  2   force =     0.00000000    0.00000000    0.00000000
     atom   27 type  2   force =     0.00000000    0.00000000    0.00000000
     atom   28 type  3   force =     0.00000000    0.00000000    0.00000000
     atom   29 type  2   force =     0.00000000    0.00000000    0.00000000
     atom   30 type  2   force =     0.00000000    0.00000000    0.00000000
     atom   31 type  2   force =     0.00000000    0.00000000    0.00000000
     atom   32 type  2   force =     0.00000000    0.00000000    0.00000000
     atom   33 type  2   force =     0.00000000    0.00000000    0.00000000
     atom   34 type  2   force =     0.00000000    0.00000000    0.00000000
     atom   35 type  2   force =     0.00000000    0.00000000    0.00000000
     atom   36 type  2   force =     0.00000000    0.00000000    0.00000000
     atom   37 type  2   force =     0.00000000    0.00000000    0.00000000
     atom   38 type  2   force =     0.00000000    0.00000000    0.00000000
     atom   39 type  2   force =     0.00000000    0.00000000    0.00000000
     atom   40 type  2   force =     0.00000000    0.00000000    0.00000000
     atom   41 type  2   force =     0.00000000    0.00000000    0.00000000
     atom   42 type  2   force =     0.00000000    0.00000000    0.00000000
     atom   43 type  2   force =     0.00000000    0.00000000    0.00000000
     atom   44 type  2   force =     0.00000000    0.00000000    0.00000000
     atom   45 type  2   force =     0.00000000    0.00000000    0.00000000
     atom   46 type  2   force =     0.00000000    0.00000000    0.00000000
     atom   47 type  2   force =     0.00000000    0.00000000    0.00000000
     atom   48 type  2   force =     0.00000000    0.00000000    0.00000000
     atom   49 type  2   force =     0.00000000    0.00000000    0.00000000
     atom   50 type  2   force =     0.00000000    0.00000000    0.00000000
     atom   51 type  2   force =     0.00000000    0.00000000    0.00000000
     atom   52 type  2   force =     0.00000000    0.00000000    0.00000000
     The SCF correction term to forces
     atom    1 type  1   force =    -0.00000011    0.00000006    0.00000021
     atom    2 type  1   force =     0.00000011   -0.00000006    0.00000025
     atom    3 type  2   force =     0.00000012   -0.00000007   -0.00000006
     atom    4 type  2   force =     0.00000008   -0.00000001   -0.00000001
     atom    5 type  2   force =     0.00000003    0.00000005    0.00000002
     atom    6 type  2   force =     0.00000009    0.00000021    0.00000007
     atom    7 type  2   force =     0.00000005    0.00000016    0.00000002
     atom    8 type  2   force =     0.00000009    0.00000016   -0.00000004
     atom    9 type  2   force =     0.00000010    0.00000013   -0.00000008
     atom   10 type  2   force =     0.00000008   -0.00000000    0.00000006
     atom   11 type  2   force =     0.00000013   -0.00000006    0.00000003
     atom   12 type  2   force =     0.00000009   -0.00000005   -0.00000001
     atom   13 type  2   force =     0.00000012   -0.00000008    0.00000003
     atom   14 type  2   force =     0.00000006   -0.00000012   -0.00000002
     atom   15 type  2   force =     0.00000003    0.00000002    0.00000003
     atom   16 type  2   force =    -0.00000009    0.00000009    0.00000009
     atom   17 type  2   force =     0.00000001    0.00000016    0.00000003
     atom   18 type  2   force =    -0.00000003    0.00000017   -0.00000020
     atom   19 type  2   force =     0.00000005    0.00000011   -0.00000010
     atom   20 type  2   force =     0.00000005   -0.00000003   -0.00000001
     atom   21 type  2   force =     0.00000010   -0.00000006    0.00000012
     atom   22 type  2   force =     0.00000004   -0.00000007    0.00000006
     atom   23 type  2   force =    -0.00000006   -0.00000015   -0.00000008
     atom   24 type  2   force =    -0.00000002   -0.00000016   -0.00000011
     atom   25 type  2   force =    -0.00000005   -0.00000005   -0.00000004
     atom   26 type  2   force =    -0.00000006   -0.00000002    0.00000003
     atom   27 type  2   force =     0.00000001    0.00000001    0.00000003
     atom   28 type  3   force =    -0.00000054    0.00000031   -0.00000042
     atom   29 type  2   force =    -0.00000032    0.00000019   -0.00000006
     atom   30 type  2   force =    -0.00000016   -0.00000006   -0.00000020
     atom   31 type  2   force =    -0.00000007   -0.00000010   -0.00000010
     atom   32 type  2   force =    -0.00000010   -0.00000016   -0.00000004
     atom   33 type  2   force =    -0.00000012   -0.00000013    0.00000002
     atom   34 type  2   force =    -0.00000014   -0.00000008   -0.00000002
     atom   35 type  2   force =    -0.00000004   -0.00000009   -0.00000003
     atom   36 type  2   force =    -0.00000004    0.00000002    0.00000007
     atom   37 type  2   force =    -0.00000005    0.00000003    0.00000007
     atom   38 type  2   force =    -0.00000001    0.00000006    0.00000003
     atom   39 type  2   force =    -0.00000000   -0.00000002    0.00000003
     atom   40 type  2   force =    -0.00000013    0.00000003    0.00000009
     atom   41 type  2   force =    -0.00000013   -0.00000009    0.00000003
     atom   42 type  2   force =    -0.00000014   -0.00000018    0.00000007
     atom   43 type  2   force =    -0.00000003   -0.00000005    0.00000002
     atom   44 type  2   force =     0.00000007   -0.00000004    0.00000004
     atom   45 type  2   force =    -0.00000005    0.00000003   -0.00000008
     atom   46 type  2   force =    -0.00000000    0.00000016   -0.00000002
     atom   47 type  2   force =     0.00000006    0.00000008   -0.00000003
     atom   48 type  2   force =     0.00000013    0.00000010   -0.00000011
     atom   49 type  2   force =     0.00000002    0.00000007   -0.00000004
     atom   50 type  2   force =     0.00000013    0.00000001   -0.00000002
     atom   51 type  2   force =    -0.00000001   -0.00000003    0.00000003
     atom   52 type  2   force =     0.00000005   -0.00000006   -0.00000001

     Total force =     0.015995     Total SCF correction =     0.000001

     number of scf cycles    =  50
     number of bfgs steps    =  49

     energy   old            =    -826.7202957194 Ry
     energy   new            =    -826.7207976721 Ry

     CASE: energy  _new < energy  _old

     new trust radius        =       0.0225577301 bohr
     new conv_thr            =            4.4E-12 Ry

ATOMIC_POSITIONS (angstrom)
H        3.596811592   5.040080303   2.653045128
H        3.913029613   4.857511743   3.306541036
C       -0.002512690   0.001450702   0.152216046
C       -0.006508688   1.421962341   0.118553632
C       -1.237382580   2.134766532   0.128921697
C       -1.235858449   3.558766768   0.066239370
C       -2.469824599   4.269051586   0.122408362
C       -2.473106365   5.691043914   0.133297740
C       -3.700890054   6.404673203   0.172090172
C       -3.700712585   7.828267405   0.184928767
C       -4.931697004   8.541465501   0.164240736
C       -4.933010749   9.964775527   0.169938558
C        2.463512138   0.000242139   0.164240736
C        2.463795045   1.419245038   0.072001864
C        1.225100019   2.124773991   0.027367043
C        1.218624840   3.538982165  -0.149109214
C       -0.015150080   4.264739077  -0.095809087
C       -0.030503422   5.696702597  -0.144522449
C       -1.249619326   6.407837553   0.047165150
C       -1.240648754   7.832989336   0.097254803
C       -2.469030461   8.542195844   0.181323526
C       -2.466591358   9.965828074   0.184928767
C        4.929432027   0.002728202   0.172090172
C        4.934679997   1.422425034   0.118382567
C        3.702267005   2.124909345   0.026705071
C        3.708980501   3.536480360  -0.165186884
C        2.463454936   4.169979978  -0.381918828
Mn       2.455558025   5.698983357  -1.408654903
C        1.135600269   6.461061322  -0.379140723
C        1.214502498   7.853116105  -0.144522449
C       -0.010916392   8.553333969   0.047165150
C       -0.001898411   9.971301646   0.133297740
C        7.394467327   0.004405053   0.122408362
C        7.397416605   1.425833117   0.140502115
C        6.165774014   2.133847055   0.097035341
C        6.165258343   3.557186880   0.024556440
C        4.944117156   4.262213072  -0.128891787
C        4.955051794   5.694739149  -0.165186884
C        3.783662249   6.456646120  -0.381918828
C        3.707707337   7.850199514  -0.149109214
C        2.462295954   8.555801481  -0.095809087
C        2.463331723   9.965952094   0.066239370
C        9.859033412   0.004221482   0.128921697
C        9.857228372   1.425626990   0.164861282
C        8.627484267   2.135620079   0.152436282
C        8.627143977   3.555783405   0.140502115
C        7.398164625   4.268410207   0.097035341
C        7.398727159   5.690279912   0.118382567
C        6.174151404   6.406338715   0.026705071
C        6.166038641   7.831719048   0.072001864
C        4.935685131   8.551695930   0.027367043
C        4.928533521   9.969706185   0.118553632

     Writing output data file manganeso-sixhollow-2.8.save/
     NEW-OLD atomic charge density approx. for the potential

     Check: negative core charge=   -0.000002

     negative rho (up, down):  5.308E-04 9.202E-03

     Writing output data file manganeso-sixhollow-2.8.save/

     General routines

     Parallel routines

   This run was terminated on:  19:55: 6  12Feb2023

   JOB DONE.