     Program PWSCF v.6.4.1 starts on 25Aug2022 at  0:10:21

     R & G space division:  proc/nbgrp/npool/nimage =       6
     Reading input from distance-3.5.in

     Current dimensions of program PWSCF are:
     Max number of different atomic species (ntypx) = 10
     Max number of k-points (npk) =  40000
     Max angular momentum in pseudopotentials (lmaxx) =  3

     IMPORTANT: XC functional enforced from input :
     Exchange-correlation      = RVV10 ( 1  4 13  4 3 0)
     Any further DFT definition will be discarded
     Please, verify this is what you really want

               file H.pbe-rrkjus.UPF: wavefunction(s)  1S renormalized

     Subspace diagonalization in iterative solution of the eigenvalue problem:
     a serial algorithm will be used

     bravais-lattice index     =            4
     lattice parameter (alat)  =      23.2937  a.u.
     unit-cell volume          =    8879.8548 (a.u.)^3
     number of atoms/cell      =           52
     number of atomic types    =            3
     number of electrons       =       214.00
     number of Kohn-Sham states=          128
     kinetic-energy cutoff     =      70.0000  Ry
     charge density cutoff     =     490.0000  Ry
     convergence threshold     =      1.0E-06
     mixing beta               =       0.7000
     number of iterations used =            8  plain     mixing
     Exchange-correlation      = RVV10 ( 1  4 13  4 3 0)

     celldm(1)=  23.293684  celldm(2)=   0.000000  celldm(3)=   0.811261
     celldm(4)=   0.000000  celldm(5)=   0.000000  celldm(6)=   0.000000

     crystal axes: (cart. coord. in units of alat)
               a(1) = (   1.000000   0.000000   0.000000 )
               a(2) = (  -0.500000   0.866025   0.000000 )
               a(3) = (   0.000000   0.000000   0.811261 )

     reciprocal axes: (cart. coord. in units 2 pi/alat)
               b(1) = (  1.000000  0.577350 -0.000000 )
               b(2) = (  0.000000  1.154701  0.000000 )
               b(3) = (  0.000000 -0.000000  1.232649 )

     PseudoPot. # 1 for H  read from file:
     /home/cristian/Escritorio/Proyecto_Grafeno/pseudopotenciales/H.pbe-rrkjus.UPF
     MD5 check sum: 7cc9d459525c9a0585f487a71c3c9563
     Pseudo is Ultrasoft, Zval =  1.0
     Generated by new atomic code, or converted to UPF format
     Using radial grid of 1061 points,  2 beta functions with:
                l(1) =   0
                l(2) =   0
     Q(r) pseudized with 0 coefficients

     PseudoPot. # 2 for C  read from file:
     /home/cristian/Escritorio/Proyecto_Grafeno/pseudopotenciales/C.pbe-n-rrkjus_psl.1.0.0.UPF
     MD5 check sum: 1fdd950c42eb37d8afe3dd2f8d12311e
     Pseudo is Ultrasoft + core correction, Zval =  4.0
     Generated using "atomic" code by A. Dal Corso v.6.3MaX
     Using radial grid of 1073 points,  4 beta functions with:
                l(1) =   0
                l(2) =   0
                l(3) =   1
                l(4) =   1
     Q(r) pseudized with 0 coefficients

     PseudoPot. # 3 for Fe read from file:
     /home/cristian/Escritorio/Proyecto_Grafeno/pseudopotenciales/Fe.pbe-spn-rrkjus_psl.1.0.0.UPF
     MD5 check sum: 72ea77fed8e64ab3a2ccf2804dfc1862
     Pseudo is Ultrasoft + core correction, Zval = 16.0
     Generated using "atomic" code by A. Dal Corso v.6.3
     Using radial grid of 1191 points,  6 beta functions with:
                l(1) =   0
                l(2) =   0
                l(3) =   1
                l(4) =   1
                l(5) =   2
                l(6) =   2
     Q(r) pseudized with 0 coefficients

     vdW kernel table read from file rVV10_kernel_table
     MD5 check sum: b8e2538accc0c0b3206b45ba4daaba6c

     atomic species   valence    mass     pseudopotential
        H              1.00     1.00794     H ( 1.00)
        C              4.00    12.01070     C ( 1.00)
        Fe            16.00    55.84500     Fe( 1.00)

     Starting magnetic structure
     atomic species   magnetization
        H            0.500
        C            0.300
        Fe           0.800

      2 Sym. Ops. (no inversion) found

                                    s                        frac. trans.

      isym =  1     identity

 cryst.   s( 1) = (     1          0          0      )
                  (     0          1          0      )
                  (     0          0          1      )

 cart.    s( 1) = (  1.0000000  0.0000000  0.0000000 )
                  (  0.0000000  1.0000000  0.0000000 )
                  (  0.0000000  0.0000000  1.0000000 )

      isym =  2     inv. 180 deg rotation - cryst. axis [1,1,0]

 cryst.   s( 2) = (     0         -1          0      )
                  (    -1          0          0      )
                  (     0          0          1      )

 cart.    s( 2) = (  0.5000000 -0.8660254  0.0000000 )
                  ( -0.8660254 -0.5000000  0.0000000 )
                  (  0.0000000  0.0000000  1.0000000 )

     point group C_s (m)
     there are  2 classes
     the character table:

       E     s
A'     1.00  1.00
A''    1.00 -1.00

     the symmetry operations in each class and the name of the first element:

     E        1
          identity
     s        2
          inv. 180 deg rotation - cryst. axis [1,1,0]

   Cartesian axes

     site n.     atom                  positions (alat units)
         1           H   tau(   1) = (   0.2000000   0.4618802   0.2839414  )
         2           H   tau(   2) = (   0.2000000   0.4618802   0.3449541  )
         3           C   tau(   3) = (   0.0000000   0.0000000   0.0000000  )
         4           C   tau(   4) = (   0.0000000   0.1154701   0.0000000  )
         5           C   tau(   5) = (  -0.1000000   0.1732051   0.0000000  )
         6           C   tau(   6) = (  -0.1000000   0.2886751   0.0000000  )
         7           C   tau(   7) = (  -0.2000000   0.3464102   0.0000000  )
         8           C   tau(   8) = (  -0.2000000   0.4618802   0.0000000  )
         9           C   tau(   9) = (  -0.3000000   0.5196152   0.0000000  )
        10           C   tau(  10) = (  -0.3000000   0.6350853   0.0000000  )
        11           C   tau(  11) = (  -0.4000000   0.6928203   0.0000000  )
        12           C   tau(  12) = (  -0.4000000   0.8082904   0.0000000  )
        13           C   tau(  13) = (   0.2000000   0.0000000   0.0000000  )
        14           C   tau(  14) = (   0.2000000   0.1154701   0.0000000  )
        15           C   tau(  15) = (   0.1000000   0.1732051   0.0000000  )
        16           C   tau(  16) = (   0.1000000   0.2886751   0.0000000  )
        17           C   tau(  17) = (   0.0000000   0.3464102   0.0000000  )
        18           C   tau(  18) = (   0.0000000   0.4618802   0.0000000  )
        19           C   tau(  19) = (  -0.1000000   0.5196152   0.0000000  )
        20           C   tau(  20) = (  -0.1000000   0.6350853   0.0000000  )
        21           C   tau(  21) = (  -0.2000000   0.6928203   0.0000000  )
        22           C   tau(  22) = (  -0.2000000   0.8082904   0.0000000  )
        23           C   tau(  23) = (   0.4000000   0.0000000   0.0000000  )
        24           C   tau(  24) = (   0.4000000   0.1154701   0.0000000  )
        25           C   tau(  25) = (   0.3000000   0.1732051   0.0000000  )
        26           C   tau(  26) = (   0.3000000   0.2886751   0.0000000  )
        27           C   tau(  27) = (   0.2000000   0.3464102   0.0000000  )
        28           Fe  tau(  28) = (   0.2000000   0.4618802   0.0000000  )
        29           C   tau(  29) = (   0.1000000   0.5196152   0.0000000  )
        30           C   tau(  30) = (   0.1000000   0.6350853   0.0000000  )
        31           C   tau(  31) = (   0.0000000   0.6928203   0.0000000  )
        32           C   tau(  32) = (   0.0000000   0.8082904   0.0000000  )
        33           C   tau(  33) = (   0.6000000   0.0000000   0.0000000  )
        34           C   tau(  34) = (   0.6000000   0.1154701   0.0000000  )
        35           C   tau(  35) = (   0.5000000   0.1732051   0.0000000  )
        36           C   tau(  36) = (   0.5000000   0.2886751   0.0000000  )
        37           C   tau(  37) = (   0.4000000   0.3464102   0.0000000  )
        38           C   tau(  38) = (   0.4000000   0.4618802   0.0000000  )
        39           C   tau(  39) = (   0.3000000   0.5196152   0.0000000  )
        40           C   tau(  40) = (   0.3000000   0.6350853   0.0000000  )
        41           C   tau(  41) = (   0.2000000   0.6928203   0.0000000  )
        42           C   tau(  42) = (   0.2000000   0.8082904   0.0000000  )
        43           C   tau(  43) = (   0.8000000   0.0000000   0.0000000  )
        44           C   tau(  44) = (   0.8000000   0.1154701   0.0000000  )
        45           C   tau(  45) = (   0.7000000   0.1732051   0.0000000  )
        46           C   tau(  46) = (   0.7000000   0.2886751   0.0000000  )
        47           C   tau(  47) = (   0.6000000   0.3464102   0.0000000  )
        48           C   tau(  48) = (   0.6000000   0.4618802   0.0000000  )
        49           C   tau(  49) = (   0.5000000   0.5196152   0.0000000  )
        50           C   tau(  50) = (   0.5000000   0.6350853   0.0000000  )
        51           C   tau(  51) = (   0.4000000   0.6928203   0.0000000  )
        52           C   tau(  52) = (   0.4000000   0.8082904   0.0000000  )

   Crystallographic axes

     site n.     atom                  positions (cryst. coord.)
         1           H   tau(   1) = (  0.4666667  0.5333333  0.3500000  )
         2           H   tau(   2) = (  0.4666667  0.5333333  0.4252072  )
         3           C   tau(   3) = (  0.0000000  0.0000000  0.0000000  )
         4           C   tau(   4) = (  0.0666667  0.1333333  0.0000000  )
         5           C   tau(   5) = (  0.0000000  0.2000000  0.0000000  )
         6           C   tau(   6) = (  0.0666667  0.3333333  0.0000000  )
         7           C   tau(   7) = (  0.0000000  0.4000000  0.0000000  )
         8           C   tau(   8) = (  0.0666667  0.5333333  0.0000000  )
         9           C   tau(   9) = (  0.0000000  0.6000000  0.0000000  )
        10           C   tau(  10) = (  0.0666667  0.7333333  0.0000000  )
        11           C   tau(  11) = (  0.0000000  0.8000000  0.0000000  )
        12           C   tau(  12) = (  0.0666667  0.9333333  0.0000000  )
        13           C   tau(  13) = (  0.2000000  0.0000000  0.0000000  )
        14           C   tau(  14) = (  0.2666667  0.1333333  0.0000000  )
        15           C   tau(  15) = (  0.2000000  0.2000000  0.0000000  )
        16           C   tau(  16) = (  0.2666667  0.3333333  0.0000000  )
        17           C   tau(  17) = (  0.2000000  0.4000000  0.0000000  )
        18           C   tau(  18) = (  0.2666667  0.5333333  0.0000000  )
        19           C   tau(  19) = (  0.2000000  0.6000000  0.0000000  )
        20           C   tau(  20) = (  0.2666667  0.7333333  0.0000000  )
        21           C   tau(  21) = (  0.2000000  0.8000000  0.0000000  )
        22           C   tau(  22) = (  0.2666667  0.9333333  0.0000000  )
        23           C   tau(  23) = (  0.4000000  0.0000000  0.0000000  )
        24           C   tau(  24) = (  0.4666667  0.1333333  0.0000000  )
        25           C   tau(  25) = (  0.4000000  0.2000000  0.0000000  )
        26           C   tau(  26) = (  0.4666667  0.3333333  0.0000000  )
        27           C   tau(  27) = (  0.4000000  0.4000000  0.0000000  )
        28           Fe  tau(  28) = (  0.4666667  0.5333333  0.0000000  )
        29           C   tau(  29) = (  0.4000000  0.6000000  0.0000000  )
        30           C   tau(  30) = (  0.4666667  0.7333333  0.0000000  )
        31           C   tau(  31) = (  0.4000000  0.8000000  0.0000000  )
        32           C   tau(  32) = (  0.4666667  0.9333333  0.0000000  )
        33           C   tau(  33) = (  0.6000000  0.0000000  0.0000000  )
        34           C   tau(  34) = (  0.6666667  0.1333333  0.0000000  )
        35           C   tau(  35) = (  0.6000000  0.2000000  0.0000000  )
        36           C   tau(  36) = (  0.6666667  0.3333333  0.0000000  )
        37           C   tau(  37) = (  0.6000000  0.4000000  0.0000000  )
        38           C   tau(  38) = (  0.6666667  0.5333333  0.0000000  )
        39           C   tau(  39) = (  0.6000000  0.6000000  0.0000000  )
        40           C   tau(  40) = (  0.6666667  0.7333333  0.0000000  )
        41           C   tau(  41) = (  0.6000000  0.8000000  0.0000000  )
        42           C   tau(  42) = (  0.6666667  0.9333333  0.0000000  )
        43           C   tau(  43) = (  0.8000000  0.0000000  0.0000000  )
        44           C   tau(  44) = (  0.8666667  0.1333333  0.0000000  )
        45           C   tau(  45) = (  0.8000000  0.2000000  0.0000000  )
        46           C   tau(  46) = (  0.8666667  0.3333333  0.0000000  )
        47           C   tau(  47) = (  0.8000000  0.4000000  0.0000000  )
        48           C   tau(  48) = (  0.8666667  0.5333333  0.0000000  )
        49           C   tau(  49) = (  0.8000000  0.6000000  0.0000000  )
        50           C   tau(  50) = (  0.8666667  0.7333333  0.0000000  )
        51           C   tau(  51) = (  0.8000000  0.8000000  0.0000000  )
        52           C   tau(  52) = (  0.8666667  0.9333333  0.0000000  )

     number of k points=     1  Marzari-Vanderbilt smearing, width (Ry)=  0.0010
                       cart. coord. in units 2pi/alat
        k(    1) = (   0.0000000   0.0000000   0.0000000), wk =   1.0000000

                       cryst. coord.
        k(    1) = (   0.0000000   0.0000000   0.0000000), wk =   1.0000000

     Check: negative core charge=   -0.000002

     Initial potential from superposition of free atoms

     starting charge  213.80512, renormalised to  214.00000

     negative rho (up, down):  5.784E-05 1.002E-02

Carrying out rVV10 run using the following parameters:
Nqs =      20    Nr_points =    1024   r_max =   100.000
b_value =  6.30000    beta =  0.00901
     q_mesh =  0.00010000  0.00030000  0.00058939  0.00100810
               0.00161396  0.00249058  0.00375900  0.00559430
               0.00824984  0.01209221  0.01765183  0.02569619
               0.03733578  0.05417739  0.07854596  0.11380545
               0.16482331  0.23864234  0.34545298  0.50000000

Gradients computed in Reciprocal space

     Starting wfcs are  208 randomized atomic wfcs

     Self-consistent Calculation

     iteration #  1     ecut=    70.00 Ry     beta= 0.70
     Davidson diagonalization with overlap
     ethr =  1.00E-02,  avg # of iterations =  4.0

[...]

     total energy              =    -857.47391963 Ry
     Harris-Foulkes estimate   =    -858.62550200 Ry
     estimated scf accuracy    <      10.08885259 Ry

     total magnetization       =     6.00 Bohr mag/cell
     absolute magnetization    =     6.66 Bohr mag/cell

[...]

     total energy              =    -860.05570564 Ry
     Harris-Foulkes estimate   =    -860.05570648 Ry
     estimated scf accuracy    <       0.00000168 Ry

[...]

     iteration # 89     ecut=    70.00 Ry     beta= 0.70
     Davidson diagonalization with overlap
     ethr =  5.44E-10,  avg # of iterations =  3.0

     negative rho (up, down):  5.655E-04 1.028E-02

     Magnetic moment per site:
     atom:    1    charge:    0.2100    magn:    0.0000    constr:    0.0000
     atom:    2    charge:    0.2123    magn:    0.0000    constr:    0.0000
     atom:    3    charge:    1.7168    magn:   -0.0122    constr:    0.0000
     atom:    4    charge:    1.7154    magn:    0.0163    constr:    0.0000
     atom:    5    charge:    1.7176    magn:   -0.0089    constr:    0.0000
     atom:    6    charge:    1.7142    magn:    0.0056    constr:    0.0000
     atom:    7    charge:    1.7176    magn:   -0.0089    constr:    0.0000
     atom:    8    charge:    1.7152    magn:    0.0178    constr:    0.0000
     atom:    9    charge:    1.7171    magn:   -0.0127    constr:    0.0000
     atom:   10    charge:    1.7149    magn:    0.0571    constr:    0.0000
     atom:   11    charge:    1.7173    magn:   -0.0163    constr:    0.0000
     atom:   12    charge:    1.7156    magn:    0.0516    constr:    0.0000
     atom:   13    charge:    1.7173    magn:   -0.0163    constr:    0.0000
     atom:   14    charge:    1.7155    magn:    0.0445    constr:    0.0000
     atom:   15    charge:    1.7138    magn:   -0.0127    constr:    0.0000
     atom:   16    charge:    1.7113    magn:    0.0507    constr:    0.0000
     atom:   17    charge:    1.7225    magn:   -0.0129    constr:    0.0000
     atom:   18    charge:    1.7115    magn:    0.0490    constr:    0.0000
     atom:   19    charge:    1.7137    magn:   -0.0120    constr:    0.0000
     atom:   20    charge:    1.7161    magn:    0.0397    constr:    0.0000
     atom:   21    charge:    1.7174    magn:   -0.0163    constr:    0.0000
     atom:   22    charge:    1.7149    magn:    0.0571    constr:    0.0000
     atom:   23    charge:    1.7171    magn:   -0.0127    constr:    0.0000
     atom:   24    charge:    1.7154    magn:    0.0171    constr:    0.0000
     atom:   25    charge:    1.7139    magn:   -0.0126    constr:    0.0000
     atom:   26    charge:    1.7108    magn:    0.0552    constr:    0.0000
     atom:   27    charge:    1.8520    magn:   -0.0199    constr:    0.0000
     atom:   28    charge:   11.1451    magn:    0.4749    constr:    0.0000
     atom:   29    charge:    1.8516    magn:   -0.0196    constr:    0.0000
     atom:   30    charge:    1.7115    magn:    0.0490    constr:    0.0000
     atom:   31    charge:    1.7137    magn:   -0.0120    constr:    0.0000
     atom:   32    charge:    1.7152    magn:    0.0178    constr:    0.0000
     atom:   33    charge:    1.7176    magn:   -0.0089    constr:    0.0000
     atom:   34    charge:    1.7140    magn:    0.0126    constr:    0.0000
     atom:   35    charge:    1.7176    magn:   -0.0090    constr:    0.0000
     atom:   36    charge:    1.7142    magn:    0.0057    constr:    0.0000
     atom:   37    charge:    1.7229    magn:   -0.0140    constr:    0.0000
     atom:   38    charge:    1.7108    magn:    0.0552    constr:    0.0000
     atom:   39    charge:    1.8520    magn:   -0.0199    constr:    0.0000
     atom:   40    charge:    1.7113    magn:    0.0507    constr:    0.0000
     atom:   41    charge:    1.7225    magn:   -0.0129    constr:    0.0000
     atom:   42    charge:    1.7142    magn:    0.0056    constr:    0.0000
     atom:   43    charge:    1.7176    magn:   -0.0089    constr:    0.0000
     atom:   44    charge:    1.7141    magn:    0.0118    constr:    0.0000
     atom:   45    charge:    1.7234    magn:   -0.0086    constr:    0.0000
     atom:   46    charge:    1.7140    magn:    0.0126    constr:    0.0000
     atom:   47    charge:    1.7176    magn:   -0.0090    constr:    0.0000
     atom:   48    charge:    1.7154    magn:    0.0171    constr:    0.0000
     atom:   49    charge:    1.7139    magn:   -0.0126    constr:    0.0000
     atom:   50    charge:    1.7155    magn:    0.0445    constr:    0.0000
     atom:   51    charge:    1.7138    magn:   -0.0127    constr:    0.0000
     atom:   52    charge:    1.7154    magn:    0.0163    constr:    0.0000

     End of self-consistent calculation

 ------ SPIN UP ------------

          k = 0.0000 0.0000 0.0000 ( 87777 PWs)   bands (ev):

   -88.8201 -55.7109 -55.6691 -54.0332 -19.8706 -19.0419 -19.0297 -18.9462
   -18.9181 -18.9142 -18.5809 -17.1695 -17.1615 -17.1608 -17.0943 -17.0902
   -16.7852 -16.3190 -16.3171 -16.2137 -16.1679 -16.1677 -15.4839 -14.2302
   -14.2174 -14.1363 -14.0857 -14.0836 -13.4240 -13.1539 -13.1508 -13.1258
   -12.8506 -12.8499 -12.4378 -11.9359 -11.9347 -11.7423 -11.4995 -11.4979
   -10.6241  -9.8007  -9.7980  -9.5237  -9.4068  -9.4056  -9.3211  -9.2905
    -9.2901  -9.2775  -8.8182  -8.8178  -8.2859  -8.2834  -8.1868  -8.0181
    -7.9243  -7.5340  -7.5315  -7.3406  -7.2320  -7.2230  -7.0782  -7.0781
    -6.9250  -6.9097  -6.9047  -6.8036  -6.6557  -6.6505  -6.6248  -6.6138
    -6.6109  -6.5939  -6.5661  -6.2567  -5.7425  -5.7392  -5.7094  -5.6955
    -5.4762  -5.4741  -5.3314  -5.0778  -4.9695  -4.8299  -4.8025  -4.7986
    -4.5494  -4.5449  -4.4890  -4.3317  -4.3229  -3.9619  -3.9618  -3.8738
    -3.7725  -3.7714  -3.2118  -2.9107  -2.9032  -1.9605  -1.8920  -1.8901
    -1.3400  -1.3166  -1.2034  -0.9022   0.8356   0.8822   0.8839   1.3967
     1.4070   1.5161   2.3277   2.3286   2.5291   2.6806   2.6826   2.7786
     3.2942   3.3025   3.4230   3.6642   3.6665   3.7339   3.7444   3.7448

     occupation numbers
     1.0000   1.0000   1.0000   1.0000   1.0000   1.0000   1.0000   1.0000
     1.0000   1.0000   1.0000   1.0000   1.0000   1.0000   1.0000   1.0000
     1.0000   1.0000   1.0000   1.0000   1.0000   1.0000   1.0000   1.0000
     1.0000   1.0000   1.0000   1.0000   1.0000   1.0000   1.0000   1.0000
     1.0000   1.0000   1.0000   1.0000   1.0000   1.0000   1.0000   1.0000
     1.0000   1.0000   1.0000   1.0000   1.0000   1.0000   1.0000   1.0000
     1.0000   1.0000   1.0000   1.0000   1.0000   1.0000   1.0000   1.0000
     1.0000   1.0000   1.0000   1.0000   1.0000   1.0000   1.0000   1.0000
     1.0000   1.0000   1.0000   1.0000   1.0000   1.0000   1.0000   1.0000
     1.0000   1.0000   1.0000   1.0000   1.0000   1.0000   1.0000   1.0000
     1.0000   1.0000   1.0000   1.0000   1.0000   1.0000   1.0000   1.0000
     1.0000   1.0000   1.0000   1.0000   1.0000   1.0000   1.0000   1.0000
     1.0000   1.0000   1.0000   1.0000   1.0000   1.0000   1.0000   1.0000
     1.0000   1.0000   1.0000   0.9756   0.0000   0.0000   0.0000   0.0000
     0.0000   0.0000   0.0000   0.0000   0.0000   0.0000   0.0000   0.0000
     0.0000   0.0000   0.0000   0.0000   0.0000   0.0000   0.0000   0.0000

 ------ SPIN DOWN ----------

          k = 0.0000 0.0000 0.0000 ( 87777 PWs)   bands (ev):

   -88.0634 -55.0811 -55.0688 -53.0893 -19.8320 -18.9967 -18.9867 -18.9099
   -18.8952 -18.8911 -18.5268 -17.1378 -17.1322 -17.1289 -17.0442 -17.0413
   -16.7578 -16.2761 -16.2756 -16.1839 -16.1277 -16.1275 -15.4608 -14.1612
   -14.1537 -14.0796 -14.0764 -14.0734 -13.4340 -13.1296 -13.1277 -13.0964
   -12.8327 -12.8321 -12.4086 -11.9009 -11.8990 -11.7218 -11.4782 -11.4779
   -10.6015  -9.7505  -9.7489  -9.4937  -9.3769  -9.3767  -9.3052  -9.2690
    -9.2685  -9.2614  -8.8061  -8.8056  -8.2491  -8.2466  -8.1661  -7.9289
    -7.9084  -7.5208  -7.5179  -7.3076  -7.0706  -7.0677  -7.0306  -7.0300
    -6.8546  -6.8529  -6.8333  -6.7893  -6.6399  -6.6354  -6.6149  -6.6014
    -6.5987  -6.5497  -6.4783  -6.2484  -5.6913  -5.6890  -5.4754  -5.4752
    -5.4335  -5.4320  -5.2233  -5.0646  -4.9609  -4.7595  -4.7183  -4.7176
    -4.4662  -4.4621  -4.4216  -4.2087  -4.2078  -3.8389  -3.8375  -3.7891
    -3.7585  -3.7574  -3.1717  -2.6846  -2.6813  -1.8668  -1.8649  -1.8138
    -0.9322  -0.9209  -0.8232  -0.8053   0.9254   0.9276   0.9785   1.5486
     1.5492   1.6314   2.4863   2.4864   2.5417   2.8097   2.8117   2.8429
     3.4478   3.4479   3.5099   3.6815   3.6823   3.7441   3.7491   3.7495

     occupation numbers
     1.0000   1.0000   1.0000   1.0000   1.0000   1.0000   1.0000   1.0000
     1.0000   1.0000   1.0000   1.0000   1.0000   1.0000   1.0000   1.0000
     1.0000   1.0000   1.0000   1.0000   1.0000   1.0000   1.0000   1.0000
     1.0000   1.0000   1.0000   1.0000   1.0000   1.0000   1.0000   1.0000
     1.0000   1.0000   1.0000   1.0000   1.0000   1.0000   1.0000   1.0000
     1.0000   1.0000   1.0000   1.0000   1.0000   1.0000   1.0000   1.0000
     1.0000   1.0000   1.0000   1.0000   1.0000   1.0000   1.0000   1.0000
     1.0000   1.0000   1.0000   1.0000   1.0000   1.0000   1.0000   1.0000
     1.0000   1.0000   1.0000   1.0000   1.0000   1.0000   1.0000   1.0000
     1.0000   1.0000   1.0000   1.0000   1.0000   1.0000   1.0000   1.0000
     1.0000   1.0000   1.0000   1.0000   1.0000   1.0000   1.0000   1.0000
     1.0000   1.0000   1.0000   1.0000   1.0000   1.0000   1.0000   1.0000
     1.0000   1.0000   1.0000   1.0000   1.0000   1.0000   1.0000   1.0000
     1.0011   1.0233   0.0000   0.0000   0.0000   0.0000   0.0000   0.0000
     0.0000   0.0000   0.0000   0.0000   0.0000   0.0000   0.0000   0.0000
     0.0000   0.0000   0.0000   0.0000   0.0000   0.0000   0.0000   0.0000

     the Fermi energy is    -0.8905 ev

!    total energy              =    -860.05570611 Ry
     Harris-Foulkes estimate   =    -860.05570623 Ry
     estimated scf accuracy    <       0.00000035 Ry

     The total energy is the sum of the following terms:

     one-electron contribution =   -2784.85500362 Ry
     hartree contribution      =    1436.23422481 Ry
     xc contribution           =    -259.31052583 Ry
     ewald contribution        =     747.87547600 Ry
     smearing contrib. (-TS)   =       0.00012253 Ry

     total magnetization       =     1.95 Bohr mag/cell
     absolute magnetization    =     3.13 Bohr mag/cell

     convergence has been achieved in  89 iterations

     Writing output data file distance-3.5.save/

     General routines

     Parallel routines

   This run was terminated on:   2:46:51  25Aug2022

   JOB DONE.