     Program PWSCF v.6.4.1 starts on 28Aug2022 at  1:34:52

     R & G space division:  proc/nbgrp/npool/nimage =       6
     Reading input from distance-2.8.in

     Current dimensions of program PWSCF are:
     Max number of different atomic species (ntypx) = 10
     Max number of k-points (npk) =  40000
     Max angular momentum in pseudopotentials (lmaxx) =  3

     IMPORTANT: XC functional enforced from input :
     Exchange-correlation      = RVV10 ( 1  4 13  4 3 0)
     Any further DFT definition will be discarded
     Please, verify this is what you really want

               file H.pbe-rrkjus.UPF: wavefunction(s)  1S renormalized

     Subspace diagonalization in iterative solution of the eigenvalue problem:
     a serial algorithm will be used

     bravais-lattice index     =            4
     lattice parameter (alat)  =      23.2937  a.u.
     unit-cell volume          =    8879.8548 (a.u.)^3
     number of atoms/cell      =           52
     number of atomic types    =            3
     number of electrons       =       214.00
     number of Kohn-Sham states=          128
     kinetic-energy cutoff     =      70.0000  Ry
     charge density cutoff     =     490.0000  Ry
     convergence threshold     =      1.0E-06
     mixing beta               =       0.7000
     number of iterations used =            8  plain     mixing
     Exchange-correlation      = RVV10 ( 1  4 13  4 3 0)

     celldm(1)=  23.293684  celldm(2)=   0.000000  celldm(3)=   0.811261
     celldm(4)=   0.000000  celldm(5)=   0.000000  celldm(6)=   0.000000

     crystal axes: (cart. coord. in units of alat)
               a(1) = (   1.000000   0.000000   0.000000 )
               a(2) = (  -0.500000   0.866025   0.000000 )
               a(3) = (   0.000000   0.000000   0.811261 )

     reciprocal axes: (cart. coord. in units 2 pi/alat)
               b(1) = (  1.000000  0.577350 -0.000000 )
               b(2) = (  0.000000  1.154701  0.000000 )
               b(3) = (  0.000000 -0.000000  1.232649 )

     PseudoPot. # 1 for H  read from file:
     /home/cristian/Escritorio/Proyecto_Grafeno/pseudopotenciales/H.pbe-rrkjus.UPF
     MD5 check sum: 7cc9d459525c9a0585f487a71c3c9563
     Pseudo is Ultrasoft, Zval =  1.0
     Generated by new atomic code, or converted to UPF format
     Using radial grid of 1061 points,  2 beta functions with:
                l(1) =   0
                l(2) =   0
     Q(r) pseudized with 0 coefficients

     PseudoPot. # 2 for C  read from file:
     /home/cristian/Escritorio/Proyecto_Grafeno/pseudopotenciales/C.pbe-n-rrkjus_psl.1.0.0.UPF
     MD5 check sum: 1fdd950c42eb37d8afe3dd2f8d12311e
     Pseudo is Ultrasoft + core correction, Zval =  4.0
     Generated using "atomic" code by A. Dal Corso v.6.3MaX
     Using radial grid of 1073 points,  4 beta functions with:
                l(1) =   0
                l(2) =   0
                l(3) =   1
                l(4) =   1
     Q(r) pseudized with 0 coefficients

     PseudoPot. # 3 for Fe read from file:
     /home/cristian/Escritorio/Proyecto_Grafeno/pseudopotenciales/Fe.pbe-spn-rrkjus_psl.1.0.0.UPF
     MD5 check sum: 72ea77fed8e64ab3a2ccf2804dfc1862
     Pseudo is Ultrasoft + core correction, Zval = 16.0
     Generated using "atomic" code by A. Dal Corso v.6.3
     Using radial grid of 1191 points,  6 beta functions with:
                l(1) =   0
                l(2) =   0
                l(3) =   1
                l(4) =   1
                l(5) =   2
                l(6) =   2
     Q(r) pseudized with 0 coefficients

     vdW kernel table read from file rVV10_kernel_table
     MD5 check sum: b8e2538accc0c0b3206b45ba4daaba6c

     atomic species   valence    mass     pseudopotential
        H              1.00     1.00794     H ( 1.00)
        C              4.00    12.01070     C ( 1.00)
        Fe            16.00    55.84500     Fe( 1.00)

     Starting magnetic structure
     atomic species   magnetization
        H            0.500
        C            0.300
        Fe           0.800

      2 Sym. Ops. (no inversion) found

                                    s                        frac. trans.

      isym =  1     identity

 cryst.   s( 1) = (     1          0          0      )
                  (     0          1          0      )
                  (     0          0          1      )

 cart.    s( 1) = (  1.0000000  0.0000000  0.0000000 )
                  (  0.0000000  1.0000000  0.0000000 )
                  (  0.0000000  0.0000000  1.0000000 )

      isym =  2     inv. 180 deg rotation - cryst. axis [1,1,0]

 cryst.   s( 2) = (     0         -1          0      )
                  (    -1          0          0      )
                  (     0          0          1      )

 cart.    s( 2) = (  0.5000000 -0.8660254  0.0000000 )
                  ( -0.8660254 -0.5000000  0.0000000 )
                  (  0.0000000  0.0000000  1.0000000 )

     point group C_s (m)
     there are  2 classes
     the character table:

       E     s
A'     1.00  1.00
A''    1.00 -1.00

     the symmetry operations in each class and the name of the first element:

     E        1
          identity
     s        2
          inv. 180 deg rotation - cryst. axis [1,1,0]

   Cartesian axes

     site n.     atom                  positions (alat units)
         1           H   tau(   1) = (   0.2000000   0.4618802   0.2271531  )
         2           H   tau(   2) = (   0.2000000   0.4618802   0.2881658  )
         3           C   tau(   3) = (   0.0000000   0.0000000   0.0000000  )
         4           C   tau(   4) = (   0.0000000   0.1154701   0.0000000  )
         5           C   tau(   5) = (  -0.1000000   0.1732051   0.0000000  )
         6           C   tau(   6) = (  -0.1000000   0.2886751   0.0000000  )
         7           C   tau(   7) = (  -0.2000000   0.3464102   0.0000000  )
         8           C   tau(   8) = (  -0.2000000   0.4618802   0.0000000  )
         9           C   tau(   9) = (  -0.3000000   0.5196152   0.0000000  )
        10           C   tau(  10) = (  -0.3000000   0.6350853   0.0000000  )
        11           C   tau(  11) = (  -0.4000000   0.6928203   0.0000000  )
        12           C   tau(  12) = (  -0.4000000   0.8082904   0.0000000  )
        13           C   tau(  13) = (   0.2000000   0.0000000   0.0000000  )
        14           C   tau(  14) = (   0.2000000   0.1154701   0.0000000  )
        15           C   tau(  15) = (   0.1000000   0.1732051   0.0000000  )
        16           C   tau(  16) = (   0.1000000   0.2886751   0.0000000  )
        17           C   tau(  17) = (   0.0000000   0.3464102   0.0000000  )
        18           C   tau(  18) = (   0.0000000   0.4618802   0.0000000  )
        19           C   tau(  19) = (  -0.1000000   0.5196152   0.0000000  )
        20           C   tau(  20) = (  -0.1000000   0.6350853   0.0000000  )
        21           C   tau(  21) = (  -0.2000000   0.6928203   0.0000000  )
        22           C   tau(  22) = (  -0.2000000   0.8082904   0.0000000  )
        23           C   tau(  23) = (   0.4000000   0.0000000   0.0000000  )
        24           C   tau(  24) = (   0.4000000   0.1154701   0.0000000  )
        25           C   tau(  25) = (   0.3000000   0.1732051   0.0000000  )
        26           C   tau(  26) = (   0.3000000   0.2886751   0.0000000  )
        27           C   tau(  27) = (   0.2000000   0.3464102   0.0000000  )
        28           Fe  tau(  28) = (   0.2000000   0.4618802   0.0000000  )
        29           C   tau(  29) = (   0.1000000   0.5196152   0.0000000  )
        30           C   tau(  30) = (   0.1000000   0.6350853   0.0000000  )
        31           C   tau(  31) = (   0.0000000   0.6928203   0.0000000  )
        32           C   tau(  32) = (   0.0000000   0.8082904   0.0000000  )
        33           C   tau(  33) = (   0.6000000   0.0000000   0.0000000  )
        34           C   tau(  34) = (   0.6000000   0.1154701   0.0000000  )
        35           C   tau(  35) = (   0.5000000   0.1732051   0.0000000  )
        36           C   tau(  36) = (   0.5000000   0.2886751   0.0000000  )
        37           C   tau(  37) = (   0.4000000   0.3464102   0.0000000  )
        38           C   tau(  38) = (   0.4000000   0.4618802   0.0000000  )
        39           C   tau(  39) = (   0.3000000   0.5196152   0.0000000  )
        40           C   tau(  40) = (   0.3000000   0.6350853   0.0000000  )
        41           C   tau(  41) = (   0.2000000   0.6928203   0.0000000  )
        42           C   tau(  42) = (   0.2000000   0.8082904   0.0000000  )
        43           C   tau(  43) = (   0.8000000   0.0000000   0.0000000  )
        44           C   tau(  44) = (   0.8000000   0.1154701   0.0000000  )
        45           C   tau(  45) = (   0.7000000   0.1732051   0.0000000  )
        46           C   tau(  46) = (   0.7000000   0.2886751   0.0000000  )
        47           C   tau(  47) = (   0.6000000   0.3464102   0.0000000  )
        48           C   tau(  48) = (   0.6000000   0.4618802   0.0000000  )
        49           C   tau(  49) = (   0.5000000   0.5196152   0.0000000  )
        50           C   tau(  50) = (   0.5000000   0.6350853   0.0000000  )
        51           C   tau(  51) = (   0.4000000   0.6928203   0.0000000  )
        52           C   tau(  52) = (   0.4000000   0.8082904   0.0000000  )

   Crystallographic axes

     site n.     atom                  positions (cryst. coord.)
         1           H   tau(   1) = (  0.4666667  0.5333333  0.2800000  )
         2           H   tau(   2) = (  0.4666667  0.5333333  0.3552072  )
         3           C   tau(   3) = (  0.0000000  0.0000000  0.0000000  )
         4           C   tau(   4) = (  0.0666667  0.1333333  0.0000000  )
         5           C   tau(   5) = (  0.0000000  0.2000000  0.0000000  )
         6           C   tau(   6) = (  0.0666667  0.3333333  0.0000000  )
         7           C   tau(   7) = (  0.0000000  0.4000000  0.0000000  )
         8           C   tau(   8) = (  0.0666667  0.5333333  0.0000000  )
         9           C   tau(   9) = (  0.0000000  0.6000000  0.0000000  )
        10           C   tau(  10) = (  0.0666667  0.7333333  0.0000000  )
        11           C   tau(  11) = (  0.0000000  0.8000000  0.0000000  )
        12           C   tau(  12) = (  0.0666667  0.9333333  0.0000000  )
        13           C   tau(  13) = (  0.2000000  0.0000000  0.0000000  )
        14           C   tau(  14) = (  0.2666667  0.1333333  0.0000000  )
        15           C   tau(  15) = (  0.2000000  0.2000000  0.0000000  )
        16           C   tau(  16) = (  0.2666667  0.3333333  0.0000000  )
        17           C   tau(  17) = (  0.2000000  0.4000000  0.0000000  )
        18           C   tau(  18) = (  0.2666667  0.5333333  0.0000000  )
        19           C   tau(  19) = (  0.2000000  0.6000000  0.0000000  )
        20           C   tau(  20) = (  0.2666667  0.7333333  0.0000000  )
        21           C   tau(  21) = (  0.2000000  0.8000000  0.0000000  )
        22           C   tau(  22) = (  0.2666667  0.9333333  0.0000000  )
        23           C   tau(  23) = (  0.4000000  0.0000000  0.0000000  )
[...]
        42           C   tau(  42) = (  0.6666667  0.9333333  0.0000000  )
        43           C   tau(  43) = (  0.8000000  0.0000000  0.0000000  )
        44           C   tau(  44) = (  0.8666667  0.1333333  0.0000000  )
        45           C   tau(  45) = (  0.8000000  0.2000000  0.0000000  )
        46           C   tau(  46) = (  0.8666667  0.3333333  0.0000000  )
        47           C   tau(  47) = (  0.8000000  0.4000000  0.0000000  )
        48           C   tau(  48) = (  0.8666667  0.5333333  0.0000000  )
        49           C   tau(  49) = (  0.8000000  0.6000000  0.0000000  )
        50           C   tau(  50) = (  0.8666667  0.7333333  0.0000000  )
        51           C   tau(  51) = (  0.8000000  0.8000000  0.0000000  )
        52           C   tau(  52) = (  0.8666667  0.9333333  0.0000000  )

     number of k points=     1  Marzari-Vanderbilt smearing, width (Ry)=  0.0010
                       cart. coord. in units 2pi/alat
        k(    1) = (   0.0000000   0.0000000   0.0000000), wk =   1.0000000

                       cryst. coord.
        k(    1) = (   0.0000000   0.0000000   0.0000000), wk =   1.0000000

     Check: negative core charge=   -0.000002

     Initial potential from superposition of free atoms

     starting charge  213.80512, renormalised to  214.00000

     negative rho (up, down):  5.849E-05 1.073E-02

Carrying out rVV10 run using the following parameters:
Nqs =      20    Nr_points =    1024   r_max =   100.000
b_value =  6.30000    beta =  0.00901
     q_mesh =  0.00010000  0.00030000  0.00058939  0.00100810
               0.00161396  0.00249058  0.00375900  0.00559430
               0.00824984  0.01209221  0.01765183  0.02569619
               0.03733578  0.05417739  0.07854596  0.11380545
               0.16482331  0.23864234  0.34545298  0.50000000

Gradients computed in Reciprocal space

     Starting wfcs are  208 randomized atomic wfcs

     Self-consistent Calculation

     iteration #  1     ecut=    70.00 Ry     beta= 0.70
     Davidson diagonalization with overlap
     ethr =  1.00E-02,  avg # of iterations =  2.5

[...]

     total energy              =    -857.38103653 Ry
     Harris-Foulkes estimate   =    -858.62745434 Ry
     estimated scf accuracy    <      10.21265118 Ry

     total magnetization       =     6.00 Bohr mag/cell
     absolute magnetization    =     6.64 Bohr mag/cell

[...]

     Magnetic moment per site:
     atom:    1    charge:    0.2100    magn:   -0.0000    constr:    0.0000
     atom:    2    charge:    0.2129    magn:    0.0006    constr:    0.0000
     atom:    3    charge:    1.7168    magn:   -0.0109    constr:    0.0000
     atom:    4    charge:    1.7154    magn:    0.0147    constr:    0.0000
     atom:    5    charge:    1.7172    magn:   -0.0085    constr:    0.0000
     atom:    6    charge:    1.7141    magn:    0.0054    constr:    0.0000
     atom:    7    charge:    1.7177    magn:   -0.0086    constr:    0.0000
     atom:    8    charge:    1.7146    magn:    0.0174    constr:    0.0000
     atom:    9    charge:    1.7172    magn:   -0.0120    constr:    0.0000
     atom:   10    charge:    1.7147    magn:    0.0555    constr:    0.0000
     atom:   11    charge:    1.7174    magn:   -0.0147    constr:    0.0000
     atom:   12    charge:    1.7161    magn:    0.0461    constr:    0.0000
     atom:   13    charge:    1.7174    magn:   -0.0147    constr:    0.0000
     atom:   14    charge:    1.7153    magn:    0.0430    constr:    0.0000
     atom:   15    charge:    1.7135    magn:   -0.0112    constr:    0.0000
     atom:   16    charge:    1.7112    magn:    0.0467    constr:    0.0000
     atom:   17    charge:    1.7227    magn:   -0.0121    constr:    0.0000
     atom:   18    charge:    1.7111    magn:    0.0441    constr:    0.0000
     atom:   19    charge:    1.7130    magn:   -0.0100    constr:    0.0000
     atom:   20    charge:    1.7153    magn:    0.0348    constr:    0.0000
     atom:   21    charge:    1.7174    magn:   -0.0148    constr:    0.0000
     atom:   22    charge:    1.7147    magn:    0.0555    constr:    0.0000
     atom:   23    charge:    1.7172    magn:   -0.0120    constr:    0.0000
     atom:   24    charge:    1.7155    magn:    0.0161    constr:    0.0000
     atom:   25    charge:    1.7136    magn:   -0.0111    constr:    0.0000
     atom:   26    charge:    1.7111    magn:    0.0546    constr:    0.0000
     atom:   27    charge:    1.8522    magn:   -0.0191    constr:    0.0000
     atom:   28    charge:   11.1438    magn:    0.4760    constr:    0.0000
     atom:   29    charge:    1.8518    magn:   -0.0163    constr:    0.0000
     atom:   30    charge:    1.7111    magn:    0.0441    constr:    0.0000
     atom:   31    charge:    1.7130    magn:   -0.0100    constr:    0.0000
     atom:   32    charge:    1.7146    magn:    0.0174    constr:    0.0000
     atom:   33    charge:    1.7177    magn:   -0.0086    constr:    0.0000
     atom:   34    charge:    1.7143    magn:    0.0126    constr:    0.0000
     atom:   35    charge:    1.7185    magn:   -0.0087    constr:    0.0000
     atom:   36    charge:    1.7152    magn:    0.0056    constr:    0.0000
     atom:   37    charge:    1.7239    magn:   -0.0144    constr:    0.0000
     atom:   38    charge:    1.7111    magn:    0.0546    constr:    0.0000
     atom:   39    charge:    1.8522    magn:   -0.0191    constr:    0.0000
     atom:   40    charge:    1.7112    magn:    0.0467    constr:    0.0000
     atom:   41    charge:    1.7227    magn:   -0.0121    constr:    0.0000
     atom:   42    charge:    1.7141    magn:    0.0054    constr:    0.0000
     atom:   43    charge:    1.7172    magn:   -0.0085    constr:    0.0000
     atom:   44    charge:    1.7137    magn:    0.0112    constr:    0.0000
     atom:   45    charge:    1.7243    magn:   -0.0100    constr:    0.0000
     atom:   46    charge:    1.7143    magn:    0.0126    constr:    0.0000
     atom:   47    charge:    1.7185    magn:   -0.0087    constr:    0.0000
     atom:   48    charge:    1.7155    magn:    0.0161    constr:    0.0000
     atom:   49    charge:    1.7136    magn:   -0.0111    constr:    0.0000
     atom:   50    charge:    1.7153    magn:    0.0430    constr:    0.0000
     atom:   51    charge:    1.7135    magn:   -0.0112    constr:    0.0000
     atom:   52    charge:    1.7154    magn:    0.0147    constr:    0.0000

[...]

     total energy              =    -860.05582774 Ry
     Harris-Foulkes estimate   =    -860.05582771 Ry
     estimated scf accuracy    <       0.00000118 Ry

[...]

     iteration #157     ecut=    70.00 Ry     beta= 0.70
     Davidson diagonalization with overlap
     ethr =  5.51E-10,  avg # of iterations =  2.5

     negative rho (up, down):  6.015E-04 1.139E-02

     Magnetic moment per site:
     atom:    1    charge:    0.2098    magn:    0.0000    constr:    0.0000
     atom:    2    charge:    0.2130    magn:    0.0004    constr:    0.0000
     atom:    3    charge:    1.7167    magn:   -0.0119    constr:    0.0000
     atom:    4    charge:    1.7155    magn:    0.0157    constr:    0.0000
     atom:    5    charge:    1.7175    magn:   -0.0088    constr:    0.0000
     atom:    6    charge:    1.7142    magn:    0.0055    constr:    0.0000
     atom:    7    charge:    1.7176    magn:   -0.0089    constr:    0.0000
     atom:    8    charge:    1.7152    magn:    0.0177    constr:    0.0000
     atom:    9    charge:    1.7171    magn:   -0.0125    constr:    0.0000
     atom:   10    charge:    1.7149    magn:    0.0565    constr:    0.0000
     atom:   11    charge:    1.7173    magn:   -0.0159    constr:    0.0000
     atom:   12    charge:    1.7159    magn:    0.0493    constr:    0.0000
     atom:   13    charge:    1.7173    magn:   -0.0159    constr:    0.0000
     atom:   14    charge:    1.7156    magn:    0.0440    constr:    0.0000
     atom:   15    charge:    1.7137    magn:   -0.0123    constr:    0.0000
     atom:   16    charge:    1.7116    magn:    0.0490    constr:    0.0000
     atom:   17    charge:    1.7224    magn:   -0.0127    constr:    0.0000
     atom:   18    charge:    1.7118    magn:    0.0470    constr:    0.0000
     atom:   19    charge:    1.7136    magn:   -0.0114    constr:    0.0000
     atom:   20    charge:    1.7163    magn:    0.0377    constr:    0.0000
     atom:   21    charge:    1.7174    magn:   -0.0159    constr:    0.0000
     atom:   22    charge:    1.7149    magn:    0.0565    constr:    0.0000
     atom:   23    charge:    1.7171    magn:   -0.0125    constr:    0.0000
     atom:   24    charge:    1.7154    magn:    0.0168    constr:    0.0000
     atom:   25    charge:    1.7138    magn:   -0.0122    constr:    0.0000
     atom:   26    charge:    1.7109    magn:    0.0551    constr:    0.0000
     atom:   27    charge:    1.8523    magn:   -0.0198    constr:    0.0000
     atom:   28    charge:   11.1465    magn:    0.4817    constr:    0.0000
     atom:   29    charge:    1.8518    magn:   -0.0193    constr:    0.0000
     atom:   30    charge:    1.7118    magn:    0.0470    constr:    0.0000
     atom:   31    charge:    1.7136    magn:   -0.0114    constr:    0.0000
     atom:   32    charge:    1.7152    magn:    0.0177    constr:    0.0000
     atom:   33    charge:    1.7176    magn:   -0.0089    constr:    0.0000
     atom:   34    charge:    1.7140    magn:    0.0126    constr:    0.0000
     atom:   35    charge:    1.7175    magn:   -0.0090    constr:    0.0000
     atom:   36    charge:    1.7142    magn:    0.0057    constr:    0.0000
     atom:   37    charge:    1.7228    magn:   -0.0142    constr:    0.0000
     atom:   38    charge:    1.7109    magn:    0.0551    constr:    0.0000
     atom:   39    charge:    1.8523    magn:   -0.0198    constr:    0.0000
     atom:   40    charge:    1.7116    magn:    0.0490    constr:    0.0000
     atom:   41    charge:    1.7224    magn:   -0.0127    constr:    0.0000
     atom:   42    charge:    1.7142    magn:    0.0055    constr:    0.0000
     atom:   43    charge:    1.7175    magn:   -0.0088    constr:    0.0000
     atom:   44    charge:    1.7141    magn:    0.0115    constr:    0.0000
     atom:   45    charge:    1.7233    magn:   -0.0091    constr:    0.0000
     atom:   46    charge:    1.7140    magn:    0.0126    constr:    0.0000
     atom:   47    charge:    1.7175    magn:   -0.0090    constr:    0.0000
     atom:   48    charge:    1.7154    magn:    0.0168    constr:    0.0000
     atom:   49    charge:    1.7138    magn:   -0.0122    constr:    0.0000
     atom:   50    charge:    1.7156    magn:    0.0440    constr:    0.0000
     atom:   51    charge:    1.7137    magn:   -0.0123    constr:    0.0000
     atom:   52    charge:    1.7155    magn:    0.0157    constr:    0.0000

     End of self-consistent calculation

 ------ SPIN UP ------------

          k = 0.0000 0.0000 0.0000 ( 87777 PWs)   bands (ev):

   -88.8589 -55.7509 -55.6956 -54.0856 -19.8662 -19.0394 -19.0238 -18.9404
   -18.9156 -18.9110 -18.5811 -17.1679 -17.1575 -17.1566 -17.0916 -17.0864
   -16.7813 -16.3162 -16.3135 -16.2095 -16.1656 -16.1656 -15.4845 -14.2302
   -14.2137 -14.1335 -14.0816 -14.0790 -13.4225 -13.1514 -13.1473 -13.1220
   -12.8484 -12.8475 -12.4346 -11.9342 -11.9329 -11.7391 -11.4976 -11.4959
   -10.6247  -9.8040  -9.8003  -9.5225  -9.4033  -9.4017  -9.3163  -9.2859
    -9.2852  -9.2728  -8.8158  -8.8153  -8.2868  -8.2836  -8.1850  -8.0165
    -7.9212  -7.5305  -7.5273  -7.3421  -7.2374  -7.2261  -7.0784  -7.0781
    -6.9231  -6.9066  -6.8996  -6.8018  -6.6523  -6.6513  -6.6457  -6.6208
    -6.6105  -6.6065  -6.5626  -6.1755  -5.7474  -5.7409  -5.7229  -5.7072
    -5.4752  -5.4724  -5.3496  -5.0741  -4.9662  -4.8263  -4.7987  -4.7934
    -4.5547  -4.5487  -4.4800  -4.3310  -4.3195  -3.9569  -3.9566  -3.8679
    -3.7691  -3.7676  -3.2066  -2.9164  -2.9065  -1.9561  -1.8878  -1.8855
    -1.3670  -1.3223  -1.2156  -0.9047   0.8394   0.8858   0.8879   1.3958
     1.4091   1.5186   2.3034   2.3036   2.5307   2.6853   2.6876   2.7829
     3.2909   3.3015   3.4329   3.6737   3.6759   3.7373   3.7477   3.7486

     occupation numbers
     1.0000   1.0000   1.0000   1.0000   1.0000   1.0000   1.0000   1.0000
     1.0000   1.0000   1.0000   1.0000   1.0000   1.0000   1.0000   1.0000
     1.0000   1.0000   1.0000   1.0000   1.0000   1.0000   1.0000   1.0000
     1.0000   1.0000   1.0000   1.0000   1.0000   1.0000   1.0000   1.0000
     1.0000   1.0000   1.0000   1.0000   1.0000   1.0000   1.0000   1.0000
     1.0000   1.0000   1.0000   1.0000   1.0000   1.0000   1.0000   1.0000
     1.0000   1.0000   1.0000   1.0000   1.0000   1.0000   1.0000   1.0000
     1.0000   1.0000   1.0000   1.0000   1.0000   1.0000   1.0000   1.0000
     1.0000   1.0000   1.0000   1.0000   1.0000   1.0000   1.0000   1.0000
     1.0000   1.0000   1.0000   1.0000   1.0000   1.0000   1.0000   1.0000
     1.0000   1.0000   1.0000   1.0000   1.0000   1.0000   1.0000   1.0000
     1.0000   1.0000   1.0000   1.0000   1.0000   1.0000   1.0000   1.0000
     1.0000   1.0000   1.0000   1.0000   1.0000   1.0000   1.0000   1.0000
     1.0000   1.0000   1.0000   0.9720   0.0000   0.0000   0.0000   0.0000
     0.0000   0.0000   0.0000   0.0000   0.0000   0.0000   0.0000   0.0000
     0.0000   0.0000   0.0000   0.0000   0.0000   0.0000   0.0000   0.0000

 ------ SPIN DOWN ----------

          k = 0.0000 0.0000 0.0000 ( 87777 PWs)   bands (ev):

   -88.0911 -55.1079 -55.0919 -53.1259 -19.8285 -18.9945 -18.9818 -18.9052
   -18.8936 -18.8887 -18.5284 -17.1352 -17.1299 -17.1259 -17.0426 -17.0387
   -16.7545 -16.2740 -16.2733 -16.1808 -16.1265 -16.1261 -15.4617 -14.1617
   -14.1521 -14.0784 -14.0724 -14.0690 -13.4328 -13.1272 -13.1247 -13.0935
   -12.8307 -12.8299 -12.4058 -11.8999 -11.8977 -11.7191 -11.4766 -11.4763
   -10.6019  -9.7531  -9.7508  -9.4931  -9.3738  -9.3737  -9.3006  -9.2649
    -9.2644  -9.2572  -8.8038  -8.8031  -8.2494  -8.2463  -8.1637  -7.9294
    -7.9056  -7.5176  -7.5140  -7.3088  -7.0764  -7.0727  -7.0301  -7.0295
    -6.8524  -6.8499  -6.8307  -6.7878  -6.6367  -6.6309  -6.6111  -6.5986
    -6.5948  -6.5603  -6.5460  -6.1424  -5.6926  -5.6890  -5.4907  -5.4899
    -5.4326  -5.4306  -5.2323  -5.0611  -4.9580  -4.7569  -4.7167  -4.7155
    -4.4715  -4.4660  -4.4144  -4.2089  -4.2077  -3.8372  -3.8355  -3.7865
    -3.7552  -3.7537  -3.1662  -2.6916  -2.6874  -1.8631  -1.8608  -1.8136
    -0.9387  -0.9226  -0.8345  -0.8114   0.9279   0.9306   0.9782   1.5467
     1.5475   1.6316   2.4647   2.4659   2.5415   2.8107   2.8132   2.8450
     3.4428   3.4436   3.5184   3.6907   3.6914   3.7467   3.7517   3.7526

     occupation numbers
     1.0000   1.0000   1.0000   1.0000   1.0000   1.0000   1.0000   1.0000
     1.0000   1.0000   1.0000   1.0000   1.0000   1.0000   1.0000   1.0000
     1.0000   1.0000   1.0000   1.0000   1.0000   1.0000   1.0000   1.0000
     1.0000   1.0000   1.0000   1.0000   1.0000   1.0000   1.0000   1.0000
     1.0000   1.0000   1.0000   1.0000   1.0000   1.0000   1.0000   1.0000
     1.0000   1.0000   1.0000   1.0000   1.0000   1.0000   1.0000   1.0000
     1.0000   1.0000   1.0000   1.0000   1.0000   1.0000   1.0000   1.0000
     1.0000   1.0000   1.0000   1.0000   1.0000   1.0000   1.0000   1.0000
     1.0000   1.0000   1.0000   1.0000   1.0000   1.0000   1.0000   1.0000
     1.0000   1.0000   1.0000   1.0000   1.0000   1.0000   1.0000   1.0000
     1.0000   1.0000   1.0000   1.0000   1.0000   1.0000   1.0000   1.0000
     1.0000   1.0000   1.0000   1.0000   1.0000   1.0000   1.0000   1.0000
     1.0000   1.0000   1.0000   1.0000   1.0000   1.0000   1.0000   1.0000
     1.0003   1.0277   0.0000   0.0000   0.0000   0.0000   0.0000   0.0000
     0.0000   0.0000   0.0000   0.0000   0.0000   0.0000   0.0000   0.0000
     0.0000   0.0000   0.0000   0.0000   0.0000   0.0000   0.0000   0.0000

     the Fermi energy is    -0.8931 ev

!    total energy              =    -860.05582827 Ry
     Harris-Foulkes estimate   =    -860.05582818 Ry
     estimated scf accuracy    <       0.00000087 Ry

     The total energy is the sum of the following terms:

     one-electron contribution =   -2795.42788666 Ry
     hartree contribution      =    1441.53874218 Ry
     xc contribution           =    -259.32916014 Ry
     ewald contribution        =     753.16234987 Ry
     smearing contrib. (-TS)   =       0.00012648 Ry

     total magnetization       =     1.94 Bohr mag/cell
     absolute magnetization    =     3.11 Bohr mag/cell

     convergence has been achieved in 157 iterations

     Writing output data file distance-2.8.save/

     General routines

     Parallel routines

   This run was terminated on:   6: 1:15  28Aug2022

   JOB DONE.