     Program PWSCF v.6.4.1 starts on 30Oct2022 at 11:23: 5

     R & G space division:  proc/nbgrp/npool/nimage =       6
     Reading input from v-vcrelax-2.in

     Current dimensions of program PWSCF are:
     Max number of different atomic species (ntypx) = 10
     Max number of k-points (npk) =  40000
     Max angular momentum in pseudopotentials (lmaxx) =  3
               file H.pbe-rrkjus.UPF: wavefunction(s)  1S renormalized
               file V.pbe-spnl-rrkjus_psl.1.0.0.UPF: wavefunction(s)  3P 3D renormalized

     Subspace diagonalization in iterative solution of the eigenvalue problem:
     a serial algorithm will be used

     bravais-lattice index     =            4
     lattice parameter (alat)  =      23.2937  a.u.
     unit-cell volume          =    8879.8548 (a.u.)^3
     number of atoms/cell      =           52
     number of atomic types    =            3
     number of electrons       =       211.00
     number of Kohn-Sham states=          127
     kinetic-energy cutoff     =      70.0000  Ry
     charge density cutoff     =     490.0000  Ry
     convergence threshold     =      1.0E-10
     mixing beta               =       0.3000
     number of iterations used =            4  plain     mixing
     Exchange-correlation      = PBE ( 1  4  3  4 0 0)
     nstep                     =           50

     celldm(1)=  23.293684  celldm(2)=   0.000000  celldm(3)=   0.811261
     celldm(4)=   0.000000  celldm(5)=   0.000000  celldm(6)=   0.000000

     crystal axes: (cart. coord. in units of alat)
               a(1) = (   1.000000   0.000000   0.000000 )
               a(2) = (  -0.500000   0.866025   0.000000 )
               a(3) = (   0.000000   0.000000   0.811261 )

     reciprocal axes: (cart. coord. in units 2 pi/alat)
               b(1) = (  1.000000  0.577350 -0.000000 )
               b(2) = (  0.000000  1.154701  0.000000 )
               b(3) = (  0.000000 -0.000000  1.232649 )

     PseudoPot. # 1 for H  read from file:
     /home/cristian/Escritorio/Proyecto_Grafeno/pseudopotenciales/H.pbe-rrkjus.UPF
     MD5 check sum: 7cc9d459525c9a0585f487a71c3c9563
     Pseudo is Ultrasoft, Zval =  1.0
     Generated by new atomic code, or converted to UPF format
     Using radial grid of 1061 points,  2 beta functions with:
                l(1) =   0
                l(2) =   0
     Q(r) pseudized with 0 coefficients

     PseudoPot. # 2 for C  read from file:
     /home/cristian/Escritorio/Proyecto_Grafeno/pseudopotenciales/C.pbe-n-rrkjus_psl.1.0.0.UPF
     MD5 check sum: 1fdd950c42eb37d8afe3dd2f8d12311e
     Pseudo is Ultrasoft + core correction, Zval =  4.0
     Generated using "atomic" code by A. Dal Corso v.6.3MaX
     Using radial grid of 1073 points,  4 beta functions with:
                l(1) =   0
                l(2) =   0
                l(3) =   1
                l(4) =   1
     Q(r) pseudized with 0 coefficients

     PseudoPot. # 3 for V  read from file:
     /home/cristian/Escritorio/Proyecto_Grafeno/pseudopotenciales/V.pbe-spnl-rrkjus_psl.1.0.0.UPF
     MD5 check sum: 79b3eb63147daf0b665d9f1bcc691206
     Pseudo is Ultrasoft + core correction, Zval = 13.0
     Generated using "atomic" code by A. Dal Corso v.6.2.2
     Using radial grid of 1181 points,  6 beta functions with:
                l(1) =   0
                l(2) =   0
                l(3) =   1
                l(4) =   1
                l(5) =   2
                l(6) =   2
     Q(r) pseudized with 0 coefficients

     atomic species   valence    mass     pseudopotential
        H              1.00     1.00794     H ( 1.00)
        C              4.00    12.01070     C ( 1.00)
        V             13.00    50.94150     V ( 1.00)

     Starting magnetic structure
     atomic species   magnetization
        H            0.500
        C            0.300
        V            0.800

     No symmetry found

                                    s                        frac. trans.

      isym =  1     identity

 cryst.   s( 1) = (     1          0          0      )
                  (     0          1          0      )
                  (     0          0          1      )

 cart.    s( 1) = (  1.0000000  0.0000000  0.0000000 )
                  (  0.0000000  1.0000000  0.0000000 )
                  (  0.0000000  0.0000000  1.0000000 )

     point group C_1 (1)
     there are  1 classes
     the character table:

       E
A      1.00

     the symmetry operations in each class and the name of the first element:

     E        1
          identity

   Cartesian axes

     site n.     atom                  positions (alat units)
         1           H   tau(   1) = (   0.2313151   0.4710596   0.2204771  )
         2           H   tau(   2) = (   0.1689697   0.4537660   0.2241997  )
         3           C   tau(   3) = (   0.0001982  -0.0000813   0.0025949  )
         4           C   tau(   4) = (  -0.0004695   0.1147251   0.0027729  )
         5           C   tau(   5) = (  -0.1000686   0.1732042   0.0022745  )
         6           C   tau(   6) = (  -0.0999658   0.2887708   0.0014239  )
         7           C   tau(   7) = (  -0.2000628   0.3464912   0.0022483  )
         8           C   tau(   8) = (  -0.2004576   0.4620249   0.0024309  )
         9           C   tau(   9) = (  -0.2999387   0.5199133   0.0022972  )
        10           C   tau(  10) = (  -0.2999583   0.6352333   0.0015393  )
        11           C   tau(  11) = (  -0.3997610   0.6930315   0.0015272  )
        12           C   tau(  12) = (  -0.3999362   0.8082030   0.0015656  )
        13           C   tau(  13) = (   0.2001580  -0.0004777   0.0017115  )
        14           C   tau(  14) = (   0.2001206   0.1142933   0.0007837  )
        15           C   tau(  15) = (   0.0993761   0.1708033  -0.0002906  )
        16           C   tau(  16) = (   0.0992423   0.2855105  -0.0091304  )
        17           C   tau(  17) = (  -0.0001692   0.3460864  -0.0048432  )
        18           C   tau(  18) = (  -0.0016883   0.4627050  -0.0075073  )
        19           C   tau(  19) = (  -0.1015867   0.5202165   0.0000282  )
        20           C   tau(  20) = (  -0.1005798   0.6356714   0.0006917  )
        21           C   tau(  21) = (  -0.2001712   0.6931576   0.0015761  )
        22           C   tau(  22) = (  -0.1998576   0.8082697   0.0014993  )
        23           C   tau(  23) = (   0.4000019   0.0000246   0.0029780  )
        24           C   tau(  24) = (   0.4009908   0.1145586   0.0026301  )
        25           C   tau(  25) = (   0.3013922   0.1707487  -0.0015351  )
        26           C   tau(  26) = (   0.3026427   0.2846854  -0.0107458  )
        27           C   tau(  27) = (   0.2013792   0.3356625  -0.0186689  )
        28           V   tau(  28) = (   0.1914434   0.4530537   0.0699302  )
        29           C   tau(  29) = (   0.0932720   0.5263670  -0.0139273  )
        30           C   tau(  30) = (   0.0984630   0.6396232  -0.0099288  )
        31           C   tau(  31) = (  -0.0011202   0.6952878  -0.0020527  )
        32           C   tau(  32) = (  -0.0001859   0.8095443   0.0021186  )
        33           C   tau(  33) = (   0.5999735   0.0009694   0.0018512  )
        34           C   tau(  34) = (   0.6005047   0.1159708   0.0015876  )
        35           C   tau(  35) = (   0.5005456   0.1730143   0.0020899  )
        36           C   tau(  36) = (   0.5006033   0.2885787   0.0008740  )
        37           C   tau(  37) = (   0.4012325   0.3455946  -0.0053131  )
        38           C   tau(  38) = (   0.4018943   0.4622184  -0.0071131  )
        39           C   tau(  39) = (   0.3055587   0.5237947  -0.0051556  )
        40           C   tau(  40) = (   0.3012273   0.6377057  -0.0077259  )
        41           C   tau(  41) = (   0.2000575   0.6951243  -0.0054109  )
        42           C   tau(  42) = (   0.2001508   0.8093559   0.0005018  )
        43           C   tau(  43) = (   0.8003977   0.0008951   0.0017995  )
        44           C   tau(  44) = (   0.7999840   0.1160062   0.0016351  )
        45           C   tau(  45) = (   0.7002099   0.1735195   0.0006943  )
        46           C   tau(  46) = (   0.7002799   0.2887106   0.0016825  )
        47           C   tau(  47) = (   0.6006038   0.3465370   0.0020055  )
        48           C   tau(  48) = (   0.6005652   0.4619226   0.0016386  )
        49           C   tau(  49) = (   0.5014304   0.5199496  -0.0015307  )
        50           C   tau(  50) = (   0.5005467   0.6355325   0.0003507  )
        51           C   tau(  51) = (   0.4010314   0.6944395  -0.0022744  )
        52           C   tau(  52) = (   0.4002149   0.8090468   0.0014508  )

   Crystallographic axes

     site n.     atom                  positions (cryst. coord.)
         1           H   tau(   1) = (  0.5032814  0.5439327  0.2717708  )
         2           H   tau(   2) = (  0.4309516  0.5239638  0.2763594  )
         3           C   tau(   3) = (  0.0001513 -0.0000938  0.0031986  )
         4           C   tau(   4) = (  0.0657671  0.1324732  0.0034180  )
         5           C   tau(   5) = ( -0.0000691  0.1999990  0.0028037  )
         6           C   tau(   6) = (  0.0667561  0.3334438  0.0017552  )
         7           C   tau(   7) = ( -0.0000160  0.4000936  0.0027713  )
         8           C   tau(   8) = (  0.0662926  0.5335003  0.0029965  )
         9           C   tau(   9) = (  0.0002334  0.6003441  0.0028316  )
        10           C   tau(  10) = (  0.0667938  0.7335042  0.0018974  )
        11           C   tau(  11) = (  0.0003610  0.8002439  0.0018826  )
        12           C   tau(  12) = (  0.0666800  0.9332324  0.0019299  )
        13           C   tau(  13) = (  0.1998822 -0.0005516  0.0021097  )
        14           C   tau(  14) = (  0.2661079  0.1319746  0.0009660  )
        15           C   tau(  15) = (  0.1979894  0.1972267 -0.0003583  )
        16           C   tau(  16) = (  0.2640819  0.3296791 -0.0112546  )
        17           C   tau(  17) = (  0.1996438  0.3996261 -0.0059699  )
        18           C   tau(  18) = (  0.2654546  0.5342857 -0.0092539  )
        19           C   tau(  19) = (  0.1987605  0.6006943  0.0000348  )
        20           C   tau(  20) = (  0.2664252  0.7340101  0.0008526  )
        21           C   tau(  21) = (  0.2000236  0.8003895  0.0019427  )
        22           C   tau(  22) = (  0.2667972  0.9333095  0.0018481  )
        23           C   tau(  23) = (  0.4000161  0.0000284  0.0036708  )
        24           C   tau(  24) = (  0.4671313  0.1322809  0.0032419  )
        25           C   tau(  25) = (  0.3999740  0.1971637 -0.0018923  )
        26           C   tau(  26) = (  0.4670059  0.3287264 -0.0132458  )
        27           C   tau(  27) = (  0.3951741  0.3875897 -0.0230121  )
        28           V   tau(  28) = (  0.4530141  0.5231414  0.0861994  )
        29           C   tau(  29) = (  0.3971702  0.6077963 -0.0171675  )
        30           C   tau(  30) = (  0.4677496  0.7385733 -0.0122387  )
        31           C   tau(  31) = (  0.4003044  0.8028492 -0.0025302  )
        32           C   tau(  32) = (  0.4672047  0.9347813  0.0026115  )
[...]
     atom   34 type  2   force =    -0.08049321   -0.04862806    0.84241675
     atom   35 type  2   force =    -0.24572485    0.11407639    0.91792405
     atom   36 type  2   force =    -0.50994378    0.26179155    0.74720487
     atom   37 type  2   force =    -0.99864987    0.38143834    0.40598709
     atom   38 type  2   force =    -1.39559166    0.19996562    0.17256545
     atom   39 type  2   force =    -2.29288930   -1.31249907   -0.27785108
     atom   40 type  2   force =    -0.53195031   -1.30826113    0.16954701
     atom   41 type  2   force =    -0.16619109   -1.05850346    0.39944412
     atom   42 type  2   force =    -0.02617047   -0.58239232    0.69657971
     atom   43 type  2   force =    -0.03447808   -0.26271862    0.56739613
     atom   44 type  2   force =     0.08697874   -0.01457826    0.59677972
     atom   45 type  2   force =     0.00559249    0.00203590    0.52090724
     atom   46 type  2   force =     0.03344528    0.07808839    0.63429123
     atom   47 type  2   force =    -0.24398302    0.10114190    0.61070190
     atom   48 type  2   force =    -0.27286554    0.01437438    0.71317235
     atom   49 type  2   force =    -0.70274714   -0.16728718    0.54469933
     atom   50 type  2   force =    -0.44925302   -0.25566147    0.34638335
     atom   51 type  2   force =    -0.50022974   -0.52543624    0.53507713
     atom   52 type  2   force =    -0.12438964   -0.24328003    0.71566523
     The core correction contribution to forces
     atom    1 type  1   force =     0.00000000    0.00000000    0.00000000
     atom    2 type  1   force =     0.00000000    0.00000000    0.00000000
     atom    3 type  2   force =    -0.00012995    0.00010597    0.00025612
     atom    4 type  2   force =     0.00016108   -0.00010023    0.00022828
     atom    5 type  2   force =    -0.00021015   -0.00019465    0.00016777
     atom    6 type  2   force =     0.00008412    0.00003255    0.00006676
     atom    7 type  2   force =    -0.00028284   -0.00008157    0.00016961
     atom    8 type  2   force =     0.00000155    0.00017396    0.00021362
     atom    9 type  2   force =     0.00001086   -0.00016381    0.00021400
     atom   10 type  2   force =    -0.00007896   -0.00003557    0.00034971
     atom   11 type  2   force =    -0.00015446   -0.00008867    0.00013036
     atom   12 type  2   force =    -0.00007993   -0.00004260    0.00037584
     atom   13 type  2   force =     0.00017059    0.00017231    0.00029988
     atom   14 type  2   force =    -0.00011122   -0.00041441    0.00035226
     atom   15 type  2   force =    -0.00044884    0.00008939    0.00007761
     atom   16 type  2   force =     0.00097640   -0.00069889   -0.00144356
     atom   17 type  2   force =    -0.00055604   -0.00033730   -0.00028843
     atom   18 type  2   force =    -0.00012226    0.00118321   -0.00144720
     atom   19 type  2   force =    -0.00016834   -0.00042322    0.00005561
     atom   20 type  2   force =    -0.00041563    0.00010455    0.00032801
     atom   21 type  2   force =     0.00022638    0.00006806    0.00030062
     atom   22 type  2   force =    -0.00003106   -0.00002171    0.00033910
     atom   23 type  2   force =     0.00027142    0.00016117    0.00038500
     atom   24 type  2   force =    -0.00026812   -0.00018569    0.00043495
     atom   25 type  2   force =     0.00071261    0.00051858    0.00025311
     atom   26 type  2   force =    -0.00078176   -0.00054817   -0.00018402
     atom   27 type  2   force =     0.00035050    0.00356599    0.00290874
     atom   28 type  3   force =    -0.00429948   -0.00236751    0.03454413
     atom   29 type  2   force =     0.00322438   -0.00142325    0.00297654
     atom   30 type  2   force =    -0.00088502   -0.00041643   -0.00015187
     atom   31 type  2   force =     0.00080939    0.00036404    0.00025221
     atom   32 type  2   force =    -0.00029468   -0.00015353    0.00042944
     atom   33 type  2   force =    -0.00007373    0.00024165    0.00034767
     atom   34 type  2   force =     0.00013928    0.00007109    0.00032851
     atom   35 type  2   force =     0.00015693   -0.00018968    0.00038423
     atom   36 type  2   force =    -0.00021661    0.00023972    0.00027490
     atom   37 type  2   force =     0.00020340   -0.00044169    0.00018250
     atom   38 type  2   force =     0.00010820    0.00104294   -0.00078083
     atom   39 type  2   force =    -0.00278799   -0.00159647    0.00219650
     atom   40 type  2   force =     0.00096393   -0.00042682   -0.00077810
     atom   41 type  2   force =    -0.00026053    0.00041379    0.00016896
     atom   42 type  2   force =     0.00010404   -0.00033106    0.00022654
     atom   43 type  2   force =     0.00000801    0.00012551    0.00022551
     atom   44 type  2   force =    -0.00011710    0.00008069    0.00010193
     atom   45 type  2   force =    -0.00003788   -0.00002103    0.00022934
     atom   46 type  2   force =     0.00002106   -0.00015172    0.00012564
     atom   47 type  2   force =     0.00010095   -0.00005134    0.00022768
     atom   48 type  2   force =     0.00001304    0.00005883    0.00036158
     atom   49 type  2   force =    -0.00014348   -0.00032042   -0.00005873
     atom   50 type  2   force =     0.00014273    0.00009016    0.00022111
     atom   51 type  2   force =    -0.00034861    0.00002879   -0.00006233
     atom   52 type  2   force =     0.00006020   -0.00002318    0.00035868
     The Hubbard contrib.    to forces
     atom    1 type  1   force =     0.00000000    0.00000000    0.00000000
     atom    2 type  1   force =     0.00000000    0.00000000    0.00000000
     atom    3 type  2   force =     0.00000000    0.00000000    0.00000000
     atom    4 type  2   force =     0.00000000    0.00000000    0.00000000
     atom    5 type  2   force =     0.00000000    0.00000000    0.00000000
     atom    6 type  2   force =     0.00000000    0.00000000    0.00000000
     atom    7 type  2   force =     0.00000000    0.00000000    0.00000000
     atom    8 type  2   force =     0.00000000    0.00000000    0.00000000
     atom    9 type  2   force =     0.00000000    0.00000000    0.00000000
     atom   10 type  2   force =     0.00000000    0.00000000    0.00000000
     atom   11 type  2   force =     0.00000000    0.00000000    0.00000000
     atom   12 type  2   force =     0.00000000    0.00000000    0.00000000
     atom   13 type  2   force =     0.00000000    0.00000000    0.00000000
     atom   14 type  2   force =     0.00000000    0.00000000    0.00000000
     atom   15 type  2   force =     0.00000000    0.00000000    0.00000000
     atom   16 type  2   force =     0.00000000    0.00000000    0.00000000
     atom   17 type  2   force =     0.00000000    0.00000000    0.00000000
     atom   18 type  2   force =     0.00000000    0.00000000    0.00000000
     atom   19 type  2   force =     0.00000000    0.00000000    0.00000000
     atom   20 type  2   force =     0.00000000    0.00000000    0.00000000
     atom   21 type  2   force =     0.00000000    0.00000000    0.00000000
     atom   22 type  2   force =     0.00000000    0.00000000    0.00000000
     atom   23 type  2   force =     0.00000000    0.00000000    0.00000000
     atom   24 type  2   force =     0.00000000    0.00000000    0.00000000
     atom   25 type  2   force =     0.00000000    0.00000000    0.00000000
     atom   26 type  2   force =     0.00000000    0.00000000    0.00000000
     atom   27 type  2   force =     0.00000000    0.00000000    0.00000000
     atom   28 type  3   force =     0.00000000    0.00000000    0.00000000
     atom   29 type  2   force =     0.00000000    0.00000000    0.00000000
     atom   30 type  2   force =     0.00000000    0.00000000    0.00000000
     atom   31 type  2   force =     0.00000000    0.00000000    0.00000000
     atom   32 type  2   force =     0.00000000    0.00000000    0.00000000
     atom   33 type  2   force =     0.00000000    0.00000000    0.00000000
     atom   34 type  2   force =     0.00000000    0.00000000    0.00000000
     atom   35 type  2   force =     0.00000000    0.00000000    0.00000000
     atom   36 type  2   force =     0.00000000    0.00000000    0.00000000
     atom   37 type  2   force =     0.00000000    0.00000000    0.00000000
     atom   38 type  2   force =     0.00000000    0.00000000    0.00000000
     atom   39 type  2   force =     0.00000000    0.00000000    0.00000000
     atom   40 type  2   force =     0.00000000    0.00000000    0.00000000
     atom   41 type  2   force =     0.00000000    0.00000000    0.00000000
     atom   42 type  2   force =     0.00000000    0.00000000    0.00000000
     atom   43 type  2   force =     0.00000000    0.00000000    0.00000000
     atom   44 type  2   force =     0.00000000    0.00000000    0.00000000
     atom   45 type  2   force =     0.00000000    0.00000000    0.00000000
     atom   46 type  2   force =     0.00000000    0.00000000    0.00000000
     atom   47 type  2   force =     0.00000000    0.00000000    0.00000000
     atom   48 type  2   force =     0.00000000    0.00000000    0.00000000
     atom   49 type  2   force =     0.00000000    0.00000000    0.00000000
     atom   50 type  2   force =     0.00000000    0.00000000    0.00000000
     atom   51 type  2   force =     0.00000000    0.00000000    0.00000000
     atom   52 type  2   force =     0.00000000    0.00000000    0.00000000
     The SCF correction term to forces
     atom    1 type  1   force =    -0.00000007   -0.00000001   -0.00000001
     atom    2 type  1   force =    -0.00000004    0.00000001   -0.00000001
     atom    3 type  2   force =     0.00000010    0.00000011   -0.00000002
     atom    4 type  2   force =     0.00000006    0.00000010   -0.00000000
     atom    5 type  2   force =     0.00000005    0.00000008   -0.00000001
     atom    6 type  2   force =     0.00000007    0.00000003    0.00000000
     atom    7 type  2   force =     0.00000006    0.00000000   -0.00000001
     atom    8 type  2   force =     0.00000005   -0.00000002    0.00000000
     atom    9 type  2   force =     0.00000011    0.00000000   -0.00000001
     atom   10 type  2   force =     0.00000009   -0.00000000   -0.00000001
     atom   11 type  2   force =     0.00000013    0.00000005   -0.00000001
     atom   12 type  2   force =     0.00000010    0.00000010   -0.00000001
     atom   13 type  2   force =     0.00000004    0.00000007    0.00000000
     atom   14 type  2   force =     0.00000001    0.00000003    0.00000002
     atom   15 type  2   force =     0.00000003    0.00000005    0.00000001
     atom   16 type  2   force =    -0.00000003   -0.00000002   -0.00000001
     atom   17 type  2   force =    -0.00000001   -0.00000004    0.00000001
     atom   18 type  2   force =    -0.00000007   -0.00000009   -0.00000001
     atom   19 type  2   force =     0.00000000   -0.00000004    0.00000001
     atom   20 type  2   force =    -0.00000004   -0.00000003    0.00000001
     atom   21 type  2   force =     0.00000002    0.00000001   -0.00000001
     atom   22 type  2   force =    -0.00000001    0.00000004   -0.00000001
     atom   23 type  2   force =    -0.00000005    0.00000002    0.00000001
     atom   24 type  2   force =    -0.00000008   -0.00000002    0.00000001
     atom   25 type  2   force =    -0.00000005   -0.00000004    0.00000002
     atom   26 type  2   force =    -0.00000010   -0.00000012   -0.00000003
     atom   27 type  2   force =    -0.00000008   -0.00000016   -0.00000008
     atom   28 type  3   force =    -0.00000034   -0.00000054    0.00000010
     atom   29 type  2   force =    -0.00000018   -0.00000009   -0.00000009
     atom   30 type  2   force =    -0.00000016   -0.00000003   -0.00000004
     atom   31 type  2   force =    -0.00000012   -0.00000000    0.00000000
     atom   32 type  2   force =    -0.00000011    0.00000002    0.00000000
     atom   33 type  2   force =    -0.00000009    0.00000006   -0.00000002
     atom   34 type  2   force =    -0.00000003    0.00000005   -0.00000002
     atom   35 type  2   force =    -0.00000002   -0.00000002    0.00000000
     atom   36 type  2   force =     0.00000002   -0.00000008   -0.00000000
     atom   37 type  2   force =    -0.00000002   -0.00000017   -0.00000002
     atom   38 type  2   force =     0.00000008   -0.00000015   -0.00000003
     atom   39 type  2   force =    -0.00000001   -0.00000011    0.00000002
     atom   40 type  2   force =    -0.00000002    0.00000008   -0.00000003
     atom   41 type  2   force =    -0.00000012    0.00000006   -0.00000003
     atom   42 type  2   force =    -0.00000005    0.00000009   -0.00000001
     atom   43 type  2   force =    -0.00000001    0.00000010   -0.00000001
     atom   44 type  2   force =     0.00000004    0.00000013   -0.00000001
     atom   45 type  2   force =     0.00000000    0.00000006   -0.00000001
     atom   46 type  2   force =     0.00000006   -0.00000002   -0.00000001
     atom   47 type  2   force =     0.00000004   -0.00000007   -0.00000001
     atom   48 type  2   force =     0.00000011   -0.00000003   -0.00000004
     atom   49 type  2   force =     0.00000010   -0.00000005   -0.00000006
     atom   50 type  2   force =     0.00000012    0.00000001   -0.00000007
     atom   51 type  2   force =     0.00000007    0.00000008   -0.00000007
     atom   52 type  2   force =     0.00000007    0.00000011   -0.00000005

     Total force =     0.003901     Total SCF correction =     0.000001

     number of scf cycles    =  50
     number of bfgs steps    =  49

     energy   old            =    -756.4576896084 Ry
     energy   new            =    -756.4577131435 Ry

     CASE: energy  _new < energy  _old

     new trust radius        =       0.0161770136 bohr
     new conv_thr            =            1.0E-12 Ry

ATOMIC_POSITIONS (angstrom)
H        2.854143189   5.894726199   3.366533854
H        2.167384390   5.532219767   3.486846730
C       -0.000569694  -0.003500538  -0.150707370
C       -0.005140132   1.416398506  -0.129714062
C       -1.233295335   2.134607610  -0.114403573
C       -1.231486995   3.559104106  -0.069314575
C       -2.466272242   4.269690489  -0.113124091
C       -2.474592768   5.692630708  -0.125152498
C       -3.701795065   6.406597167  -0.146519010
C       -3.700067829   7.828754544  -0.161921799
C       -4.932297436   8.539556514  -0.136267289
C       -4.931512744   9.962016537  -0.166149256
C        2.465963845  -0.002601431  -0.189670940
C        2.466388029   1.415388662  -0.131689584
C        1.226640217   2.117121737  -0.073608342
C        1.228401244   3.530639407   0.091746124
C       -0.004130977   4.267473684   0.055183256
C       -0.025810552   5.703374011   0.089221278
C       -1.251704094   6.408886052  -0.070389175
C       -1.239566994   7.833459362  -0.127173636
C       -2.467621138   8.542312715  -0.184789042
C       -2.464727243   9.963914233  -0.210781606
C        4.931031670   0.000367463  -0.214915036
C        4.939342465   1.417167104  -0.183183257
C        3.710539050   2.118954475  -0.110980049
C        3.720710148   3.522784620   0.075066056
C        2.481822140   4.158521039   0.299527033
V        2.346504397   5.628006412   1.439422285
C        1.145440841   6.475103857   0.291041376
C        1.213450255   7.866203165   0.072216438
C       -0.008120244   8.559378748  -0.108537324
C       -0.001189322   9.974289386  -0.179753589
C        7.398187616   0.004830871  -0.156325931
C        7.400901734   1.426271689  -0.173019319
C        6.168411701   2.134719792  -0.160580202
C        6.166831166   3.558809548  -0.084338724
C        4.943553612   4.262808371   0.075749133
C        4.950723797   5.696231761   0.182091314
C        3.776502119   6.450733717   0.460205819
C        3.710736990   7.844991770   0.183015126
C        2.465766985   8.555362739   0.076866996
C        2.467651639   9.966927903  -0.079687852
C        9.863558552   0.004517669  -0.109971666
C        9.861632632   1.426008598  -0.137207336
C        8.630962167   2.136503447  -0.149422676
C        8.630776743   3.557513881  -0.139152022
C        7.400501262   4.269868720  -0.113063865
C        7.397207343   5.692199343  -0.101629721
C        6.171423094   6.405239577  -0.001397341
C        6.166889917   7.830710119  -0.038187412
C        4.934983848   8.547734222  -0.000361035
C        4.930398204   9.965706183  -0.101642612

     Writing output data file vanadio-top-2.1.save/
     NEW-OLD atomic charge density approx. for the potential

     Check: negative core charge=   -0.000002

     negative rho (up, down):  1.194E-03 4.609E-03

     Writing output data file vanadio-top-2.1.save/

     General routines

     Parallel routines

   This run was terminated on:  20:15:40  31Oct2022

   JOB DONE.