     Program PWSCF v.6.4.1 starts on  5Mar2023 at 12:11:24

     R & G space division:  proc/nbgrp/npool/nimage =       6
     Reading input from vanadio-sustitucion.in

     Current dimensions of program PWSCF are:
     Max number of different atomic species (ntypx) = 10
     Max number of k-points (npk) =  40000
     Max angular momentum in pseudopotentials (lmaxx) =  3

     IMPORTANT: XC functional enforced from input :
     Exchange-correlation      = RVV10 ( 1  4 13  4 3 0)
     Any further DFT definition will be discarded
     Please, verify this is what you really want

               file V.pbe-spnl-rrkjus_psl.1.0.0.UPF: wavefunction(s)  3P 3D renormalized

     Subspace diagonalization in iterative solution of the eigenvalue problem:
     a serial algorithm will be used

     bravais-lattice index     =            4
     lattice parameter (alat)  =      23.2937  a.u.
     unit-cell volume          =    8879.8548 (a.u.)^3
     number of atoms/cell      =           50
     number of atomic types    =            2
     number of electrons       =       209.00
     number of Kohn-Sham states=          126
     kinetic-energy cutoff     =      70.0000  Ry
     charge density cutoff     =     490.0000  Ry
     convergence threshold     =      1.0E-10
     mixing beta               =       0.3000
     number of iterations used =            4  plain     mixing
     Exchange-correlation      = RVV10 ( 1  4 13  4 3 0)
     nstep                     =           50

     celldm(1)=  23.293684  celldm(2)=   0.000000  celldm(3)=   0.811261
     celldm(4)=   0.000000  celldm(5)=   0.000000  celldm(6)=   0.000000

     crystal axes: (cart. coord. in units of alat)
               a(1) = (   1.000000   0.000000   0.000000 )
               a(2) = (  -0.500000   0.866025   0.000000 )
               a(3) = (   0.000000   0.000000   0.811261 )

     reciprocal axes: (cart. coord. in units 2 pi/alat)
               b(1) = (  1.000000  0.577350 -0.000000 )
               b(2) = (  0.000000  1.154701  0.000000 )
               b(3) = (  0.000000 -0.000000  1.232649 )

     PseudoPot. # 1 for C  read from file:
     /home/cristian/Escritorio/Proyecto_Grafeno/pseudopotenciales/C.pbe-n-rrkjus_psl.1.0.0.UPF
     MD5 check sum: 1fdd950c42eb37d8afe3dd2f8d12311e
     Pseudo is Ultrasoft + core correction, Zval =  4.0
     Generated using "atomic" code by A. Dal Corso v.6.3MaX
     Using radial grid of 1073 points,  4 beta functions with:
                l(1) =   0
                l(2) =   0
                l(3) =   1
                l(4) =   1
     Q(r) pseudized with 0 coefficients

     PseudoPot. # 2 for V  read from file:
     /home/cristian/Escritorio/Proyecto_Grafeno/pseudopotenciales/V.pbe-spnl-rrkjus_psl.1.0.0.UPF
     MD5 check sum: 79b3eb63147daf0b665d9f1bcc691206
     Pseudo is Ultrasoft + core correction, Zval = 13.0
     Generated using "atomic" code by A. Dal Corso v.6.2.2
     Using radial grid of 1181 points,  6 beta functions with:
                l(1) =   0
                l(2) =   0
                l(3) =   1
                l(4) =   1
                l(5) =   2
                l(6) =   2
     Q(r) pseudized with 0 coefficients

     vdW kernel table read from file rVV10_kernel_table
     MD5 check sum: b8e2538accc0c0b3206b45ba4daaba6c

     atomic species   valence    mass     pseudopotential
        C              4.00    12.01070     C ( 1.00)
        V             13.00    50.94150     V ( 1.00)

     Starting magnetic structure
     atomic species   magnetization
        C            0.000
        V            0.300

      4 Sym. Ops. (no inversion) found

                                    s                        frac. trans.

      isym =  1     identity

 cryst.   s( 1) = (     1          0          0      )
                  (     0          1          0      )
                  (     0          0          1      )

 cart.    s( 1) = (  1.0000000  0.0000000  0.0000000 )
                  (  0.0000000  1.0000000  0.0000000 )
                  (  0.0000000  0.0000000  1.0000000 )

      isym =  2     180 deg rotation - cryst. axis [1,-1,0]

[...]

      isym =  3     inv. 180 deg rotation - cart. axis [0,0,1]

[...]

      isym =  4     inv. 180 deg rotation - cryst. axis [1,1,0]

 cryst.   s( 4) = (     0         -1          0      )
                  (    -1          0          0      )
                  (     0          0          1      )

 cart.    s( 4) = (  0.5000000 -0.8660254  0.0000000 )
                  ( -0.8660254 -0.5000000  0.0000000 )
                  (  0.0000000  0.0000000  1.0000000 )

     point group C_2v (mm2)
     there are  4 classes
     the character table:

       E     C2    s_v   s_v'
A_1    1.00  1.00  1.00  1.00
A_2    1.00  1.00 -1.00 -1.00
B_1    1.00 -1.00  1.00 -1.00
B_2    1.00 -1.00 -1.00  1.00

     the symmetry operations in each class and the name of the first element:

     E        1
          identity
     C2       2
          180 deg rotation - cryst. axis [1,-1,0]
     s_v      4
          inv. 180 deg rotation - cryst. axis [1,1,0]
     s_v'     3
          inv. 180 deg rotation - cart. axis [0,0,1]

   Cartesian axes

     site n.     atom                  positions (alat units)
         1           C   tau(   1) = (   0.0000000   0.0000000   0.0000000  )
         2           C   tau(   2) = (   0.0000000   0.1154701   0.0000000  )
         3           C   tau(   3) = (  -0.1000000   0.1732051   0.0000000  )
         4           C   tau(   4) = (  -0.1000000   0.2886751   0.0000000  )
         5           C   tau(   5) = (  -0.2000000   0.3464102   0.0000000  )
         6           C   tau(   6) = (  -0.2000000   0.4618802   0.0000000  )
         7           C   tau(   7) = (  -0.3000000   0.5196152   0.0000000  )
         8           C   tau(   8) = (  -0.3000000   0.6350853   0.0000000  )
         9           C   tau(   9) = (  -0.4000000   0.6928203   0.0000000  )
        10           C   tau(  10) = (  -0.4000000   0.8082904   0.0000000  )
        11           C   tau(  11) = (   0.2000000   0.0000000   0.0000000  )
        12           C   tau(  12) = (   0.2000000   0.1154701   0.0000000  )
        13           C   tau(  13) = (   0.1000000   0.1732051   0.0000000  )
        14           C   tau(  14) = (   0.1000000   0.2886751   0.0000000  )
        15           C   tau(  15) = (   0.0000000   0.3464102   0.0000000  )
        16           C   tau(  16) = (   0.0000000   0.4618802   0.0000000  )
        17           C   tau(  17) = (  -0.1000000   0.5196152   0.0000000  )
        18           C   tau(  18) = (  -0.1000000   0.6350853   0.0000000  )
        19           C   tau(  19) = (  -0.2000000   0.6928203   0.0000000  )
        20           C   tau(  20) = (  -0.2000000   0.8082904   0.0000000  )
        21           C   tau(  21) = (   0.4000000   0.0000000   0.0000000  )
        22           C   tau(  22) = (   0.4000000   0.1154701   0.0000000  )
        23           C   tau(  23) = (   0.3000000   0.1732051   0.0000000  )
        24           C   tau(  24) = (   0.3000000   0.2886751   0.0000000  )
        25           C   tau(  25) = (   0.2000000   0.3464102   0.0000000  )
        26           V   tau(  26) = (   0.2000000   0.4618802   0.0000000  )
        27           C   tau(  27) = (   0.1000000   0.5196152   0.0000000  )
        28           C   tau(  28) = (   0.1000000   0.6350853   0.0000000  )
        29           C   tau(  29) = (   0.0000000   0.6928203   0.0000000  )
        30           C   tau(  30) = (   0.0000000   0.8082904   0.0000000  )
        31           C   tau(  31) = (   0.6000000   0.0000000   0.0000000  )
        32           C   tau(  32) = (   0.6000000   0.1154701   0.0000000  )
        33           C   tau(  33) = (   0.5000000   0.1732051   0.0000000  )
        34           C   tau(  34) = (   0.5000000   0.2886751   0.0000000  )
        35           C   tau(  35) = (   0.4000000   0.3464102   0.0000000  )
        36           C   tau(  36) = (   0.4000000   0.4618802   0.0000000  )
        37           C   tau(  37) = (   0.3000000   0.5196152   0.0000000  )
        38           C   tau(  38) = (   0.3000000   0.6350853   0.0000000  )
        39           C   tau(  39) = (   0.2000000   0.6928203   0.0000000  )
        40           C   tau(  40) = (   0.2000000   0.8082904   0.0000000  )
        41           C   tau(  41) = (   0.8000000   0.0000000   0.0000000  )
        42           C   tau(  42) = (   0.8000000   0.1154701   0.0000000  )
        43           C   tau(  43) = (   0.7000000   0.1732051   0.0000000  )
        44           C   tau(  44) = (   0.7000000   0.2886751   0.0000000  )
        45           C   tau(  45) = (   0.6000000   0.3464102   0.0000000  )
        46           C   tau(  46) = (   0.6000000   0.4618802   0.0000000  )
        47           C   tau(  47) = (   0.5000000   0.5196152   0.0000000  )
        48           C   tau(  48) = (   0.5000000   0.6350853   0.0000000  )
        49           C   tau(  49) = (   0.4000000   0.6928203   0.0000000  )
        50           C   tau(  50) = (   0.4000000   0.8082904   0.0000000  )

   Crystallographic axes

     site n.     atom                  positions (cryst. coord.)
         1           C   tau(   1) = (  0.0000000  0.0000000  0.0000000  )
         2           C   tau(   2) = (  0.0666667  0.1333333  0.0000000  )
         3           C   tau(   3) = (  0.0000000  0.2000000  0.0000000  )
         4           C   tau(   4) = (  0.0666667  0.3333333  0.0000000  )
         5           C   tau(   5) = (  0.0000000  0.4000000  0.0000000  )
         6           C   tau(   6) = (  0.0666667  0.5333333  0.0000000  )
         7           C   tau(   7) = (  0.0000000  0.6000000  0.0000000  )
         8           C   tau(   8) = (  0.0666667  0.7333333  0.0000000  )
         9           C   tau(   9) = (  0.0000000  0.8000000  0.0000000  )
        10           C   tau(  10) = (  0.0666667  0.9333333  0.0000000  )
        11           C   tau(  11) = (  0.2000000  0.0000000  0.0000000  )
        12           C   tau(  12) = (  0.2666667  0.1333333  0.0000000  )
        13           C   tau(  13) = (  0.2000000  0.2000000  0.0000000  )
        14           C   tau(  14) = (  0.2666667  0.3333333  0.0000000  )
        15           C   tau(  15) = (  0.2000000  0.4000000  0.0000000  )
        16           C   tau(  16) = (  0.2666667  0.5333333  0.0000000  )
        17           C   tau(  17) = (  0.2000000  0.6000000  0.0000000  )
        18           C   tau(  18) = (  0.2666667  0.7333333  0.0000000  )
        19           C   tau(  19) = (  0.2000000  0.8000000  0.0000000  )
        20           C   tau(  20) = (  0.2666667  0.9333333  0.0000000  )
        21           C   tau(  21) = (  0.4000000  0.0000000  0.0000000  )
        22           C   tau(  22) = (  0.4666667  0.1333333  0.0000000  )
        23           C   tau(  23) = (  0.4000000  0.2000000  0.0000000  )
        24           C   tau(  24) = (  0.4666667  0.3333333  0.0000000  )
        25           C   tau(  25) = (  0.4000000  0.4000000  0.0000000  )
        26           V   tau(  26) = (  0.4666667  0.5333333  0.0000000  )
[...]
     atom   21 type  1   force =     0.26719562    0.15426487    0.00000000
     atom   22 type  1   force =    -0.41270188    0.11607183    0.00000000
     atom   23 type  1   force =    -0.03791574    1.01261642    0.00000000
     atom   24 type  1   force =    -1.68395736    0.99951496    0.00000000
     atom   25 type  1   force =     0.00000027    4.41846485    0.00000000
     atom   26 type  2   force =     0.00000043   -0.00000033   -0.00000000
     atom   27 type  1   force =     3.82650045   -2.20923107   -0.00000000
     atom   28 type  1   force =     0.02362583   -1.95810825    0.00000000
     atom   29 type  1   force =     0.85799316   -0.53914448   -0.00000000
     atom   30 type  1   force =    -0.10583017   -0.41544643    0.00000000
     atom   31 type  1   force =    -0.05291192   -0.15519382    0.00000000
     atom   32 type  1   force =    -0.10987669   -0.06343747   -0.00000000
     atom   33 type  1   force =    -0.16085763    0.03177366   -0.00000000
     atom   34 type  1   force =    -0.62366537    0.36007337    0.00000000
     atom   35 type  1   force =    -0.71600950    0.41338828    0.00000000
     atom   36 type  1   force =    -1.70758403    0.95859237   -0.00000000
     atom   37 type  1   force =    -3.82650267   -2.20923266    0.00000000
     atom   38 type  1   force =    -0.02362704   -1.95810634    0.00000000
     atom   39 type  1   force =     0.00000129   -0.82677619   -0.00000000
     atom   40 type  1   force =     0.00000052   -0.72014692   -0.00000000
     atom   41 type  1   force =     0.05291207   -0.15519417   -0.00000000
     atom   42 type  1   force =     0.10987622   -0.06343707   -0.00000000
     atom   43 type  1   force =     0.00000072   -0.00000042    0.00000000
     atom   44 type  1   force =     0.00000011    0.12687473    0.00000000
     atom   45 type  1   force =    -0.10794562    0.12341996    0.00000000
     atom   46 type  1   force =    -0.30687209    0.29937440    0.00000000
     atom   47 type  1   force =    -0.89590942   -0.47347221    0.00000000
     atom   48 type  1   force =    -0.26327664   -0.15200270    0.00000000
     atom   49 type  1   force =    -0.85799418   -0.53914383   -0.00000000
     atom   50 type  1   force =     0.10582961   -0.41544617    0.00000000
     The core correction contribution to forces
     atom    1 type  1   force =    -0.00070781    0.00040865    0.00000000
     atom    2 type  1   force =     0.00026096   -0.00038635    0.00000000
     atom    3 type  1   force =    -0.00067099   -0.00025370   -0.00000000
     atom    4 type  1   force =     0.00059187    0.00034172    0.00000000
     atom    5 type  1   force =    -0.00055521   -0.00045424    0.00000000
     atom    6 type  1   force =    -0.00020411    0.00041919    0.00000000
     atom    7 type  1   force =     0.00000001   -0.00081730    0.00000000
     atom    8 type  1   force =    -0.00000000    0.00012473   -0.00000000
     atom    9 type  1   force =    -0.00036330   -0.00020975    0.00000000
     atom   10 type  1   force =     0.00010802   -0.00006237   -0.00000000
     atom   11 type  1   force =     0.00000000    0.00041950   -0.00000000
     atom   12 type  1   force =    -0.00000000   -0.00077726   -0.00000000
     atom   13 type  1   force =    -0.00124718    0.00057905   -0.00000000
     atom   14 type  1   force =     0.00021299   -0.00162104    0.00000000
     atom   15 type  1   force =    -0.00158831   -0.00091700   -0.00000000
     atom   16 type  1   force =    -0.00129737    0.00099498    0.00000000
     atom   17 type  1   force =    -0.00012211   -0.00136962   -0.00000000
     atom   18 type  1   force =    -0.00067313    0.00038863   -0.00000000
     atom   19 type  1   force =     0.00036329   -0.00020975    0.00000000
     atom   20 type  1   force =    -0.00010802   -0.00006236   -0.00000000
     atom   21 type  1   force =     0.00070781    0.00040864    0.00000000
     atom   22 type  1   force =    -0.00026096   -0.00038635    0.00000000
     atom   23 type  1   force =     0.00124718    0.00057906   -0.00000000
     atom   24 type  1   force =    -0.00021298   -0.00162105    0.00000000
     atom   25 type  1   force =     0.00000001    0.00595784    0.00000000
     atom   26 type  2   force =    -0.00000002    0.00000001    0.00000000
     atom   27 type  1   force =     0.00515964   -0.00297892    0.00000000
     atom   28 type  1   force =    -0.00151036    0.00062606    0.00000000
     atom   29 type  1   force =     0.00112507    0.00079056   -0.00000000
     atom   30 type  1   force =    -0.00046508   -0.00003283    0.00000000
     atom   31 type  1   force =     0.00011578    0.00070794   -0.00000000
     atom   32 type  1   force =     0.00042140    0.00024328    0.00000000
     atom   33 type  1   force =     0.00067099   -0.00025370   -0.00000000
     atom   34 type  1   force =    -0.00059186    0.00034171    0.00000000
     atom   35 type  1   force =     0.00158831   -0.00091701   -0.00000000
     atom   36 type  1   force =     0.00129737    0.00099497    0.00000000
     atom   37 type  1   force =    -0.00515963   -0.00297893    0.00000000
     atom   38 type  1   force =     0.00151036    0.00062607    0.00000000
     atom   39 type  1   force =    -0.00000001    0.00183401   -0.00000000
     atom   40 type  1   force =    -0.00000000   -0.00068343    0.00000000
     atom   41 type  1   force =    -0.00011578    0.00070794   -0.00000000
     atom   42 type  1   force =    -0.00042140    0.00024330    0.00000000
     atom   43 type  1   force =     0.00000001   -0.00000001   -0.00000000
     atom   44 type  1   force =     0.00000001   -0.00048658    0.00000000
     atom   45 type  1   force =     0.00055521   -0.00045425    0.00000000
     atom   46 type  1   force =     0.00020411    0.00041918    0.00000000
     atom   47 type  1   force =     0.00012210   -0.00136962   -0.00000000
     atom   48 type  1   force =     0.00067313    0.00038863   -0.00000000
     atom   49 type  1   force =    -0.00112506    0.00079056   -0.00000000
     atom   50 type  1   force =     0.00046507   -0.00003282    0.00000000
     The Hubbard contrib.    to forces
     atom    1 type  1   force =     0.00000000    0.00000000    0.00000000
     atom    2 type  1   force =     0.00000000    0.00000000    0.00000000
     atom    3 type  1   force =     0.00000000    0.00000000    0.00000000
     atom    4 type  1   force =     0.00000000    0.00000000    0.00000000
     atom    5 type  1   force =     0.00000000    0.00000000    0.00000000
     atom    6 type  1   force =     0.00000000    0.00000000    0.00000000
     atom    7 type  1   force =     0.00000000    0.00000000    0.00000000
     atom    8 type  1   force =     0.00000000    0.00000000    0.00000000
     atom    9 type  1   force =     0.00000000    0.00000000    0.00000000
     atom   10 type  1   force =     0.00000000    0.00000000    0.00000000
     atom   11 type  1   force =     0.00000000    0.00000000    0.00000000
     atom   12 type  1   force =     0.00000000    0.00000000    0.00000000
     atom   13 type  1   force =     0.00000000    0.00000000    0.00000000
     atom   14 type  1   force =     0.00000000    0.00000000    0.00000000
     atom   15 type  1   force =     0.00000000    0.00000000    0.00000000
     atom   16 type  1   force =     0.00000000    0.00000000    0.00000000
     atom   17 type  1   force =     0.00000000    0.00000000    0.00000000
     atom   18 type  1   force =     0.00000000    0.00000000    0.00000000
     atom   19 type  1   force =     0.00000000    0.00000000    0.00000000
     atom   20 type  1   force =     0.00000000    0.00000000    0.00000000
     atom   21 type  1   force =     0.00000000    0.00000000    0.00000000
     atom   22 type  1   force =     0.00000000    0.00000000    0.00000000
     atom   23 type  1   force =     0.00000000    0.00000000    0.00000000
     atom   24 type  1   force =     0.00000000    0.00000000    0.00000000
     atom   25 type  1   force =     0.00000000    0.00000000    0.00000000
     atom   26 type  2   force =     0.00000000    0.00000000    0.00000000
     atom   27 type  1   force =     0.00000000    0.00000000    0.00000000
     atom   28 type  1   force =     0.00000000    0.00000000    0.00000000
     atom   29 type  1   force =     0.00000000    0.00000000    0.00000000
     atom   30 type  1   force =     0.00000000    0.00000000    0.00000000
     atom   31 type  1   force =     0.00000000    0.00000000    0.00000000
     atom   32 type  1   force =     0.00000000    0.00000000    0.00000000
     atom   33 type  1   force =     0.00000000    0.00000000    0.00000000
     atom   34 type  1   force =     0.00000000    0.00000000    0.00000000
     atom   35 type  1   force =     0.00000000    0.00000000    0.00000000
     atom   36 type  1   force =     0.00000000    0.00000000    0.00000000
     atom   37 type  1   force =     0.00000000    0.00000000    0.00000000
     atom   38 type  1   force =     0.00000000    0.00000000    0.00000000
     atom   39 type  1   force =     0.00000000    0.00000000    0.00000000
     atom   40 type  1   force =     0.00000000    0.00000000    0.00000000
     atom   41 type  1   force =     0.00000000    0.00000000    0.00000000
     atom   42 type  1   force =     0.00000000    0.00000000    0.00000000
     atom   43 type  1   force =     0.00000000    0.00000000    0.00000000
     atom   44 type  1   force =     0.00000000    0.00000000    0.00000000
     atom   45 type  1   force =     0.00000000    0.00000000    0.00000000
     atom   46 type  1   force =     0.00000000    0.00000000    0.00000000
     atom   47 type  1   force =     0.00000000    0.00000000    0.00000000
     atom   48 type  1   force =     0.00000000    0.00000000    0.00000000
     atom   49 type  1   force =     0.00000000    0.00000000    0.00000000
     atom   50 type  1   force =     0.00000000    0.00000000    0.00000000
     The SCF correction term to forces
     atom    1 type  1   force =     0.00000004   -0.00000002   -0.00000000
     atom    2 type  1   force =     0.00000013    0.00000003   -0.00000000
     atom    3 type  1   force =    -0.00000000    0.00000006   -0.00000000
     atom    4 type  1   force =    -0.00000004   -0.00000008   -0.00000000
     atom    5 type  1   force =    -0.00000003   -0.00000007   -0.00000000
     atom    6 type  1   force =    -0.00000008    0.00000005   -0.00000000
     atom    7 type  1   force =    -0.00000011    0.00000010   -0.00000000
     atom    8 type  1   force =    -0.00000009   -0.00000002   -0.00000000
     atom    9 type  1   force =    -0.00000004   -0.00000017   -0.00000000
     atom   10 type  1   force =     0.00000002   -0.00000001   -0.00000000
     atom   11 type  1   force =     0.00000013    0.00000012   -0.00000000
     atom   12 type  1   force =     0.00000008    0.00000001   -0.00000000
     atom   13 type  1   force =     0.00000011   -0.00000003   -0.00000000
     atom   14 type  1   force =     0.00000013   -0.00000003   -0.00000000
     atom   15 type  1   force =     0.00000008   -0.00000013   -0.00000000
     atom   16 type  1   force =     0.00000003   -0.00000011   -0.00000000
     atom   17 type  1   force =    -0.00000019   -0.00000003   -0.00000000
     atom   18 type  1   force =    -0.00000016    0.00000009   -0.00000000
     atom   19 type  1   force =    -0.00000016    0.00000009   -0.00000000
     atom   20 type  1   force =    -0.00000003    0.00000008   -0.00000000
     atom   21 type  1   force =    -0.00000014    0.00000005   -0.00000000
     atom   22 type  1   force =    -0.00000015    0.00000009   -0.00000000
     atom   23 type  1   force =    -0.00000000    0.00000009   -0.00000000
     atom   24 type  1   force =     0.00000003    0.00000000   -0.00000000
     atom   25 type  1   force =     0.00000017   -0.00000019   -0.00000000
     atom   26 type  2   force =     0.00000063   -0.00000036   -0.00000000
     atom   27 type  1   force =    -0.00000002    0.00000001   -0.00000000
     atom   28 type  1   force =     0.00000011    0.00000003   -0.00000000
     atom   29 type  1   force =    -0.00000007    0.00000018   -0.00000000
     atom   30 type  1   force =    -0.00000009    0.00000005   -0.00000000
     atom   31 type  1   force =     0.00000004    0.00000006   -0.00000000
     atom   32 type  1   force =    -0.00000006    0.00000004   -0.00000000
     atom   33 type  1   force =    -0.00000006    0.00000011   -0.00000000
     atom   34 type  1   force =    -0.00000006    0.00000004   -0.00000000
     atom   35 type  1   force =    -0.00000010    0.00000006   -0.00000000
     atom   36 type  1   force =     0.00000001   -0.00000002   -0.00000000
     atom   37 type  1   force =     0.00000025   -0.00000005   -0.00000000
     atom   38 type  1   force =     0.00000009   -0.00000009   -0.00000000
     atom   39 type  1   force =     0.00000016   -0.00000001   -0.00000000
     atom   40 type  1   force =     0.00000005    0.00000007   -0.00000000
     atom   41 type  1   force =    -0.00000006   -0.00000003   -0.00000000
     atom   42 type  1   force =     0.00000000   -0.00000000   -0.00000000
     atom   43 type  1   force =    -0.00000005    0.00000003   -0.00000000
     atom   44 type  1   force =    -0.00000006    0.00000003   -0.00000000
     atom   45 type  1   force =    -0.00000012   -0.00000000   -0.00000000
     atom   46 type  1   force =    -0.00000015    0.00000008   -0.00000000
     atom   47 type  1   force =    -0.00000008   -0.00000004   -0.00000000
     atom   48 type  1   force =     0.00000003   -0.00000007   -0.00000000
     atom   49 type  1   force =     0.00000008   -0.00000008   -0.00000000
     atom   50 type  1   force =     0.00000004   -0.00000012   -0.00000000

     Total force =     0.002050     Total SCF correction =     0.000001

     bfgs converged in   9 scf cycles and   8 bfgs steps
     (criteria: energy <  1.0E-04 Ry, force <  1.0E-03 Ry/Bohr)

     End of BFGS Geometry Optimization

     Final energy   =    -755.6768717184 Ry
Begin final coordinates

ATOMIC_POSITIONS (angstrom)
C        0.003275296  -0.001890993   0.000000000
C       -0.025501113   1.396638852   0.000000000
C       -1.245420015   2.124268618  -0.000000000
C       -1.248423385   3.549242668  -0.000000000
C       -2.480985444   4.264330717  -0.000000000
C       -2.501171853   5.684626385   0.000000000
C       -3.697945994   6.408812411  -0.000000000
C       -3.697946015   7.830337208  -0.000000000
C       -4.918917234   8.546782537   0.000000000
C       -4.928891502   9.962397279   0.000000000
C        2.465297335  -0.013483985   0.000000000
C        2.465297349   1.390010344  -0.000000000
C        1.201122805   2.067980935  -0.000000000
C        1.179320622   3.461135856  -0.000000000
C       -0.033051794   4.250937729  -0.000000000
C       -0.110854062   5.695784183  -0.000000000
C       -1.306460621   6.411242840  -0.000000000
C       -1.261513065   7.845035352   0.000000000
C       -2.476974844   8.546782537   0.000000000
C       -2.467000575   9.962397252   0.000000000
C        4.927319397  -0.001891033   0.000000000
C        4.956095797   1.396638845   0.000000000
C        3.729471877   2.067980930   0.000000000
C        3.751274015   3.461135859  -0.000000000
C        2.465297330   3.970196412  -0.000000000
V        2.465297413   5.693360319   0.000000000
C        0.972993542   6.554942360   0.000000000
C        1.175122547   7.923161008   0.000000000
C       -0.042286105   8.600857332   0.000000000
C       -0.010373411   9.998815837  -0.000000000
C        7.392975297   0.016431062   0.000000000
C        7.404337571   1.428216104   0.000000000
C        6.176014740   2.124268595  -0.000000000
C        6.179018107   3.549242676   0.000000000
C        4.963646516   4.250937791   0.000000000
C        5.041448803   5.695784143   0.000000000
C        3.957601089   6.554942343  -0.000000000
C        3.755472109   7.923161119  -0.000000000
C        2.465297415   8.578205493   0.000000000
C        2.465297368   9.981595698   0.000000000
C        9.864106155   0.016431062  -0.000000000
C        9.852743876   1.428216115   0.000000000
C        8.628540776   2.135010104   0.000000000
C        8.628540733   3.548598179  -0.000000000
C        7.411580178   4.264330708  -0.000000000
C        7.431766554   5.684626379  -0.000000000
C        6.237055293   6.411242812   0.000000000
C        6.192107780   7.845035361  -0.000000000
C        4.972880753   8.600857336   0.000000000
C        4.940968093   9.998815851  -0.000000000
End final coordinates

     Writing output data file vacancia-vanadio.save/

     General routines

     Parallel routines

   This run was terminated on:  19:31:38   5Mar2023

   JOB DONE.