     Program PWSCF v.6.4.1 starts on 17Aug2023 at 22:14:52

     R & G space division:  proc/nbgrp/npool/nimage =       6
     Reading input from grafeno3x3.in

     Current dimensions of program PWSCF are:
     Max number of different atomic species (ntypx) = 10
     Max number of k-points (npk) =  40000
     Max angular momentum in pseudopotentials (lmaxx) =  3

     IMPORTANT: XC functional enforced from input :
     Exchange-correlation      = RVV10 ( 1  4 13  4 3 0)
     Any further DFT definition will be discarded
     Please, verify this is what you really want

     Subspace diagonalization in iterative solution of the eigenvalue problem:
     a serial algorithm will be used

     Found symmetry operation: I + (  0.0000  0.3333  0.0000)
     This is a supercell, fractional translations are disabled

     bravais-lattice index     =            4
     lattice parameter (alat)  =      13.9762  a.u.
     unit-cell volume          =    3196.7546 (a.u.)^3
     number of atoms/cell      =           18
     number of atomic types    =            1
     number of electrons       =        72.00
     number of Kohn-Sham states=           43
     kinetic-energy cutoff     =      70.0000  Ry
     charge density cutoff     =     490.0000  Ry
     convergence threshold     =      1.0E-09
     mixing beta               =       0.2000
     number of iterations used =            8  plain     mixing
     Exchange-correlation      = RVV10 ( 1  4 13  4 3 0)
     nstep                     =           50

     celldm(1)=  13.976226  celldm(2)=   0.000000  celldm(3)=   1.352100
     celldm(4)=   0.000000  celldm(5)=   0.000000  celldm(6)=   0.000000

     crystal axes: (cart. coord. in units of alat)
               a(1) = (   1.000000   0.000000   0.000000 )
               a(2) = (  -0.500000   0.866025   0.000000 )
               a(3) = (   0.000000   0.000000   1.352100 )

     reciprocal axes: (cart. coord. in units 2 pi/alat)
               b(1) = (  1.000000  0.577350 -0.000000 )
               b(2) = (  0.000000  1.154701  0.000000 )
               b(3) = (  0.000000 -0.000000  0.739590 )

     PseudoPot. # 1 for C  read from file:
     /home/cristian/Escritorio/Proyecto_Grafeno/pseudopotenciales/C.pbe-n-rrkjus_psl.1.0.0.UPF
     MD5 check sum: 1fdd950c42eb37d8afe3dd2f8d12311e
     Pseudo is Ultrasoft + core correction, Zval =  4.0
     Generated using "atomic" code by A. Dal Corso v.6.3MaX
     Using radial grid of 1073 points,  4 beta functions with:
                l(1) =   0
                l(2) =   0
                l(3) =   1
                l(4) =   1
     Q(r) pseudized with 0 coefficients

     vdW kernel table read from file rVV10_kernel_table
     MD5 check sum: b8e2538accc0c0b3206b45ba4daaba6c

     atomic species   valence    mass     pseudopotential
        C              4.00    12.01070     C ( 1.00)

     12 Sym. Ops. (no inversion) found

   Cartesian axes

     site n.     atom                  positions (alat units)
         1           C   tau(   1) = (   0.0000000   0.0000000   0.0000000  )
         2           C   tau(   2) = (   0.0000000   0.1924499   0.0000000  )
         3           C   tau(   3) = (  -0.1666665   0.2886748   0.0000000  )
         4           C   tau(   4) = (  -0.1666665   0.4811247   0.0000000  )
         5           C   tau(   5) = (  -0.3333330   0.5773496   0.0000000  )
         6           C   tau(   6) = (  -0.3333330   0.7697995   0.0000000  )
         7           C   tau(   7) = (   0.3333330   0.0000000   0.0000000  )
         8           C   tau(   8) = (   0.3333330   0.1924499   0.0000000  )
         9           C   tau(   9) = (   0.1666665   0.2886748   0.0000000  )
        10           C   tau(  10) = (   0.1666665   0.4811247   0.0000000  )
        11           C   tau(  11) = (   0.0000000   0.5773496   0.0000000  )
        12           C   tau(  12) = (   0.0000000   0.7697995   0.0000000  )
        13           C   tau(  13) = (   0.6666660   0.0000000   0.0000000  )
        14           C   tau(  14) = (   0.6666660   0.1924499   0.0000000  )
        15           C   tau(  15) = (   0.4999995   0.2886748   0.0000000  )
        16           C   tau(  16) = (   0.4999995   0.4811247   0.0000000  )
        17           C   tau(  17) = (   0.3333330   0.5773496   0.0000000  )
        18           C   tau(  18) = (   0.3333330   0.7697995   0.0000000  )

     number of k points=     4  Marzari-Vanderbilt smearing, width (Ry)=  0.0010
                       cart. coord. in units 2pi/alat
        k(    1) = (   0.0000000   0.0000000   0.0000000), wk =   0.1250000
        k(    2) = (   0.0000000   0.2886751   0.0000000), wk =   0.7500000
        k(    3) = (   0.0000000  -0.5773503   0.0000000), wk =   0.3750000
        k(    4) = (   0.2500000   0.4330127   0.0000000), wk =   0.7500000

     Check: negative core charge=   -0.000002

     Initial potential from superposition of free atoms

     starting charge   71.99925, renormalised to   72.00000

     negative rho (up, down):  3.111E-05 0.000E+00

Carrying out rVV10 run using the following parameters:
Nqs =      20    Nr_points =    1024   r_max =   100.000
b_value =  6.30000    beta =  0.00901
     q_mesh =  0.00010000  0.00030000  0.00058939  0.00100810
               0.00161396  0.00249058  0.00375900  0.00559430
               0.00824984  0.01209221  0.01765183  0.02569619
               0.03733578  0.05417739  0.07854596  0.11380545
               0.16482331  0.23864234  0.34545298  0.50000000

Gradients computed in Reciprocal space

     Starting wfcs are   72 randomized atomic wfcs

     Self-consistent Calculation

     iteration #  1     ecut=    70.00 Ry     beta= 0.20
     Davidson diagonalization with overlap
     ethr =  1.00E-02,  avg # of iterations =  2.0

[...]

     total energy              =    -224.75228715 Ry
     Harris-Foulkes estimate   =    -225.19902256 Ry
     estimated scf accuracy    <       1.89920288 Ry

[...]

     total energy              =    -224.38412705 Ry
     Harris-Foulkes estimate   =    -224.38412691 Ry
     estimated scf accuracy    <          2.6E-09 Ry

     iteration # 12     ecut=    70.00 Ry     beta= 0.20
     Davidson diagonalization with overlap
     ethr =  3.60E-12,  avg # of iterations =  2.0

[...]

     End of self-consistent calculation

          k = 0.0000 0.0000 0.0000 ( 31593 PWs)   bands (ev):

   -19.9336 -17.3611 -17.3611 -17.3610 -17.3610 -17.3609 -17.3609 -13.0551
   -13.0551 -13.0550 -13.0550 -10.9719 -10.9719 -10.0894 -10.0893 -10.0893
   -10.0892 -10.0891 -10.0891  -8.0668  -6.2723  -6.2723  -6.2723  -6.2722
    -6.2721  -6.2721  -5.0657  -5.0657  -5.0656  -5.0656  -5.0655  -5.0655
    -3.5540  -3.5540  -0.4319  -0.4319  -0.4318  -0.4318   2.4143   4.4624
     4.4624   4.4625   4.4625

[...]

          k = 0.2500 0.4330 0.0000 ( 31601 PWs)   bands (ev):

   -19.4445 -18.7968 -18.7967 -16.8928 -16.8927 -15.6714 -15.1142 -15.1141
   -14.3086 -13.2693 -13.0100 -13.0099 -10.9974  -9.9601  -9.9600  -9.3943
    -8.6920  -7.9322  -7.9321  -7.4805  -7.3805  -7.3804  -6.9182  -6.9181
    -6.7118  -6.7117  -5.5412  -5.5412  -5.2220  -4.5545  -4.5192  -4.5192
    -3.1751  -2.9009  -2.9008  -2.1953   1.0116   1.5099   1.5100   2.3822
     3.0854   3.9917   3.9917

     the Fermi energy is    -0.4300 ev

!    total energy              =    -224.38412750 Ry
     Harris-Foulkes estimate   =    -224.38412705 Ry
     estimated scf accuracy    <          5.9E-11 Ry

     The total energy is the sum of the following terms:

     one-electron contribution =    -814.60714838 Ry
     hartree contribution      =     423.80655769 Ry
     xc contribution           =     -84.20578511 Ry
     ewald contribution        =     250.62233034 Ry
     smearing contrib. (-TS)   =      -0.00008205 Ry

     convergence has been achieved in  12 iterations

     negative rho (up, down):  2.896E-04 0.000E+00

     Forces acting on atoms (cartesian axes, Ry/au):

     atom    1 type  1   force =     0.00000000    0.00000000    0.00000000
     atom    2 type  1   force =    -0.00000000   -0.00001719    0.00000000
     atom    3 type  1   force =    -0.00010156   -0.00013637    0.00000000
     atom    4 type  1   force =     0.00013994    0.00008079    0.00000000
     atom    5 type  1   force =    -0.00016888   -0.00001977    0.00000000
     atom    6 type  1   force =    -0.00001489    0.00000860    0.00000000
     atom    7 type  1   force =    -0.00006732    0.00015614    0.00000000
     atom    8 type  1   force =    -0.00015424   -0.00008905    0.00000000
     atom    9 type  1   force =     0.00010156   -0.00013637   -0.00000000
     atom   10 type  1   force =    -0.00013994    0.00008079    0.00000000
     atom   11 type  1   force =    -0.00000000   -0.00000000    0.00000000
     atom   12 type  1   force =     0.00000000   -0.00016159    0.00000000
     atom   13 type  1   force =     0.00006732    0.00015614    0.00000000
     atom   14 type  1   force =     0.00015424   -0.00008905    0.00000000
     atom   15 type  1   force =     0.00000000    0.00000000    0.00000000
     atom   16 type  1   force =     0.00000000    0.00017810   -0.00000000
     atom   17 type  1   force =     0.00016888   -0.00001977    0.00000000
     atom   18 type  1   force =     0.00001489    0.00000860    0.00000000

     Total force =     0.000590     Total SCF correction =     0.000013

     BFGS Geometry Optimization

     bfgs converged in   1 scf cycles and   0 bfgs steps
     (criteria: energy <  1.0E-04 Ry, force <  1.0E-03 Ry/Bohr)

     End of BFGS Geometry Optimization

     Final energy   =    -224.3841275008 Ry
Begin final coordinates

ATOMIC_POSITIONS (angstrom)
C        0.000000000   0.000000000   0.000000000
C        0.000000000   1.423340089   0.000000000
C       -1.232648675   2.135010133   0.000000000
C       -1.232648675   3.558350222   0.000000000
C       -2.465297350   4.270020266   0.000000000
C       -2.465297350   5.693360355   0.000000000
C        2.465297350   0.000000000   0.000000000
C        2.465297350   1.423340089   0.000000000
C        1.232648675   2.135010133   0.000000000
C        1.232648675   3.558350222   0.000000000
C        0.000000000   4.270020266   0.000000000
C        0.000000000   5.693360355   0.000000000
C        4.930594700   0.000000000   0.000000000
C        4.930594700   1.423340089   0.000000000
C        3.697946025   2.135010133   0.000000000
C        3.697946025   3.558350222   0.000000000
C        2.465297350   4.270020266   0.000000000
C        2.465297350   5.693360355   0.000000000
End final coordinates

     Writing output data file gr-3x3.save/

     General routines

     Parallel routines

   This run was terminated on:  22:17: 8  17Aug2023

   JOB DONE.