     Program PWSCF v.6.4.1 starts on  9Jan2023 at 10:27:59

     R & G space division:  proc/nbgrp/npool/nimage =       6
     Reading input from distance-5.0.in

     Current dimensions of program PWSCF are:
     Max number of different atomic species (ntypx) = 10
     Max number of k-points (npk) =  40000
     Max angular momentum in pseudopotentials (lmaxx) =  3

     IMPORTANT: XC functional enforced from input :
     Exchange-correlation      = RVV10 ( 1  4 13  4 3 0)
     Any further DFT definition will be discarded
     Please, verify this is what you really want

               file H.pbe-rrkjus.UPF: wavefunction(s)  1S renormalized

     Subspace diagonalization in iterative solution of the eigenvalue problem:
     a serial algorithm will be used

     bravais-lattice index     =            4
     lattice parameter (alat)  =      23.2937  a.u.
     unit-cell volume          =    8879.8548 (a.u.)^3
     number of atoms/cell      =           52
     number of atomic types    =            3
     number of electrons       =       214.00
     number of Kohn-Sham states=          128
     kinetic-energy cutoff     =      70.0000  Ry
     charge density cutoff     =     490.0000  Ry
     convergence threshold     =      1.0E-06
     mixing beta               =       0.7000
     number of iterations used =            8  plain     mixing
     Exchange-correlation      = RVV10 ( 1  4 13  4 3 0)

     celldm(1)=  23.293684  celldm(2)=   0.000000  celldm(3)=   0.811261
     celldm(4)=   0.000000  celldm(5)=   0.000000  celldm(6)=   0.000000

     crystal axes: (cart. coord. in units of alat)
               a(1) = (   1.000000   0.000000   0.000000 )
               a(2) = (  -0.500000   0.866025   0.000000 )
               a(3) = (   0.000000   0.000000   0.811261 )

     reciprocal axes: (cart. coord. in units 2 pi/alat)
               b(1) = (  1.000000  0.577350 -0.000000 )
               b(2) = (  0.000000  1.154701  0.000000 )
               b(3) = (  0.000000 -0.000000  1.232649 )

     PseudoPot. # 1 for H  read from file:
     /home/cristian/Escritorio/Proyecto_Grafeno/pseudopotenciales/H.pbe-rrkjus.UPF
     MD5 check sum: 7cc9d459525c9a0585f487a71c3c9563
     Pseudo is Ultrasoft, Zval =  1.0
     Generated by new atomic code, or converted to UPF format
     Using radial grid of 1061 points,  2 beta functions with:
                l(1) =   0
                l(2) =   0
     Q(r) pseudized with 0 coefficients

     PseudoPot. # 2 for C  read from file:
     /home/cristian/Escritorio/Proyecto_Grafeno/pseudopotenciales/C.pbe-n-rrkjus_psl.1.0.0.UPF
     MD5 check sum: 1fdd950c42eb37d8afe3dd2f8d12311e
     Pseudo is Ultrasoft + core correction, Zval =  4.0
     Generated using "atomic" code by A. Dal Corso v.6.3MaX
     Using radial grid of 1073 points,  4 beta functions with:
                l(1) =   0
                l(2) =   0
                l(3) =   1
                l(4) =   1
     Q(r) pseudized with 0 coefficients

     PseudoPot. # 3 for Fe read from file:
     /home/cristian/Escritorio/Proyecto_Grafeno/pseudopotenciales/Fe.pbe-spn-rrkjus_psl.1.0.0.UPF
     MD5 check sum: 72ea77fed8e64ab3a2ccf2804dfc1862
     Pseudo is Ultrasoft + core correction, Zval = 16.0
     Generated using "atomic" code by A. Dal Corso v.6.3
     Using radial grid of 1191 points,  6 beta functions with:
                l(1) =   0
                l(2) =   0
                l(3) =   1
                l(4) =   1
                l(5) =   2
                l(6) =   2
     Q(r) pseudized with 0 coefficients

     vdW kernel table read from file rVV10_kernel_table
     MD5 check sum: b8e2538accc0c0b3206b45ba4daaba6c

     atomic species   valence    mass     pseudopotential
        H              1.00     1.00794     H ( 1.00)
        C              4.00    12.01070     C ( 1.00)
        Fe            16.00    55.84500     Fe( 1.00)

     Starting magnetic structure
     atomic species   magnetization
        H            0.500
        C            0.300
        Fe           0.800

      2 Sym. Ops. (no inversion) found

                                    s                        frac. trans.

      isym =  1     identity

 cryst.   s( 1) = (     1          0          0      )
                  (     0          1          0      )
                  (     0          0          1      )

 cart.    s( 1) = (  1.0000000  0.0000000  0.0000000 )
                  (  0.0000000  1.0000000  0.0000000 )
                  (  0.0000000  0.0000000  1.0000000 )

      isym =  2     inv. 180 deg rotation - cart. axis [0,0,1]

 cryst.   s( 2) = (     1          0          0      )
                  (     0          1          0      )
                  (     0          0         -1      )

 cart.    s( 2) = (  1.0000000  0.0000000  0.0000000 )
                  (  0.0000000  1.0000000  0.0000000 )
                  (  0.0000000  0.0000000 -1.0000000 )

     point group C_s (m)
     there are  2 classes
     the character table:

       E     s
A'     1.00  1.00
A''    1.00 -1.00

     the symmetry operations in each class and the name of the first element:

     E        1
          identity
     s        2
          inv. 180 deg rotation - cart. axis [0,0,1]

   Cartesian axes

     site n.     atom                  positions (alat units)
         1           H   tau(   1) = (   0.2194937   0.4907477   0.4056306  )
         2           H   tau(   2) = (   0.2805063   0.4907477   0.4056306  )
         3           C   tau(   3) = (   0.0000000   0.0000000   0.0000000  )
         4           C   tau(   4) = (   0.0000000   0.1154701   0.0000000  )
         5           C   tau(   5) = (  -0.1000000   0.1732051   0.0000000  )
         6           C   tau(   6) = (  -0.1000000   0.2886751   0.0000000  )
         7           C   tau(   7) = (  -0.2000000   0.3464102   0.0000000  )
         8           C   tau(   8) = (  -0.2000000   0.4618802   0.0000000  )
         9           C   tau(   9) = (  -0.3000000   0.5196152   0.0000000  )
        10           C   tau(  10) = (  -0.3000000   0.6350853   0.0000000  )
        11           C   tau(  11) = (  -0.4000000   0.6928203   0.0000000  )
        12           C   tau(  12) = (  -0.4000000   0.8082904   0.0000000  )
        13           C   tau(  13) = (   0.2000000   0.0000000   0.0000000  )
        14           C   tau(  14) = (   0.2000000   0.1154701   0.0000000  )
        15           C   tau(  15) = (   0.1000000   0.1732051   0.0000000  )
        16           C   tau(  16) = (   0.1000000   0.2886751   0.0000000  )
        17           C   tau(  17) = (   0.0000000   0.3464102   0.0000000  )
        18           C   tau(  18) = (   0.0000000   0.4618802   0.0000000  )
        19           C   tau(  19) = (  -0.1000000   0.5196152   0.0000000  )
        20           C   tau(  20) = (  -0.1000000   0.6350853   0.0000000  )
        21           C   tau(  21) = (  -0.2000000   0.6928203   0.0000000  )
        22           C   tau(  22) = (  -0.2000000   0.8082904   0.0000000  )
        23           C   tau(  23) = (   0.4000000   0.0000000   0.0000000  )
        24           C   tau(  24) = (   0.4000000   0.1154701   0.0000000  )
        25           C   tau(  25) = (   0.3000000   0.1732051   0.0000000  )
        26           C   tau(  26) = (   0.3000000   0.2886751   0.0000000  )
        27           C   tau(  27) = (   0.2000000   0.3464102   0.0000000  )
        28           Fe  tau(  28) = (   0.2000000   0.4618802   0.0000000  )
        29           C   tau(  29) = (   0.1000000   0.5196152   0.0000000  )
        30           C   tau(  30) = (   0.1000000   0.6350853   0.0000000  )
        31           C   tau(  31) = (   0.0000000   0.6928203   0.0000000  )
        32           C   tau(  32) = (   0.0000000   0.8082904   0.0000000  )
        33           C   tau(  33) = (   0.6000000   0.0000000   0.0000000  )
        34           C   tau(  34) = (   0.6000000   0.1154701   0.0000000  )
        35           C   tau(  35) = (   0.5000000   0.1732051   0.0000000  )
        36           C   tau(  36) = (   0.5000000   0.2886751   0.0000000  )
        37           C   tau(  37) = (   0.4000000   0.3464102   0.0000000  )
        38           C   tau(  38) = (   0.4000000   0.4618802   0.0000000  )
        39           C   tau(  39) = (   0.3000000   0.5196152   0.0000000  )
        40           C   tau(  40) = (   0.3000000   0.6350853   0.0000000  )
        41           C   tau(  41) = (   0.2000000   0.6928203   0.0000000  )
        42           C   tau(  42) = (   0.2000000   0.8082904   0.0000000  )
        43           C   tau(  43) = (   0.8000000   0.0000000   0.0000000  )
        44           C   tau(  44) = (   0.8000000   0.1154701   0.0000000  )
        45           C   tau(  45) = (   0.7000000   0.1732051   0.0000000  )
        46           C   tau(  46) = (   0.7000000   0.2886751   0.0000000  )
        47           C   tau(  47) = (   0.6000000   0.3464102   0.0000000  )
        48           C   tau(  48) = (   0.6000000   0.4618802   0.0000000  )
        49           C   tau(  49) = (   0.5000000   0.5196152   0.0000000  )
        50           C   tau(  50) = (   0.5000000   0.6350853   0.0000000  )
        51           C   tau(  51) = (   0.4000000   0.6928203   0.0000000  )
        52           C   tau(  52) = (   0.4000000   0.8082904   0.0000000  )

   Crystallographic axes

     site n.     atom                  positions (cryst. coord.)
         1           H   tau(   1) = (  0.5028270  0.5666667  0.5000000  )
         2           H   tau(   2) = (  0.5638397  0.5666667  0.5000000  )
         3           C   tau(   3) = (  0.0000000  0.0000000  0.0000000  )
         4           C   tau(   4) = (  0.0666667  0.1333333  0.0000000  )
         5           C   tau(   5) = (  0.0000000  0.2000000  0.0000000  )
         6           C   tau(   6) = (  0.0666667  0.3333333  0.0000000  )
         7           C   tau(   7) = (  0.0000000  0.4000000  0.0000000  )
         8           C   tau(   8) = (  0.0666667  0.5333333  0.0000000  )
         9           C   tau(   9) = (  0.0000000  0.6000000  0.0000000  )
        10           C   tau(  10) = (  0.0666667  0.7333333  0.0000000  )
        11           C   tau(  11) = (  0.0000000  0.8000000  0.0000000  )
        12           C   tau(  12) = (  0.0666667  0.9333333  0.0000000  )
        13           C   tau(  13) = (  0.2000000  0.0000000  0.0000000  )
        14           C   tau(  14) = (  0.2666667  0.1333333  0.0000000  )
        15           C   tau(  15) = (  0.2000000  0.2000000  0.0000000  )
        16           C   tau(  16) = (  0.2666667  0.3333333  0.0000000  )
        17           C   tau(  17) = (  0.2000000  0.4000000  0.0000000  )
        18           C   tau(  18) = (  0.2666667  0.5333333  0.0000000  )
        19           C   tau(  19) = (  0.2000000  0.6000000  0.0000000  )
        20           C   tau(  20) = (  0.2666667  0.7333333  0.0000000  )
        21           C   tau(  21) = (  0.2000000  0.8000000  0.0000000  )
        22           C   tau(  22) = (  0.2666667  0.9333333  0.0000000  )
        23           C   tau(  23) = (  0.4000000  0.0000000  0.0000000  )
        24           C   tau(  24) = (  0.4666667  0.1333333  0.0000000  )
        25           C   tau(  25) = (  0.4000000  0.2000000  0.0000000  )
        26           C   tau(  26) = (  0.4666667  0.3333333  0.0000000  )
        27           C   tau(  27) = (  0.4000000  0.4000000  0.0000000  )
        28           Fe  tau(  28) = (  0.4666667  0.5333333  0.0000000  )
        29           C   tau(  29) = (  0.4000000  0.6000000  0.0000000  )
        30           C   tau(  30) = (  0.4666667  0.7333333  0.0000000  )
        31           C   tau(  31) = (  0.4000000  0.8000000  0.0000000  )
        32           C   tau(  32) = (  0.4666667  0.9333333  0.0000000  )
        33           C   tau(  33) = (  0.6000000  0.0000000  0.0000000  )
        34           C   tau(  34) = (  0.6666667  0.1333333  0.0000000  )
        35           C   tau(  35) = (  0.6000000  0.2000000  0.0000000  )
        36           C   tau(  36) = (  0.6666667  0.3333333  0.0000000  )
        37           C   tau(  37) = (  0.6000000  0.4000000  0.0000000  )
        38           C   tau(  38) = (  0.6666667  0.5333333  0.0000000  )
        39           C   tau(  39) = (  0.6000000  0.6000000  0.0000000  )
        40           C   tau(  40) = (  0.6666667  0.7333333  0.0000000  )
        41           C   tau(  41) = (  0.6000000  0.8000000  0.0000000  )
        42           C   tau(  42) = (  0.6666667  0.9333333  0.0000000  )
        43           C   tau(  43) = (  0.8000000  0.0000000  0.0000000  )
        44           C   tau(  44) = (  0.8666667  0.1333333  0.0000000  )
        45           C   tau(  45) = (  0.8000000  0.2000000  0.0000000  )
        46           C   tau(  46) = (  0.8666667  0.3333333  0.0000000  )
        47           C   tau(  47) = (  0.8000000  0.4000000  0.0000000  )
        48           C   tau(  48) = (  0.8666667  0.5333333  0.0000000  )
        49           C   tau(  49) = (  0.8000000  0.6000000  0.0000000  )
        50           C   tau(  50) = (  0.8666667  0.7333333  0.0000000  )
        51           C   tau(  51) = (  0.8000000  0.8000000  0.0000000  )
        52           C   tau(  52) = (  0.8666667  0.9333333  0.0000000  )

     number of k points=     1  Marzari-Vanderbilt smearing, width (Ry)=  0.0010
                       cart. coord. in units 2pi/alat
        k(    1) = (   0.0000000   0.0000000   0.0000000), wk =   1.0000000

                       cryst. coord.
        k(    1) = (   0.0000000   0.0000000   0.0000000), wk =   1.0000000

     Check: negative core charge=   -0.000002

     Initial potential from superposition of free atoms

     starting charge  213.80512, renormalised to  214.00000

     negative rho (up, down):  5.204E-05 7.794E-03

Carrying out rVV10 run using the following parameters:
Nqs =      20    Nr_points =    1024   r_max =   100.000
b_value =  6.30000    beta =  0.00901
     q_mesh =  0.00010000  0.00030000  0.00058939  0.00100810
               0.00161396  0.00249058  0.00375900  0.00559430
               0.00824984  0.01209221  0.01765183  0.02569619
               0.03733578  0.05417739  0.07854596  0.11380545
               0.16482331  0.23864234  0.34545298  0.50000000

Gradients computed in Reciprocal space

     Starting wfcs are  208 randomized atomic wfcs

     Self-consistent Calculation

     iteration #  1     ecut=    70.00 Ry     beta= 0.70
     Davidson diagonalization with overlap
     ethr =  1.00E-02,  avg # of iterations =  4.0

[...]

     total energy              =    -857.51077112 Ry
     Harris-Foulkes estimate   =    -858.63702293 Ry
     estimated scf accuracy    <      10.05362315 Ry

     total magnetization       =     6.00 Bohr mag/cell
     absolute magnetization    =     6.66 Bohr mag/cell

[...]

     total energy              =    -860.05300914 Ry
     Harris-Foulkes estimate   =    -860.05301711 Ry
     estimated scf accuracy    <       0.00003764 Ry

[...]

     iteration # 82     ecut=    70.00 Ry     beta= 0.70
     Davidson diagonalization with overlap
     ethr =  7.87E-09,  avg # of iterations =  3.0

     negative rho (up, down):  5.229E-04 7.408E-03

     Magnetic moment per site:
     atom:    1    charge:    0.2107    magn:   -0.0000    constr:    0.0000
     atom:    2    charge:    0.2111    magn:   -0.0000    constr:    0.0000
     atom:    3    charge:    1.7171    magn:   -0.0128    constr:    0.0000
     atom:    4    charge:    1.7153    magn:    0.0180    constr:    0.0000
     atom:    5    charge:    1.7177    magn:   -0.0089    constr:    0.0000
     atom:    6    charge:    1.7141    magn:    0.0059    constr:    0.0000
     atom:    7    charge:    1.7177    magn:   -0.0089    constr:    0.0000
     atom:    8    charge:    1.7153    magn:    0.0180    constr:    0.0000
     atom:    9    charge:    1.7172    magn:   -0.0128    constr:    0.0000
     atom:   10    charge:    1.7149    magn:    0.0588    constr:    0.0000
     atom:   11    charge:    1.7176    magn:   -0.0173    constr:    0.0000
     atom:   12    charge:    1.7150    magn:    0.0588    constr:    0.0000
     atom:   13    charge:    1.7176    magn:   -0.0174    constr:    0.0000
     atom:   14    charge:    1.7155    magn:    0.0461    constr:    0.0000
     atom:   15    charge:    1.7140    magn:   -0.0138    constr:    0.0000
     atom:   16    charge:    1.7106    magn:    0.0556    constr:    0.0000
     atom:   17    charge:    1.7228    magn:   -0.0122    constr:    0.0000
     atom:   18    charge:    1.7105    magn:    0.0555    constr:    0.0000
     atom:   19    charge:    1.7140    magn:   -0.0137    constr:    0.0000
     atom:   20    charge:    1.7155    magn:    0.0459    constr:    0.0000
     atom:   21    charge:    1.7176    magn:   -0.0173    constr:    0.0000
     atom:   22    charge:    1.7149    magn:    0.0588    constr:    0.0000
     atom:   23    charge:    1.7171    magn:   -0.0129    constr:    0.0000
     atom:   24    charge:    1.7153    magn:    0.0181    constr:    0.0000
     atom:   25    charge:    1.7140    magn:   -0.0138    constr:    0.0000
     atom:   26    charge:    1.7106    magn:    0.0557    constr:    0.0000
     atom:   27    charge:    1.8519    magn:   -0.0194    constr:    0.0000
     atom:   28    charge:   11.1426    magn:    0.4521    constr:    0.0000
     atom:   29    charge:    1.8518    magn:   -0.0193    constr:    0.0000
     atom:   30    charge:    1.7105    magn:    0.0556    constr:    0.0000
     atom:   31    charge:    1.7140    magn:   -0.0138    constr:    0.0000
     atom:   32    charge:    1.7153    magn:    0.0180    constr:    0.0000
     atom:   33    charge:    1.7177    magn:   -0.0089    constr:    0.0000
     atom:   34    charge:    1.7139    magn:    0.0128    constr:    0.0000
     atom:   35    charge:    1.7177    magn:   -0.0089    constr:    0.0000
     atom:   36    charge:    1.7141    magn:    0.0060    constr:    0.0000
     atom:   37    charge:    1.7228    magn:   -0.0123    constr:    0.0000
     atom:   38    charge:    1.7106    magn:    0.0557    constr:    0.0000
     atom:   39    charge:    1.8519    magn:   -0.0195    constr:    0.0000
     atom:   40    charge:    1.7106    magn:    0.0556    constr:    0.0000
     atom:   41    charge:    1.7228    magn:   -0.0123    constr:    0.0000
     atom:   42    charge:    1.7142    magn:    0.0059    constr:    0.0000
     atom:   43    charge:    1.7177    magn:   -0.0089    constr:    0.0000
     atom:   44    charge:    1.7139    magn:    0.0128    constr:    0.0000
     atom:   45    charge:    1.7236    magn:   -0.0053    constr:    0.0000
     atom:   46    charge:    1.7139    magn:    0.0128    constr:    0.0000
     atom:   47    charge:    1.7177    magn:   -0.0089    constr:    0.0000
     atom:   48    charge:    1.7153    magn:    0.0180    constr:    0.0000
     atom:   49    charge:    1.7140    magn:   -0.0138    constr:    0.0000
     atom:   50    charge:    1.7155    magn:    0.0460    constr:    0.0000
     atom:   51    charge:    1.7140    magn:   -0.0138    constr:    0.0000
     atom:   52    charge:    1.7153    magn:    0.0180    constr:    0.0000

     End of self-consistent calculation

 ------ SPIN UP ------------

          k = 0.0000 0.0000 0.0000 ( 87777 PWs)   bands (ev):

   -88.6774 -55.5661 -55.5656 -53.8494 -19.8782 -19.0431 -19.0429 -18.9576
   -18.9184 -18.9182 -18.5734 -17.1681 -17.1678 -17.1677 -17.0960 -17.0960
   -16.7911 -16.3214 -16.3213 -16.2201 -16.1677 -16.1676 -15.4757 -14.2229
   -14.2227 -14.1377 -14.0920 -14.0919 -13.4221 -13.1553 -13.1552 -13.1308
   -12.8505 -12.8505 -12.4419 -11.9335 -11.9334 -11.7458 -11.4981 -11.4980
   -10.6166  -9.7825  -9.7824  -9.5200  -9.4117  -9.4116  -9.3296  -9.2984
    -9.2982  -9.2856  -8.8189  -8.8188  -8.2750  -8.2749  -8.1865  -8.0260
    -7.9271  -7.5384  -7.5382  -7.3304  -7.2129  -7.2125  -7.0698  -7.0697
    -6.9382  -6.9147  -6.9142  -6.8019  -6.6600  -6.6599  -6.6300  -6.6172
    -6.6172  -6.5722  -6.5702  -6.3093  -5.7251  -5.7251  -5.6576  -5.6575
    -5.4714  -5.4713  -5.2620  -5.0824  -4.9724  -4.8359  -4.8095  -4.8093
    -4.5223  -4.5222  -4.4950  -4.3274  -4.3272  -3.9722  -3.9721  -3.8857
    -3.7762  -3.7761  -3.1991  -2.8858  -2.8855  -1.9677  -1.8993  -1.8991
    -1.2897  -1.2893  -1.0406  -0.8773   0.8297   0.8762   0.8764   1.4057
     1.4058   1.5167   2.4005   2.4015   2.5179   2.6715   2.6718   2.7708
     3.3071   3.3072   3.4474   3.5246   3.6724   3.7200   3.7229   3.7422

     occupation numbers
     1.0000   1.0000   1.0000   1.0000   1.0000   1.0000   1.0000   1.0000
     1.0000   1.0000   1.0000   1.0000   1.0000   1.0000   1.0000   1.0000
     1.0000   1.0000   1.0000   1.0000   1.0000   1.0000   1.0000   1.0000
     1.0000   1.0000   1.0000   1.0000   1.0000   1.0000   1.0000   1.0000
     1.0000   1.0000   1.0000   1.0000   1.0000   1.0000   1.0000   1.0000
     1.0000   1.0000   1.0000   1.0000   1.0000   1.0000   1.0000   1.0000
     1.0000   1.0000   1.0000   1.0000   1.0000   1.0000   1.0000   1.0000
     1.0000   1.0000   1.0000   1.0000   1.0000   1.0000   1.0000   1.0000
     1.0000   1.0000   1.0000   1.0000   1.0000   1.0000   1.0000   1.0000
     1.0000   1.0000   1.0000   1.0000   1.0000   1.0000   1.0000   1.0000
     1.0000   1.0000   1.0000   1.0000   1.0000   1.0000   1.0000   1.0000
     1.0000   1.0000   1.0000   1.0000   1.0000   1.0000   1.0000   1.0000
     1.0000   1.0000   1.0000   1.0000   1.0000   1.0000   1.0000   1.0000
     1.0000   1.0000   1.0000   1.0000   0.0000   0.0000   0.0000   0.0000
     0.0000   0.0000   0.0000   0.0000   0.0000   0.0000   0.0000   0.0000
     0.0000   0.0000   0.0000   0.0000   0.0000   0.0000   0.0000   0.0000

 ------ SPIN DOWN ----------

          k = 0.0000 0.0000 0.0000 ( 87777 PWs)   bands (ev):

   -87.9579 -54.9792 -54.9790 -52.9572 -19.8363 -18.9969 -18.9966 -18.9178
   -18.8920 -18.8917 -18.5142 -17.1405 -17.1314 -17.1312 -17.0422 -17.0421
   -16.7609 -16.2757 -16.2756 -16.1859 -16.1244 -16.1242 -15.4508 -14.1519
   -14.1517 -14.0816 -14.0814 -14.0754 -13.4291 -13.1303 -13.1303 -13.0986
   -12.8314 -12.8314 -12.4110 -11.8961 -11.8960 -11.7227 -11.4760 -11.4759
   -10.5936  -9.7339  -9.7337  -9.4883  -9.3796  -9.3794  -9.3125  -9.2749
    -9.2748  -9.2676  -8.8062  -8.8061  -8.2395  -8.2394  -8.1671  -7.9286
    -7.9100  -7.5238  -7.5236  -7.2984  -7.0488  -7.0483  -7.0239  -7.0238
    -6.8553  -6.8548  -6.8386  -6.7866  -6.6436  -6.6434  -6.6193  -6.6035
    -6.6034  -6.5524  -6.4346  -6.3095  -5.6800  -5.6799  -5.4293  -5.4292
    -5.4232  -5.4230  -5.1828  -5.0687  -4.9626  -4.7612  -4.7170  -4.7168
    -4.4389  -4.4387  -4.4212  -4.2013  -4.2011  -3.8376  -3.8376  -3.7889
    -3.7615  -3.7614  -3.1543  -2.6552  -2.6549  -1.8711  -1.8709  -1.8071
    -0.8930  -0.8294  -0.7807  -0.7804   0.9242   0.9244   0.9864   1.5616
     1.5617   1.6395   2.5310   2.5481   2.5491   2.8123   2.8125   2.8456
     3.4653   3.4655   3.5389   3.5424   3.6885   3.7287   3.7337   3.7478

     occupation numbers
     1.0000   1.0000   1.0000   1.0000   1.0000   1.0000   1.0000   1.0000
     1.0000   1.0000   1.0000   1.0000   1.0000   1.0000   1.0000   1.0000
     1.0000   1.0000   1.0000   1.0000   1.0000   1.0000   1.0000   1.0000
     1.0000   1.0000   1.0000   1.0000   1.0000   1.0000   1.0000   1.0000
     1.0000   1.0000   1.0000   1.0000   1.0000   1.0000   1.0000   1.0000
     1.0000   1.0000   1.0000   1.0000   1.0000   1.0000   1.0000   1.0000
     1.0000   1.0000   1.0000   1.0000   1.0000   1.0000   1.0000   1.0000
     1.0000   1.0000   1.0000   1.0000   1.0000   1.0000   1.0000   1.0000
     1.0000   1.0000   1.0000   1.0000   1.0000   1.0000   1.0000   1.0000
     1.0000   1.0000   1.0000   1.0000   1.0000   1.0000   1.0000   1.0000
     1.0000   1.0000   1.0000   1.0000   1.0000   1.0000   1.0000   1.0000
     1.0000   1.0000   1.0000   1.0000   1.0000   1.0000   1.0000   1.0000
     1.0000   1.0000   1.0000   1.0000   1.0000   1.0000   1.0000   1.0000
     1.0000   1.0000   0.0000   0.0000   0.0000   0.0000   0.0000   0.0000
     0.0000   0.0000   0.0000   0.0000   0.0000   0.0000   0.0000   0.0000
     0.0000   0.0000   0.0000   0.0000   0.0000   0.0000   0.0000   0.0000

     the Fermi energy is    -0.8168 ev

!    total energy              =    -860.05301384 Ry
     Harris-Foulkes estimate   =    -860.05301397 Ry
     estimated scf accuracy    <       0.00000075 Ry

     The total energy is the sum of the following terms:

     one-electron contribution =   -2777.81838981 Ry
     hartree contribution      =    1432.77793576 Ry
     xc contribution           =    -259.30003544 Ry
     ewald contribution        =     744.28739414 Ry
     smearing contrib. (-TS)   =       0.00008151 Ry

     total magnetization       =     2.00 Bohr mag/cell
     absolute magnetization    =     3.19 Bohr mag/cell

     convergence has been achieved in  82 iterations

     Writing output data file hierro-bridge-distance-5.0.save/

     General routines

     Parallel routines

   This run was terminated on:  12:48:51   9Jan2023

   JOB DONE.