     Program PWSCF v.6.4.1 starts on  9Jan2023 at 12:48:52

     R & G space division:  proc/nbgrp/npool/nimage =       6
     Reading input from distance-4.5.in

     Current dimensions of program PWSCF are:
     Max number of different atomic species (ntypx) = 10
     Max number of k-points (npk) =  40000
     Max angular momentum in pseudopotentials (lmaxx) =  3

     IMPORTANT: XC functional enforced from input :
     Exchange-correlation      = RVV10 ( 1  4 13  4 3 0)
     Any further DFT definition will be discarded
     Please, verify this is what you really want

               file H.pbe-rrkjus.UPF: wavefunction(s)  1S renormalized

     Subspace diagonalization in iterative solution of the eigenvalue problem:
     a serial algorithm will be used

     bravais-lattice index     =            4
     lattice parameter (alat)  =      23.2937  a.u.
     unit-cell volume          =    8879.8548 (a.u.)^3
     number of atoms/cell      =           52
     number of atomic types    =            3
     number of electrons       =       214.00
     number of Kohn-Sham states=          128
     kinetic-energy cutoff     =      70.0000  Ry
     charge density cutoff     =     490.0000  Ry
     convergence threshold     =      1.0E-06
     mixing beta               =       0.7000
     number of iterations used =            8  plain     mixing
     Exchange-correlation      = RVV10 ( 1  4 13  4 3 0)

     celldm(1)=  23.293684  celldm(2)=   0.000000  celldm(3)=   0.811261
     celldm(4)=   0.000000  celldm(5)=   0.000000  celldm(6)=   0.000000

     crystal axes: (cart. coord. in units of alat)
               a(1) = (   1.000000   0.000000   0.000000 )
               a(2) = (  -0.500000   0.866025   0.000000 )
               a(3) = (   0.000000   0.000000   0.811261 )

     reciprocal axes: (cart. coord. in units 2 pi/alat)
               b(1) = (  1.000000  0.577350 -0.000000 )
               b(2) = (  0.000000  1.154701  0.000000 )
               b(3) = (  0.000000 -0.000000  1.232649 )

     PseudoPot. # 1 for H  read from file:
     /home/cristian/Escritorio/Proyecto_Grafeno/pseudopotenciales/H.pbe-rrkjus.UPF
     MD5 check sum: 7cc9d459525c9a0585f487a71c3c9563
     Pseudo is Ultrasoft, Zval =  1.0
     Generated by new atomic code, or converted to UPF format
     Using radial grid of 1061 points,  2 beta functions with:
                l(1) =   0
                l(2) =   0
     Q(r) pseudized with 0 coefficients

     PseudoPot. # 2 for C  read from file:
     /home/cristian/Escritorio/Proyecto_Grafeno/pseudopotenciales/C.pbe-n-rrkjus_psl.1.0.0.UPF
     MD5 check sum: 1fdd950c42eb37d8afe3dd2f8d12311e
     Pseudo is Ultrasoft + core correction, Zval =  4.0
     Generated using "atomic" code by A. Dal Corso v.6.3MaX
     Using radial grid of 1073 points,  4 beta functions with:
                l(1) =   0
                l(2) =   0
                l(3) =   1
                l(4) =   1
     Q(r) pseudized with 0 coefficients

     PseudoPot. # 3 for Fe read from file:
     /home/cristian/Escritorio/Proyecto_Grafeno/pseudopotenciales/Fe.pbe-spn-rrkjus_psl.1.0.0.UPF
     MD5 check sum: 72ea77fed8e64ab3a2ccf2804dfc1862
     Pseudo is Ultrasoft + core correction, Zval = 16.0
     Generated using "atomic" code by A. Dal Corso v.6.3
     Using radial grid of 1191 points,  6 beta functions with:
                l(1) =   0
                l(2) =   0
                l(3) =   1
                l(4) =   1
                l(5) =   2
                l(6) =   2
     Q(r) pseudized with 0 coefficients

     vdW kernel table read from file rVV10_kernel_table
     MD5 check sum: b8e2538accc0c0b3206b45ba4daaba6c

     atomic species   valence    mass     pseudopotential
        H              1.00     1.00794     H ( 1.00)
        C              4.00    12.01070     C ( 1.00)
        Fe            16.00    55.84500     Fe( 1.00)

     Starting magnetic structure
     atomic species   magnetization
        H            0.500
        C            0.300
        Fe           0.800

     No symmetry found

                                    s                        frac. trans.

      isym =  1     identity

 cryst.   s( 1) = (     1          0          0      )
                  (     0          1          0      )
                  (     0          0          1      )

 cart.    s( 1) = (  1.0000000  0.0000000  0.0000000 )
                  (  0.0000000  1.0000000  0.0000000 )
                  (  0.0000000  0.0000000  1.0000000 )

     point group C_1 (1)
     there are  1 classes
     the character table:

       E
A      1.00

     the symmetry operations in each class and the name of the first element:

     E        1
          identity

   Cartesian axes

     site n.     atom                  positions (alat units)
         1           H   tau(   1) = (   0.2194937   0.4907477   0.3650675  )
         2           H   tau(   2) = (   0.2805063   0.4907477   0.3650675  )
         3           C   tau(   3) = (   0.0000000   0.0000000   0.0000000  )
         4           C   tau(   4) = (   0.0000000   0.1154701   0.0000000  )
         5           C   tau(   5) = (  -0.1000000   0.1732051   0.0000000  )
         6           C   tau(   6) = (  -0.1000000   0.2886751   0.0000000  )
         7           C   tau(   7) = (  -0.2000000   0.3464102   0.0000000  )
         8           C   tau(   8) = (  -0.2000000   0.4618802   0.0000000  )
         9           C   tau(   9) = (  -0.3000000   0.5196152   0.0000000  )
        10           C   tau(  10) = (  -0.3000000   0.6350853   0.0000000  )
        11           C   tau(  11) = (  -0.4000000   0.6928203   0.0000000  )
        12           C   tau(  12) = (  -0.4000000   0.8082904   0.0000000  )
        13           C   tau(  13) = (   0.2000000   0.0000000   0.0000000  )
        14           C   tau(  14) = (   0.2000000   0.1154701   0.0000000  )
        15           C   tau(  15) = (   0.1000000   0.1732051   0.0000000  )
        16           C   tau(  16) = (   0.1000000   0.2886751   0.0000000  )
        17           C   tau(  17) = (   0.0000000   0.3464102   0.0000000  )
        18           C   tau(  18) = (   0.0000000   0.4618802   0.0000000  )
        19           C   tau(  19) = (  -0.1000000   0.5196152   0.0000000  )
        20           C   tau(  20) = (  -0.1000000   0.6350853   0.0000000  )
        21           C   tau(  21) = (  -0.2000000   0.6928203   0.0000000  )
        22           C   tau(  22) = (  -0.2000000   0.8082904   0.0000000  )
        23           C   tau(  23) = (   0.4000000   0.0000000   0.0000000  )
        24           C   tau(  24) = (   0.4000000   0.1154701   0.0000000  )
        25           C   tau(  25) = (   0.3000000   0.1732051   0.0000000  )
        26           C   tau(  26) = (   0.3000000   0.2886751   0.0000000  )
        27           C   tau(  27) = (   0.2000000   0.3464102   0.0000000  )
        28           Fe  tau(  28) = (   0.2000000   0.4618802   0.0000000  )
        29           C   tau(  29) = (   0.1000000   0.5196152   0.0000000  )
        30           C   tau(  30) = (   0.1000000   0.6350853   0.0000000  )
        31           C   tau(  31) = (   0.0000000   0.6928203   0.0000000  )
        32           C   tau(  32) = (   0.0000000   0.8082904   0.0000000  )
        33           C   tau(  33) = (   0.6000000   0.0000000   0.0000000  )
        34           C   tau(  34) = (   0.6000000   0.1154701   0.0000000  )
        35           C   tau(  35) = (   0.5000000   0.1732051   0.0000000  )
        36           C   tau(  36) = (   0.5000000   0.2886751   0.0000000  )
        37           C   tau(  37) = (   0.4000000   0.3464102   0.0000000  )
        38           C   tau(  38) = (   0.4000000   0.4618802   0.0000000  )
        39           C   tau(  39) = (   0.3000000   0.5196152   0.0000000  )
        40           C   tau(  40) = (   0.3000000   0.6350853   0.0000000  )
        41           C   tau(  41) = (   0.2000000   0.6928203   0.0000000  )
        42           C   tau(  42) = (   0.2000000   0.8082904   0.0000000  )
        43           C   tau(  43) = (   0.8000000   0.0000000   0.0000000  )
        44           C   tau(  44) = (   0.8000000   0.1154701   0.0000000  )
        45           C   tau(  45) = (   0.7000000   0.1732051   0.0000000  )
        46           C   tau(  46) = (   0.7000000   0.2886751   0.0000000  )
        47           C   tau(  47) = (   0.6000000   0.3464102   0.0000000  )
        48           C   tau(  48) = (   0.6000000   0.4618802   0.0000000  )
        49           C   tau(  49) = (   0.5000000   0.5196152   0.0000000  )
        50           C   tau(  50) = (   0.5000000   0.6350853   0.0000000  )
        51           C   tau(  51) = (   0.4000000   0.6928203   0.0000000  )
        52           C   tau(  52) = (   0.4000000   0.8082904   0.0000000  )

   Crystallographic axes

     site n.     atom                  positions (cryst. coord.)
         1           H   tau(   1) = (  0.5028270  0.5666667  0.4500000  )
         2           H   tau(   2) = (  0.5638397  0.5666667  0.4500000  )
         3           C   tau(   3) = (  0.0000000  0.0000000  0.0000000  )
         4           C   tau(   4) = (  0.0666667  0.1333333  0.0000000  )
         5           C   tau(   5) = (  0.0000000  0.2000000  0.0000000  )
         6           C   tau(   6) = (  0.0666667  0.3333333  0.0000000  )
         7           C   tau(   7) = (  0.0000000  0.4000000  0.0000000  )
         8           C   tau(   8) = (  0.0666667  0.5333333  0.0000000  )
         9           C   tau(   9) = (  0.0000000  0.6000000  0.0000000  )
        10           C   tau(  10) = (  0.0666667  0.7333333  0.0000000  )
        11           C   tau(  11) = (  0.0000000  0.8000000  0.0000000  )
        12           C   tau(  12) = (  0.0666667  0.9333333  0.0000000  )
        13           C   tau(  13) = (  0.2000000  0.0000000  0.0000000  )
        14           C   tau(  14) = (  0.2666667  0.1333333  0.0000000  )
        15           C   tau(  15) = (  0.2000000  0.2000000  0.0000000  )
        16           C   tau(  16) = (  0.2666667  0.3333333  0.0000000  )
        17           C   tau(  17) = (  0.2000000  0.4000000  0.0000000  )
        18           C   tau(  18) = (  0.2666667  0.5333333  0.0000000  )
        19           C   tau(  19) = (  0.2000000  0.6000000  0.0000000  )
        20           C   tau(  20) = (  0.2666667  0.7333333  0.0000000  )
        21           C   tau(  21) = (  0.2000000  0.8000000  0.0000000  )
        22           C   tau(  22) = (  0.2666667  0.9333333  0.0000000  )
        23           C   tau(  23) = (  0.4000000  0.0000000  0.0000000  )
        24           C   tau(  24) = (  0.4666667  0.1333333  0.0000000  )
        25           C   tau(  25) = (  0.4000000  0.2000000  0.0000000  )
        26           C   tau(  26) = (  0.4666667  0.3333333  0.0000000  )
        27           C   tau(  27) = (  0.4000000  0.4000000  0.0000000  )
        28           Fe  tau(  28) = (  0.4666667  0.5333333  0.0000000  )
        29           C   tau(  29) = (  0.4000000  0.6000000  0.0000000  )
        30           C   tau(  30) = (  0.4666667  0.7333333  0.0000000  )
[...]
        42           C   tau(  42) = (  0.6666667  0.9333333  0.0000000  )
        43           C   tau(  43) = (  0.8000000  0.0000000  0.0000000  )
        44           C   tau(  44) = (  0.8666667  0.1333333  0.0000000  )
        45           C   tau(  45) = (  0.8000000  0.2000000  0.0000000  )
        46           C   tau(  46) = (  0.8666667  0.3333333  0.0000000  )
        47           C   tau(  47) = (  0.8000000  0.4000000  0.0000000  )
        48           C   tau(  48) = (  0.8666667  0.5333333  0.0000000  )
        49           C   tau(  49) = (  0.8000000  0.6000000  0.0000000  )
        50           C   tau(  50) = (  0.8666667  0.7333333  0.0000000  )
        51           C   tau(  51) = (  0.8000000  0.8000000  0.0000000  )
        52           C   tau(  52) = (  0.8666667  0.9333333  0.0000000  )

     number of k points=     1  Marzari-Vanderbilt smearing, width (Ry)=  0.0010
                       cart. coord. in units 2pi/alat
        k(    1) = (   0.0000000   0.0000000   0.0000000), wk =   1.0000000

                       cryst. coord.
        k(    1) = (   0.0000000   0.0000000   0.0000000), wk =   1.0000000

     Check: negative core charge=   -0.000002

     Initial potential from superposition of free atoms

     starting charge  213.80512, renormalised to  214.00000

     negative rho (up, down):  5.205E-05 7.965E-03

Carrying out rVV10 run using the following parameters:
Nqs =      20    Nr_points =    1024   r_max =   100.000
b_value =  6.30000    beta =  0.00901
     q_mesh =  0.00010000  0.00030000  0.00058939  0.00100810
               0.00161396  0.00249058  0.00375900  0.00559430
               0.00824984  0.01209221  0.01765183  0.02569619
               0.03733578  0.05417739  0.07854596  0.11380545
               0.16482331  0.23864234  0.34545298  0.50000000

Gradients computed in Reciprocal space

     Starting wfcs are  208 randomized atomic wfcs

     Self-consistent Calculation

     iteration #  1     ecut=    70.00 Ry     beta= 0.70
     Davidson diagonalization with overlap
     ethr =  1.00E-02,  avg # of iterations =  2.5

[...]

     total energy              =    -857.50644142 Ry
     Harris-Foulkes estimate   =    -858.63408753 Ry
     estimated scf accuracy    <      10.05559090 Ry

     total magnetization       =     6.00 Bohr mag/cell
     absolute magnetization    =     6.66 Bohr mag/cell

[...]

     Magnetic moment per site:
     atom:    1    charge:    0.2111    magn:    0.0000    constr:    0.0000
     atom:    2    charge:    0.2115    magn:    0.0000    constr:    0.0000
     atom:    3    charge:    1.7168    magn:   -0.0094    constr:    0.0000
     atom:    4    charge:    1.7154    magn:    0.0161    constr:    0.0000
     atom:    5    charge:    1.7177    magn:   -0.0037    constr:    0.0000
     atom:    6    charge:    1.7143    magn:    0.0055    constr:    0.0000
     atom:    7    charge:    1.7178    magn:   -0.0039    constr:    0.0000
     atom:    8    charge:    1.7153    magn:    0.0171    constr:    0.0000
     atom:    9    charge:    1.7172    magn:   -0.0095    constr:    0.0000
     atom:   10    charge:    1.7148    magn:    0.0583    constr:    0.0000
     atom:   11    charge:    1.7174    magn:   -0.0159    constr:    0.0000
     atom:   12    charge:    1.7155    magn:    0.0546    constr:    0.0000
     atom:   13    charge:    1.7172    magn:   -0.0160    constr:    0.0000
     atom:   14    charge:    1.7154    magn:    0.0461    constr:    0.0000
     atom:   15    charge:    1.7138    magn:   -0.0127    constr:    0.0000
     atom:   16    charge:    1.7113    magn:    0.0529    constr:    0.0000
     atom:   17    charge:    1.7228    magn:    0.0007    constr:    0.0000
     atom:   18    charge:    1.7113    magn:    0.0526    constr:    0.0000
     atom:   19    charge:    1.7138    magn:   -0.0125    constr:    0.0000
     atom:   20    charge:    1.7159    magn:    0.0435    constr:    0.0000
     atom:   21    charge:    1.7174    magn:   -0.0161    constr:    0.0000
     atom:   22    charge:    1.7148    magn:    0.0573    constr:    0.0000
     atom:   23    charge:    1.7169    magn:   -0.0095    constr:    0.0000
     atom:   24    charge:    1.7153    magn:    0.0165    constr:    0.0000
     atom:   25    charge:    1.7138    magn:   -0.0126    constr:    0.0000
     atom:   26    charge:    1.7106    magn:    0.0551    constr:    0.0000
     atom:   27    charge:    1.8524    magn:   -0.0077    constr:    0.0000
     atom:   28    charge:   11.1449    magn:    0.4873    constr:    0.0000
     atom:   29    charge:    1.8519    magn:   -0.0087    constr:    0.0000
     atom:   30    charge:    1.7111    magn:    0.0517    constr:    0.0000
     atom:   31    charge:    1.7136    magn:   -0.0125    constr:    0.0000
     atom:   32    charge:    1.7150    magn:    0.0170    constr:    0.0000
     atom:   33    charge:    1.7177    magn:   -0.0039    constr:    0.0000
     atom:   34    charge:    1.7140    magn:    0.0112    constr:    0.0000
     atom:   35    charge:    1.7177    magn:   -0.0038    constr:    0.0000
     atom:   36    charge:    1.7143    magn:    0.0054    constr:    0.0000
     atom:   37    charge:    1.7229    magn:    0.0006    constr:    0.0000
     atom:   38    charge:    1.7108    magn:    0.0547    constr:    0.0000
     atom:   39    charge:    1.8520    magn:   -0.0076    constr:    0.0000
     atom:   40    charge:    1.7112    magn:    0.0518    constr:    0.0000
     atom:   41    charge:    1.7225    magn:    0.0009    constr:    0.0000
     atom:   42    charge:    1.7141    magn:    0.0054    constr:    0.0000
     atom:   43    charge:    1.7176    magn:   -0.0038    constr:    0.0000
     atom:   44    charge:    1.7141    magn:    0.0107    constr:    0.0000
     atom:   45    charge:    1.7237    magn:    0.0161    constr:    0.0000
     atom:   46    charge:    1.7141    magn:    0.0113    constr:    0.0000
     atom:   47    charge:    1.7178    magn:   -0.0038    constr:    0.0000
     atom:   48    charge:    1.7154    magn:    0.0168    constr:    0.0000
     atom:   49    charge:    1.7140    magn:   -0.0125    constr:    0.0000
     atom:   50    charge:    1.7157    magn:    0.0451    constr:    0.0000
     atom:   51    charge:    1.7138    magn:   -0.0126    constr:    0.0000
     atom:   52    charge:    1.7153    magn:    0.0163    constr:    0.0000

[...]

     total energy              =    -860.05363179 Ry
     Harris-Foulkes estimate   =    -860.05363212 Ry
     estimated scf accuracy    <       0.00000157 Ry

[...]

     iteration #238     ecut=    70.00 Ry     beta= 0.70
     Davidson diagonalization with overlap
     ethr =  7.34E-10,  avg # of iterations =  2.5

     negative rho (up, down):  5.347E-04 1.036E-02

     Magnetic moment per site:
     atom:    1    charge:    0.2111    magn:    0.0000    constr:    0.0000
     atom:    2    charge:    0.2115    magn:    0.0000    constr:    0.0000
     atom:    3    charge:    1.7167    magn:   -0.0105    constr:    0.0000
     atom:    4    charge:    1.7155    magn:    0.0150    constr:    0.0000
     atom:    5    charge:    1.7175    magn:   -0.0066    constr:    0.0000
     atom:    6    charge:    1.7142    magn:    0.0049    constr:    0.0000
     atom:    7    charge:    1.7177    magn:   -0.0068    constr:    0.0000
     atom:    8    charge:    1.7152    magn:    0.0172    constr:    0.0000
     atom:    9    charge:    1.7171    magn:   -0.0111    constr:    0.0000
     atom:   10    charge:    1.7149    magn:    0.0570    constr:    0.0000
     atom:   11    charge:    1.7173    magn:   -0.0155    constr:    0.0000
     atom:   12    charge:    1.7160    magn:    0.0493    constr:    0.0000
     atom:   13    charge:    1.7173    magn:   -0.0155    constr:    0.0000
     atom:   14    charge:    1.7156    magn:    0.0446    constr:    0.0000
     atom:   15    charge:    1.7138    magn:   -0.0122    constr:    0.0000
     atom:   16    charge:    1.7115    magn:    0.0493    constr:    0.0000
     atom:   17    charge:    1.7225    magn:   -0.0076    constr:    0.0000
     atom:   18    charge:    1.7116    magn:    0.0477    constr:    0.0000
     atom:   19    charge:    1.7136    magn:   -0.0114    constr:    0.0000
     atom:   20    charge:    1.7163    magn:    0.0384    constr:    0.0000
     atom:   21    charge:    1.7174    magn:   -0.0156    constr:    0.0000
     atom:   22    charge:    1.7150    magn:    0.0558    constr:    0.0000
     atom:   23    charge:    1.7171    magn:   -0.0110    constr:    0.0000
     atom:   24    charge:    1.7154    magn:    0.0160    constr:    0.0000
     atom:   25    charge:    1.7139    magn:   -0.0122    constr:    0.0000
     atom:   26    charge:    1.7108    magn:    0.0548    constr:    0.0000
     atom:   27    charge:    1.8521    magn:   -0.0154    constr:    0.0000
     atom:   28    charge:   11.1457    magn:    0.4796    constr:    0.0000
     atom:   29    charge:    1.8516    magn:   -0.0155    constr:    0.0000
     atom:   30    charge:    1.7117    magn:    0.0468    constr:    0.0000
     atom:   31    charge:    1.7136    magn:   -0.0114    constr:    0.0000
     atom:   32    charge:    1.7152    magn:    0.0170    constr:    0.0000
     atom:   33    charge:    1.7177    magn:   -0.0067    constr:    0.0000
     atom:   34    charge:    1.7140    magn:    0.0113    constr:    0.0000
     atom:   35    charge:    1.7176    magn:   -0.0067    constr:    0.0000
     atom:   36    charge:    1.7142    magn:    0.0050    constr:    0.0000
     atom:   37    charge:    1.7228    magn:   -0.0086    constr:    0.0000
     atom:   38    charge:    1.7108    magn:    0.0545    constr:    0.0000
     atom:   39    charge:    1.8520    magn:   -0.0154    constr:    0.0000
     atom:   40    charge:    1.7116    magn:    0.0481    constr:    0.0000
     atom:   41    charge:    1.7224    magn:   -0.0073    constr:    0.0000
     atom:   42    charge:    1.7142    magn:    0.0049    constr:    0.0000
     atom:   43    charge:    1.7175    magn:   -0.0066    constr:    0.0000
     atom:   44    charge:    1.7141    magn:    0.0102    constr:    0.0000
     atom:   45    charge:    1.7234    magn:    0.0003    constr:    0.0000
     atom:   46    charge:    1.7140    magn:    0.0115    constr:    0.0000
     atom:   47    charge:    1.7176    magn:   -0.0067    constr:    0.0000
     atom:   48    charge:    1.7154    magn:    0.0163    constr:    0.0000
     atom:   49    charge:    1.7138    magn:   -0.0120    constr:    0.0000
     atom:   50    charge:    1.7157    magn:    0.0435    constr:    0.0000
     atom:   51    charge:    1.7137    magn:   -0.0121    constr:    0.0000
     atom:   52    charge:    1.7155    magn:    0.0152    constr:    0.0000

     End of self-consistent calculation

 ------ SPIN UP ------------

          k = 0.0000 0.0000 0.0000 ( 87777 PWs)   bands (ev):

   -88.8332 -55.7249 -55.6718 -54.0570 -19.8565 -19.0287 -19.0135 -18.9323
   -18.9061 -18.9011 -18.5697 -17.1575 -17.1478 -17.1461 -17.0813 -17.0762
   -16.7724 -16.3055 -16.3026 -16.2015 -16.1553 -16.1547 -15.4728 -14.2187
   -14.2022 -14.1225 -14.0720 -14.0692 -13.4165 -13.1405 -13.1368 -13.1120
   -12.8376 -12.8366 -12.4238 -11.9235 -11.9217 -11.7295 -11.4865 -11.4846
   -10.6133  -9.7911  -9.7876  -9.5096  -9.3928  -9.3913  -9.3064  -9.2762
    -9.2757  -9.2638  -8.8050  -8.8043  -8.2744  -8.2709  -8.1734  -8.0058
    -7.9099  -7.5203  -7.5170  -7.3298  -7.2245  -7.2142  -7.0668  -7.0665
    -6.9129  -6.8995  -6.8923  -6.7894  -6.6421  -6.6351  -6.6105  -6.5998
    -6.5965  -6.5772  -6.5529  -6.3450  -5.7335  -5.7288  -5.7084  -5.6918
    -5.4639  -5.4611  -5.3313  -5.0630  -4.9557  -4.8166  -4.7924  -4.7875
    -4.5396  -4.5345  -4.4798  -4.3223  -4.3107  -3.9488  -3.9482  -3.8653
    -3.7590  -3.7572  -3.2075  -2.9050  -2.8962  -1.9476  -1.8796  -1.8772
    -1.3527  -1.3077  -1.2024  -0.9084   0.8472   0.8941   0.8962   1.4050
     1.4184   1.5277   2.3298   2.3311   2.5250   2.6926   2.6948   2.7858
     3.3029   3.3137   3.4515   3.5152   3.6687   3.7324   3.7376   3.7510

     occupation numbers
     1.0000   1.0000   1.0000   1.0000   1.0000   1.0000   1.0000   1.0000
     1.0000   1.0000   1.0000   1.0000   1.0000   1.0000   1.0000   1.0000
     1.0000   1.0000   1.0000   1.0000   1.0000   1.0000   1.0000   1.0000
     1.0000   1.0000   1.0000   1.0000   1.0000   1.0000   1.0000   1.0000
     1.0000   1.0000   1.0000   1.0000   1.0000   1.0000   1.0000   1.0000
     1.0000   1.0000   1.0000   1.0000   1.0000   1.0000   1.0000   1.0000
     1.0000   1.0000   1.0000   1.0000   1.0000   1.0000   1.0000   1.0000
     1.0000   1.0000   1.0000   1.0000   1.0000   1.0000   1.0000   1.0000
     1.0000   1.0000   1.0000   1.0000   1.0000   1.0000   1.0000   1.0000
     1.0000   1.0000   1.0000   1.0000   1.0000   1.0000   1.0000   1.0000
     1.0000   1.0000   1.0000   1.0000   1.0000   1.0000   1.0000   1.0000
     1.0000   1.0000   1.0000   1.0000   1.0000   1.0000   1.0000   1.0000
     1.0000   1.0000   1.0000   1.0000   1.0000   1.0000   1.0000   1.0000
     1.0000   1.0000   1.0000   1.0362   0.0000   0.0000   0.0000   0.0000
     0.0000   0.0000   0.0000   0.0000   0.0000   0.0000   0.0000   0.0000
     0.0000   0.0000   0.0000   0.0000   0.0000   0.0000   0.0000   0.0000

 ------ SPIN DOWN ----------

          k = 0.0000 0.0000 0.0000 ( 87777 PWs)   bands (ev):

   -88.0691 -55.0866 -55.0707 -53.1001 -19.8165 -18.9828 -18.9702 -18.8937
   -18.8806 -18.8753 -18.5114 -17.1235 -17.1171 -17.1128 -17.0291 -17.0255
   -16.7418 -16.2614 -16.2605 -16.1668 -16.1129 -16.1126 -15.4463 -14.1473
   -14.1376 -14.0653 -14.0615 -14.0578 -13.4149 -13.1150 -13.1127 -13.0813
   -12.8179 -12.8173 -12.3933 -11.8867 -11.8841 -11.7056 -11.4634 -11.4631
   -10.5868  -9.7377  -9.7353  -9.4797  -9.3609  -9.3607  -9.2899  -9.2537
    -9.2531  -9.2457  -8.7916  -8.7908  -8.2365  -8.2332  -8.1507  -7.9128
    -7.8932  -7.5061  -7.5023  -7.2940  -7.0563  -7.0534  -7.0164  -7.0158
    -6.8398  -6.8371  -6.8158  -6.7749  -6.6252  -6.6191  -6.6000  -6.5867
    -6.5835  -6.5344  -6.4442  -6.3430  -5.6781  -5.6750  -5.4648  -5.4638
    -5.4200  -5.4182  -5.2127  -5.0494  -4.9461  -4.7459  -4.7012  -4.7004
    -4.4551  -4.4501  -4.4045  -4.1952  -4.1938  -3.8235  -3.8218  -3.7693
    -3.7438  -3.7421  -3.1538  -2.6729  -2.6686  -1.8519  -1.8494  -1.7987
    -0.9211  -0.8917  -0.8181  -0.7948   0.9402   0.9431   0.9933   1.5619
     1.5626   1.6503   2.4954   2.4967   2.5388   2.8251   2.8279   2.8632
     3.4610   3.4617   3.5261   3.5556   3.6843   3.7395   3.7477   3.7557

     occupation numbers
     1.0000   1.0000   1.0000   1.0000   1.0000   1.0000   1.0000   1.0000
     1.0000   1.0000   1.0000   1.0000   1.0000   1.0000   1.0000   1.0000
     1.0000   1.0000   1.0000   1.0000   1.0000   1.0000   1.0000   1.0000
     1.0000   1.0000   1.0000   1.0000   1.0000   1.0000   1.0000   1.0000
     1.0000   1.0000   1.0000   1.0000   1.0000   1.0000   1.0000   1.0000
     1.0000   1.0000   1.0000   1.0000   1.0000   1.0000   1.0000   1.0000
     1.0000   1.0000   1.0000   1.0000   1.0000   1.0000   1.0000   1.0000
     1.0000   1.0000   1.0000   1.0000   1.0000   1.0000   1.0000   1.0000
     1.0000   1.0000   1.0000   1.0000   1.0000   1.0000   1.0000   1.0000
     1.0000   1.0000   1.0000   1.0000   1.0000   1.0000   1.0000   1.0000
     1.0000   1.0000   1.0000   1.0000   1.0000   1.0000   1.0000   1.0000
     1.0000   1.0000   1.0000   1.0000   1.0000   1.0000   1.0000   1.0000
     1.0000   1.0000   1.0000   1.0000   1.0000   1.0000   1.0000   1.0000
     1.0015   0.9623   0.0000   0.0000   0.0000   0.0000   0.0000   0.0000
     0.0000   0.0000   0.0000   0.0000   0.0000   0.0000   0.0000   0.0000
     0.0000   0.0000   0.0000   0.0000   0.0000   0.0000   0.0000   0.0000

     the Fermi energy is    -0.8804 ev

!    total energy              =    -860.05363191 Ry
     Harris-Foulkes estimate   =    -860.05363217 Ry
     estimated scf accuracy    <       0.00000100 Ry

     The total energy is the sum of the following terms:

     one-electron contribution =   -2779.06559399 Ry
     hartree contribution      =    1433.42884084 Ry
     xc contribution           =    -259.31072110 Ry
     ewald contribution        =     744.89370223 Ry
     smearing contrib. (-TS)   =       0.00014012 Ry

     total magnetization       =     2.07 Bohr mag/cell
     absolute magnetization    =     3.01 Bohr mag/cell

     convergence has been achieved in 238 iterations

     Writing output data file hierro-bridge-distance-4.5.save/

     General routines

     Parallel routines

   This run was terminated on:  19:48:57   9Jan2023

   JOB DONE.