     Program PWSCF v.6.4.1 starts on  2Sep2022 at  7:37:36

     R & G space division:  proc/nbgrp/npool/nimage =       6
     Reading input from distance-2.0.in

     Current dimensions of program PWSCF are:
     Max number of different atomic species (ntypx) = 10
     Max number of k-points (npk) =  40000
     Max angular momentum in pseudopotentials (lmaxx) =  3

     IMPORTANT: XC functional enforced from input :
     Exchange-correlation      = RVV10 ( 1  4 13  4 3 0)
     Any further DFT definition will be discarded
     Please, verify this is what you really want

               file H.pbe-rrkjus.UPF: wavefunction(s)  1S renormalized
               file V.pbe-spnl-rrkjus_psl.1.0.0.UPF: wavefunction(s)  3P 3D renormalized

     Subspace diagonalization in iterative solution of the eigenvalue problem:
     a serial algorithm will be used

     bravais-lattice index     =            4
     lattice parameter (alat)  =      23.2937  a.u.
     unit-cell volume          =    8879.8548 (a.u.)^3
     number of atoms/cell      =           52
     number of atomic types    =            3
     number of electrons       =       211.00
     number of Kohn-Sham states=          127
     kinetic-energy cutoff     =      70.0000  Ry
     charge density cutoff     =     490.0000  Ry
     convergence threshold     =      1.0E-06
     mixing beta               =       0.7000
     number of iterations used =            8  plain     mixing
     Exchange-correlation      = RVV10 ( 1  4 13  4 3 0)

     celldm(1)=  23.293684  celldm(2)=   0.000000  celldm(3)=   0.811261
     celldm(4)=   0.000000  celldm(5)=   0.000000  celldm(6)=   0.000000

     crystal axes: (cart. coord. in units of alat)
               a(1) = (   1.000000   0.000000   0.000000 )
               a(2) = (  -0.500000   0.866025   0.000000 )
               a(3) = (   0.000000   0.000000   0.811261 )

     reciprocal axes: (cart. coord. in units 2 pi/alat)
               b(1) = (  1.000000  0.577350 -0.000000 )
               b(2) = (  0.000000  1.154701  0.000000 )
               b(3) = (  0.000000 -0.000000  1.232649 )

     PseudoPot. # 1 for H  read from file:
     /home/cristian/Escritorio/Proyecto_Grafeno/pseudopotenciales/H.pbe-rrkjus.UPF
     MD5 check sum: 7cc9d459525c9a0585f487a71c3c9563
     Pseudo is Ultrasoft, Zval =  1.0
     Generated by new atomic code, or converted to UPF format
     Using radial grid of 1061 points,  2 beta functions with:
                l(1) =   0
                l(2) =   0
     Q(r) pseudized with 0 coefficients

     PseudoPot. # 2 for C  read from file:
     /home/cristian/Escritorio/Proyecto_Grafeno/pseudopotenciales/C.pbe-n-rrkjus_psl.1.0.0.UPF
     MD5 check sum: 1fdd950c42eb37d8afe3dd2f8d12311e
     Pseudo is Ultrasoft + core correction, Zval =  4.0
     Generated using "atomic" code by A. Dal Corso v.6.3MaX
     Using radial grid of 1073 points,  4 beta functions with:
                l(1) =   0
                l(2) =   0
                l(3) =   1
                l(4) =   1
     Q(r) pseudized with 0 coefficients

     PseudoPot. # 3 for V  read from file:
     /home/cristian/Escritorio/Proyecto_Grafeno/pseudopotenciales/V.pbe-spnl-rrkjus_psl.1.0.0.UPF
     MD5 check sum: 79b3eb63147daf0b665d9f1bcc691206
     Pseudo is Ultrasoft + core correction, Zval = 13.0
     Generated using "atomic" code by A. Dal Corso v.6.2.2
     Using radial grid of 1181 points,  6 beta functions with:
                l(1) =   0
                l(2) =   0
                l(3) =   1
                l(4) =   1
                l(5) =   2
                l(6) =   2
     Q(r) pseudized with 0 coefficients

     vdW kernel table read from file rVV10_kernel_table
     MD5 check sum: b8e2538accc0c0b3206b45ba4daaba6c

     atomic species   valence    mass     pseudopotential
        H              1.00     1.00794     H ( 1.00)
        C              4.00    12.01070     C ( 1.00)
        V             13.00    50.94150     V ( 1.00)

     Starting magnetic structure
     atomic species   magnetization
        H            0.500
        C            0.300
        V            0.800

     No symmetry found

                                    s                        frac. trans.

      isym =  1     identity

 cryst.   s( 1) = (     1          0          0      )
                  (     0          1          0      )
                  (     0          0          1      )

 cart.    s( 1) = (  1.0000000  0.0000000  0.0000000 )
                  (  0.0000000  1.0000000  0.0000000 )
                  (  0.0000000  0.0000000  1.0000000 )

     point group C_1 (1)
     there are  1 classes
     the character table:

       E
A      1.00

     the symmetry operations in each class and the name of the first element:

     E        1
          identity

   Cartesian axes

     site n.     atom                  positions (alat units)
         1           H   tau(   1) = (   0.2194937   0.4330127   0.1622522  )
         2           H   tau(   2) = (   0.2805063   0.4330127   0.1622522  )
         3           C   tau(   3) = (   0.0000000   0.0000000   0.0000000  )
         4           C   tau(   4) = (   0.0000000   0.1154701   0.0000000  )
         5           C   tau(   5) = (  -0.1000000   0.1732051   0.0000000  )
         6           C   tau(   6) = (  -0.1000000   0.2886751   0.0000000  )
         7           C   tau(   7) = (  -0.2000000   0.3464102   0.0000000  )
         8           C   tau(   8) = (  -0.2000000   0.4618802   0.0000000  )
         9           C   tau(   9) = (  -0.3000000   0.5196152   0.0000000  )
        10           C   tau(  10) = (  -0.3000000   0.6350853   0.0000000  )
        11           C   tau(  11) = (  -0.4000000   0.6928203   0.0000000  )
        12           C   tau(  12) = (  -0.4000000   0.8082904   0.0000000  )
        13           C   tau(  13) = (   0.2000000   0.0000000   0.0000000  )
        14           C   tau(  14) = (   0.2000000   0.1154701   0.0000000  )
        15           C   tau(  15) = (   0.1000000   0.1732051   0.0000000  )
        16           C   tau(  16) = (   0.1000000   0.2886751   0.0000000  )
        17           C   tau(  17) = (   0.0000000   0.3464102   0.0000000  )
        18           C   tau(  18) = (   0.0000000   0.4618802   0.0000000  )
        19           C   tau(  19) = (  -0.1000000   0.5196152   0.0000000  )
        20           C   tau(  20) = (  -0.1000000   0.6350853   0.0000000  )
        21           C   tau(  21) = (  -0.2000000   0.6928203   0.0000000  )
        22           C   tau(  22) = (  -0.2000000   0.8082904   0.0000000  )
        23           C   tau(  23) = (   0.4000000   0.0000000   0.0000000  )
        24           C   tau(  24) = (   0.4000000   0.1154701   0.0000000  )
        25           C   tau(  25) = (   0.3000000   0.1732051   0.0000000  )
        26           C   tau(  26) = (   0.3000000   0.2886751   0.0000000  )
        27           C   tau(  27) = (   0.2000000   0.3464102   0.0000000  )
        28           V   tau(  28) = (   0.2000000   0.4618802   0.0000000  )
        29           C   tau(  29) = (   0.1000000   0.5196152   0.0000000  )
        30           C   tau(  30) = (   0.1000000   0.6350853   0.0000000  )
        31           C   tau(  31) = (   0.0000000   0.6928203   0.0000000  )
        32           C   tau(  32) = (   0.0000000   0.8082904   0.0000000  )
        33           C   tau(  33) = (   0.6000000   0.0000000   0.0000000  )
        34           C   tau(  34) = (   0.6000000   0.1154701   0.0000000  )
        35           C   tau(  35) = (   0.5000000   0.1732051   0.0000000  )
        36           C   tau(  36) = (   0.5000000   0.2886751   0.0000000  )
        37           C   tau(  37) = (   0.4000000   0.3464102   0.0000000  )
        38           C   tau(  38) = (   0.4000000   0.4618802   0.0000000  )
        39           C   tau(  39) = (   0.3000000   0.5196152   0.0000000  )
        40           C   tau(  40) = (   0.3000000   0.6350853   0.0000000  )
        41           C   tau(  41) = (   0.2000000   0.6928203   0.0000000  )
        42           C   tau(  42) = (   0.2000000   0.8082904   0.0000000  )
        43           C   tau(  43) = (   0.8000000   0.0000000   0.0000000  )
        44           C   tau(  44) = (   0.8000000   0.1154701   0.0000000  )
        45           C   tau(  45) = (   0.7000000   0.1732051   0.0000000  )
        46           C   tau(  46) = (   0.7000000   0.2886751   0.0000000  )
        47           C   tau(  47) = (   0.6000000   0.3464102   0.0000000  )
        48           C   tau(  48) = (   0.6000000   0.4618802   0.0000000  )
        49           C   tau(  49) = (   0.5000000   0.5196152   0.0000000  )
        50           C   tau(  50) = (   0.5000000   0.6350853   0.0000000  )
        51           C   tau(  51) = (   0.4000000   0.6928203   0.0000000  )
        52           C   tau(  52) = (   0.4000000   0.8082904   0.0000000  )

   Crystallographic axes

     site n.     atom                  positions (cryst. coord.)
         1           H   tau(   1) = (  0.4694937  0.5000000  0.2000000  )
         2           H   tau(   2) = (  0.5305063  0.5000000  0.2000000  )
         3           C   tau(   3) = (  0.0000000  0.0000000  0.0000000  )
         4           C   tau(   4) = (  0.0666667  0.1333333  0.0000000  )
         5           C   tau(   5) = (  0.0000000  0.2000000  0.0000000  )
         6           C   tau(   6) = (  0.0666667  0.3333333  0.0000000  )
         7           C   tau(   7) = (  0.0000000  0.4000000  0.0000000  )
         8           C   tau(   8) = (  0.0666667  0.5333333  0.0000000  )
         9           C   tau(   9) = (  0.0000000  0.6000000  0.0000000  )
        10           C   tau(  10) = (  0.0666667  0.7333333  0.0000000  )
        11           C   tau(  11) = (  0.0000000  0.8000000  0.0000000  )
        12           C   tau(  12) = (  0.0666667  0.9333333  0.0000000  )
        13           C   tau(  13) = (  0.2000000  0.0000000  0.0000000  )
        14           C   tau(  14) = (  0.2666667  0.1333333  0.0000000  )
        15           C   tau(  15) = (  0.2000000  0.2000000  0.0000000  )
        16           C   tau(  16) = (  0.2666667  0.3333333  0.0000000  )
        17           C   tau(  17) = (  0.2000000  0.4000000  0.0000000  )
        18           C   tau(  18) = (  0.2666667  0.5333333  0.0000000  )
        19           C   tau(  19) = (  0.2000000  0.6000000  0.0000000  )
        20           C   tau(  20) = (  0.2666667  0.7333333  0.0000000  )
        21           C   tau(  21) = (  0.2000000  0.8000000  0.0000000  )
        22           C   tau(  22) = (  0.2666667  0.9333333  0.0000000  )
        23           C   tau(  23) = (  0.4000000  0.0000000  0.0000000  )
        24           C   tau(  24) = (  0.4666667  0.1333333  0.0000000  )
        25           C   tau(  25) = (  0.4000000  0.2000000  0.0000000  )
        26           C   tau(  26) = (  0.4666667  0.3333333  0.0000000  )
        27           C   tau(  27) = (  0.4000000  0.4000000  0.0000000  )
        28           V   tau(  28) = (  0.4666667  0.5333333  0.0000000  )
        29           C   tau(  29) = (  0.4000000  0.6000000  0.0000000  )
        30           C   tau(  30) = (  0.4666667  0.7333333  0.0000000  )
        31           C   tau(  31) = (  0.4000000  0.8000000  0.0000000  )
        32           C   tau(  32) = (  0.4666667  0.9333333  0.0000000  )
        33           C   tau(  33) = (  0.6000000  0.0000000  0.0000000  )
        34           C   tau(  34) = (  0.6666667  0.1333333  0.0000000  )
        35           C   tau(  35) = (  0.6000000  0.2000000  0.0000000  )
        36           C   tau(  36) = (  0.6666667  0.3333333  0.0000000  )
        37           C   tau(  37) = (  0.6000000  0.4000000  0.0000000  )
        38           C   tau(  38) = (  0.6666667  0.5333333  0.0000000  )
        39           C   tau(  39) = (  0.6000000  0.6000000  0.0000000  )
        40           C   tau(  40) = (  0.6666667  0.7333333  0.0000000  )
        41           C   tau(  41) = (  0.6000000  0.8000000  0.0000000  )
        42           C   tau(  42) = (  0.6666667  0.9333333  0.0000000  )
        43           C   tau(  43) = (  0.8000000  0.0000000  0.0000000  )
        44           C   tau(  44) = (  0.8666667  0.1333333  0.0000000  )
        45           C   tau(  45) = (  0.8000000  0.2000000  0.0000000  )
        46           C   tau(  46) = (  0.8666667  0.3333333  0.0000000  )
        47           C   tau(  47) = (  0.8000000  0.4000000  0.0000000  )
        48           C   tau(  48) = (  0.8666667  0.5333333  0.0000000  )
        49           C   tau(  49) = (  0.8000000  0.6000000  0.0000000  )
        50           C   tau(  50) = (  0.8666667  0.7333333  0.0000000  )
        51           C   tau(  51) = (  0.8000000  0.8000000  0.0000000  )
        52           C   tau(  52) = (  0.8666667  0.9333333  0.0000000  )

     number of k points=     1  Marzari-Vanderbilt smearing, width (Ry)=  0.0010
                       cart. coord. in units 2pi/alat
        k(    1) = (   0.0000000   0.0000000   0.0000000), wk =   1.0000000

                       cryst. coord.
        k(    1) = (   0.0000000   0.0000000   0.0000000), wk =   1.0000000

     Check: negative core charge=   -0.000002

     Initial potential from superposition of free atoms

     starting charge  210.80465, renormalised to  211.00000

     negative rho (up, down):  1.448E-04 1.950E-02

Carrying out rVV10 run using the following parameters:
Nqs =      20    Nr_points =    1024   r_max =   100.000
b_value =  6.30000    beta =  0.00901
     q_mesh =  0.00010000  0.00030000  0.00058939  0.00100810
               0.00161396  0.00249058  0.00375900  0.00559430
               0.00824984  0.01209221  0.01765183  0.02569619
               0.03733578  0.05417739  0.07854596  0.11380545
               0.16482331  0.23864234  0.34545298  0.50000000

Gradients computed in Reciprocal space

     Starting wfcs are  208 randomized atomic wfcs

     Self-consistent Calculation

     iteration #  1     ecut=    70.00 Ry     beta= 0.70
     Davidson diagonalization with overlap
     ethr =  1.00E-02,  avg # of iterations =  3.0

[...]

     total energy              =    -749.77116607 Ry
     Harris-Foulkes estimate   =    -757.19691771 Ry
     estimated scf accuracy    <      15.49106511 Ry

     total magnetization       =     6.99 Bohr mag/cell
     absolute magnetization    =     7.58 Bohr mag/cell

[...]

     total energy              =    -757.32600966 Ry
     Harris-Foulkes estimate   =    -757.32601000 Ry
     estimated scf accuracy    <       0.00000118 Ry

[...]

     iteration # 35     ecut=    70.00 Ry     beta= 0.70
     Davidson diagonalization with overlap
     ethr =  5.61E-10,  avg # of iterations =  3.0

     negative rho (up, down):  3.332E-02 2.604E-03

     Magnetic moment per site:
     atom:    1    charge:    0.2185    magn:   -0.0000    constr:    0.0000
     atom:    2    charge:    0.2062    magn:   -0.0002    constr:    0.0000
     atom:    3    charge:    1.7182    magn:   -0.0053    constr:    0.0000
     atom:    4    charge:    1.7155    magn:    0.0061    constr:    0.0000
     atom:    5    charge:    1.7184    magn:   -0.0033    constr:    0.0000
     atom:    6    charge:    1.7141    magn:    0.0021    constr:    0.0000
     atom:    7    charge:    1.7184    magn:   -0.0035    constr:    0.0000
     atom:    8    charge:    1.7158    magn:    0.0086    constr:    0.0000
     atom:    9    charge:    1.7180    magn:   -0.0062    constr:    0.0000
     atom:   10    charge:    1.7139    magn:    0.0272    constr:    0.0000
     atom:   11    charge:    1.7188    magn:   -0.0084    constr:    0.0000
     atom:   12    charge:    1.7124    magn:    0.0169    constr:    0.0000
     atom:   13    charge:    1.7184    magn:   -0.0087    constr:    0.0000
     atom:   14    charge:    1.7142    magn:    0.0199    constr:    0.0000
     atom:   15    charge:    1.7174    magn:   -0.0051    constr:    0.0000
     atom:   16    charge:    1.7087    magn:    0.0117    constr:    0.0000
     atom:   17    charge:    1.7280    magn:   -0.0021    constr:    0.0000
     atom:   18    charge:    1.7089    magn:    0.0108    constr:    0.0000
     atom:   19    charge:    1.7175    magn:   -0.0048    constr:    0.0000
     atom:   20    charge:    1.7134    magn:    0.0134    constr:    0.0000
     atom:   21    charge:    1.7184    magn:   -0.0088    constr:    0.0000
     atom:   22    charge:    1.7172    magn:    0.0481    constr:    0.0000
     atom:   23    charge:    1.7170    magn:   -0.0082    constr:    0.0000
     atom:   24    charge:    1.7163    magn:    0.0132    constr:    0.0000
     atom:   25    charge:    1.7165    magn:   -0.0091    constr:    0.0000
     atom:   26    charge:    1.7145    magn:    0.0415    constr:    0.0000
     atom:   27    charge:    1.9143    magn:   -0.0023    constr:    0.0000
     atom:   28    charge:    7.8595    magn:    0.1002    constr:    0.0000
     atom:   29    charge:    1.9148    magn:   -0.0024    constr:    0.0000
     atom:   30    charge:    1.7115    magn:    0.0311    constr:    0.0000
     atom:   31    charge:    1.7170    magn:   -0.0075    constr:    0.0000
     atom:   32    charge:    1.7163    magn:    0.0136    constr:    0.0000
     atom:   33    charge:    1.7182    magn:   -0.0046    constr:    0.0000
     atom:   34    charge:    1.7143    magn:    0.0098    constr:    0.0000
     atom:   35    charge:    1.7180    magn:   -0.0050    constr:    0.0000
     atom:   36    charge:    1.7143    magn:    0.0028    constr:    0.0000
     atom:   37    charge:    1.7262    magn:   -0.0078    constr:    0.0000
     atom:   38    charge:    1.7151    magn:    0.0462    constr:    0.0000
     atom:   39    charge:    1.9141    magn:    0.0023    constr:    0.0000
     atom:   40    charge:    1.7115    magn:    0.0365    constr:    0.0000
     atom:   41    charge:    1.7268    magn:   -0.0054    constr:    0.0000
     atom:   42    charge:    1.7140    magn:    0.0025    constr:    0.0000
     atom:   43    charge:    1.7186    magn:   -0.0033    constr:    0.0000
     atom:   44    charge:    1.7135    magn:    0.0042    constr:    0.0000
     atom:   45    charge:    1.7246    magn:   -0.0030    constr:    0.0000
     atom:   46    charge:    1.7138    magn:    0.0061    constr:    0.0000
     atom:   47    charge:    1.7184    magn:   -0.0044    constr:    0.0000
     atom:   48    charge:    1.7153    magn:    0.0081    constr:    0.0000
     atom:   49    charge:    1.7162    magn:   -0.0104    constr:    0.0000
     atom:   50    charge:    1.7162    magn:    0.0353    constr:    0.0000
     atom:   51    charge:    1.7165    magn:   -0.0090    constr:    0.0000
     atom:   52    charge:    1.7151    magn:    0.0057    constr:    0.0000

     End of self-consistent calculation

 ------ SPIN UP ------------

          k = 0.0000 0.0000 0.0000 ( 87777 PWs)   bands (ev):

   -62.7763 -37.9014 -37.8408 -36.5352 -19.6181 -18.7949 -18.7521 -18.7064
   -18.6700 -18.6519 -18.2231 -16.9327 -16.9179 -16.9094 -16.7938 -16.7683
   -16.5006 -16.0660 -16.0639 -15.9721 -15.8192 -15.8140 -15.0696 -13.8833
   -13.8781 -13.8586 -13.8424 -13.8408 -13.1191 -12.9059 -12.8962 -12.8814
   -12.4958 -12.4839 -12.0991 -11.6304 -11.6253 -11.5035 -11.1281 -11.1206
   -10.1552  -9.3269  -9.3158  -9.2376  -9.1680  -9.1641  -9.0748  -9.0526
    -9.0490  -9.0345  -8.8384  -8.4440  -8.4335  -7.8810  -7.8693  -7.8367
    -7.7266  -7.6578  -7.2411  -7.2280  -6.9517  -6.9108  -6.8671  -6.6888
    -6.6783  -6.6699  -6.5762  -6.5712  -6.5243  -6.4257  -6.4072  -6.3790
    -6.3732  -6.3565  -6.3164  -6.1214  -5.2473  -5.2364  -5.1600  -5.0824
    -4.9309  -4.9228  -4.8152  -4.7289  -4.6084  -4.6013  -4.5890  -4.1908
    -3.9746  -3.9632  -3.7464  -3.7435  -3.6428  -3.5839  -3.4833  -3.4784
    -2.7957  -2.2570  -2.2424  -2.1922  -2.1710  -1.7343  -1.6702  -1.6634
    -0.4648  -0.2268  -0.2138   1.0608   1.0684   1.0959   1.5342   1.8888
     2.0658   2.0767   2.4887   2.9043   2.9102   2.9901   3.2809   3.5037
     3.7034   3.7435   3.7564   3.8061   3.9217   4.0082   4.0225

     occupation numbers
     1.0000   1.0000   1.0000   1.0000   1.0000   1.0000   1.0000   1.0000
     1.0000   1.0000   1.0000   1.0000   1.0000   1.0000   1.0000   1.0000
     1.0000   1.0000   1.0000   1.0000   1.0000   1.0000   1.0000   1.0000
     1.0000   1.0000   1.0000   1.0000   1.0000   1.0000   1.0000   1.0000
     1.0000   1.0000   1.0000   1.0000   1.0000   1.0000   1.0000   1.0000
     1.0000   1.0000   1.0000   1.0000   1.0000   1.0000   1.0000   1.0000
     1.0000   1.0000   1.0000   1.0000   1.0000   1.0000   1.0000   1.0000
     1.0000   1.0000   1.0000   1.0000   1.0000   1.0000   1.0000   1.0000
     1.0000   1.0000   1.0000   1.0000   1.0000   1.0000   1.0000   1.0000
     1.0000   1.0000   1.0000   1.0000   1.0000   1.0000   1.0000   1.0000
     1.0000   1.0000   1.0000   1.0000   1.0000   1.0000   1.0000   1.0000
     1.0000   1.0000   1.0000   1.0000   1.0000   1.0000   1.0000   1.0000
     1.0000   1.0000   1.0000   1.0000   1.0000   1.0000   1.0000   1.0000
     1.0000   0.8171   0.1829   0.0000   0.0000   0.0000   0.0000   0.0000
     0.0000   0.0000   0.0000   0.0000   0.0000   0.0000   0.0000   0.0000
     0.0000   0.0000   0.0000   0.0000   0.0000   0.0000   0.0000

 ------ SPIN DOWN ----------

          k = 0.0000 0.0000 0.0000 ( 87777 PWs)   bands (ev):

   -62.5833 -37.7980 -37.6246 -36.2716 -19.5970 -18.7802 -18.7250 -18.6863
   -18.6552 -18.6339 -18.1905 -16.9215 -16.8995 -16.8865 -16.7697 -16.7365
   -16.4862 -16.0426 -16.0334 -15.9554 -15.7986 -15.7925 -15.0550 -13.8623
   -13.8482 -13.8433 -13.8226 -13.8011 -13.1220 -12.8968 -12.8839 -12.8661
   -12.4890 -12.4745 -12.0809 -11.6105 -11.6094 -11.4905 -11.1182 -11.1057
   -10.1407  -9.3127  -9.2967  -9.2250  -9.1533  -9.1458  -9.0668  -9.0393
    -9.0335  -9.0234  -8.8224  -8.4366  -8.4267  -7.8705  -7.8573  -7.8282
    -7.6826  -7.6493  -7.2319  -7.2194  -6.8713  -6.8643  -6.8342  -6.6547
    -6.6398  -6.6275  -6.5651  -6.5609  -6.5148  -6.4169  -6.3968  -6.3743
    -6.3653  -6.3487  -6.3079  -6.0408  -5.2402  -5.2259  -5.0630  -5.0157
    -4.9214  -4.9125  -4.8094  -4.7226  -4.5750  -4.5512  -4.5293  -4.1515
    -3.9305  -3.9082  -3.6754  -3.6680  -3.5936  -3.5555  -3.4774  -3.4706
    -2.7571  -2.1943  -2.1745  -2.1341  -2.0975  -1.6617  -1.6529  -1.6277
    -0.4615  -0.0686   0.0739   1.0893   1.1148   1.1417   1.6089   1.9449
     2.1265   2.1574   2.4945   2.9707   2.9812   3.0358   3.3011   3.5135
     3.7136   3.7470   3.7594   3.8147   3.9546   4.0584   4.1072

     occupation numbers
     1.0000   1.0000   1.0000   1.0000   1.0000   1.0000   1.0000   1.0000
     1.0000   1.0000   1.0000   1.0000   1.0000   1.0000   1.0000   1.0000
     1.0000   1.0000   1.0000   1.0000   1.0000   1.0000   1.0000   1.0000
     1.0000   1.0000   1.0000   1.0000   1.0000   1.0000   1.0000   1.0000
     1.0000   1.0000   1.0000   1.0000   1.0000   1.0000   1.0000   1.0000
     1.0000   1.0000   1.0000   1.0000   1.0000   1.0000   1.0000   1.0000
     1.0000   1.0000   1.0000   1.0000   1.0000   1.0000   1.0000   1.0000
     1.0000   1.0000   1.0000   1.0000   1.0000   1.0000   1.0000   1.0000
     1.0000   1.0000   1.0000   1.0000   1.0000   1.0000   1.0000   1.0000
     1.0000   1.0000   1.0000   1.0000   1.0000   1.0000   1.0000   1.0000
     1.0000   1.0000   1.0000   1.0000   1.0000   1.0000   1.0000   1.0000
     1.0000   1.0000   1.0000   1.0000   1.0000   1.0000   1.0000   1.0000
     1.0000   1.0000   1.0000   1.0000   1.0000   1.0000   1.0000   1.0000
     1.0000   0.0000   0.0000   0.0000   0.0000   0.0000   0.0000   0.0000
     0.0000   0.0000   0.0000   0.0000   0.0000   0.0000   0.0000   0.0000
     0.0000   0.0000   0.0000   0.0000   0.0000   0.0000   0.0000

     the Fermi energy is    -0.2190 ev

!    total energy              =    -757.32601041 Ry
     Harris-Foulkes estimate   =    -757.32601014 Ry
     estimated scf accuracy    <       0.00000018 Ry

     The total energy is the sum of the following terms:

     one-electron contribution =   -2611.07706072 Ry
     hartree contribution      =    1352.45137699 Ry
     xc contribution           =    -252.72690783 Ry
     ewald contribution        =     754.02676589 Ry
     smearing contrib. (-TS)   =      -0.00018475 Ry

     total magnetization       =     1.00 Bohr mag/cell
     absolute magnetization    =     1.54 Bohr mag/cell

     convergence has been achieved in  35 iterations

     Writing output data file vanadio-bridge2-distance-2.0.save/

     General routines

     Parallel routines

   This run was terminated on:   8:38:40   2Sep2022

   JOB DONE.