     Program PWSCF v.6.4.1 starts on 23Mar2022 at 15:17:22

     R & G space division:  proc/nbgrp/npool/nimage =       6
     Reading input from ni-35.in
Warning: card NI1   58.6934    NI.PBE-SPN-RRKJUS_PSL.1.0.0.UPF ignored
Warning: card NI2   58.6934    NI.PBE-SPN-RRKJUS_PSL.1.0.0.UPF ignored

     Current dimensions of program PWSCF are:
     Max number of different atomic species (ntypx) = 10
     Max number of k-points (npk) =  40000
     Max angular momentum in pseudopotentials (lmaxx) =  3

     Subspace diagonalization in iterative solution of the eigenvalue problem:
     a serial algorithm will be used

     Found symmetry operation: I + (  0.0000 -0.5000 -0.5000)
     This is a supercell, fractional translations are disabled
     Message from routine setup:
     DEPRECATED: symmetry with ibrav=0, use correct ibrav instead

     bravais-lattice index     =            0
     lattice parameter (alat)  =       6.6518  a.u.
     unit-cell volume          =     294.3233 (a.u.)^3
     number of atoms/cell      =            4
     number of atomic types    =            2
     number of electrons       =        72.00
     number of Kohn-Sham states=           43
     kinetic-energy cutoff     =      35.0000  Ry
     charge density cutoff     =     140.0000  Ry
     convergence threshold     =      1.0E-06
     mixing beta               =       0.7000
     number of iterations used =            8  plain     mixing
     Exchange-correlation      = PBE ( 1  4  3  4 0 0)

     celldm(1)=   6.651836  celldm(2)=   0.000000  celldm(3)=   0.000000
     celldm(4)=   0.000000  celldm(5)=   0.000000  celldm(6)=   0.000000

     crystal axes: (cart. coord. in units of alat)
               a(1) = (   1.000000   0.000000   0.000000 )
               a(2) = (   0.000000   1.000000   0.000000 )
               a(3) = (   0.000000   0.000000   1.000000 )

     reciprocal axes: (cart. coord. in units 2 pi/alat)
               b(1) = (  1.000000  0.000000  0.000000 )
               b(2) = (  0.000000  1.000000  0.000000 )
               b(3) = (  0.000000  0.000000  1.000000 )

     PseudoPot. # 1 for Ni read from file:
     /home/cristian/Escritorio/Proyecto_Grafeno/pseudopotenciales/Ni.pbe-spn-rrkjus_psl.1.0.0.UPF
     MD5 check sum: 8b3fc9aac6dafe35f580d41bb18c3945
     Pseudo is Ultrasoft + core correction, Zval = 18.0
     Generated using "atomic" code by A. Dal Corso v.6.3
     Using radial grid of 1195 points,  6 beta functions with:
                l(1) =   0
                l(2) =   0
                l(3) =   1
                l(4) =   1
                l(5) =   2
                l(6) =   2
     Q(r) pseudized with 0 coefficients

     PseudoPot. # 2 for Ni read from file:
     /home/cristian/Escritorio/Proyecto_Grafeno/pseudopotenciales/Ni.pbe-spn-rrkjus_psl.1.0.0.UPF
     MD5 check sum: 8b3fc9aac6dafe35f580d41bb18c3945
     Pseudo is Ultrasoft + core correction, Zval = 18.0
     Generated using "atomic" code by A. Dal Corso v.6.3
     Using radial grid of 1195 points,  6 beta functions with:
                l(1) =   0
                l(2) =   0
                l(3) =   1
                l(4) =   1
                l(5) =   2
                l(6) =   2
     Q(r) pseudized with 0 coefficients

     atomic species   valence    mass     pseudopotential
        Ni1           18.00    58.69340     Ni( 1.00)
        Ni2           18.00    58.69340     Ni( 1.00)

     Starting magnetic structure
     atomic species   magnetization
        Ni1          0.100
        Ni2         -0.100

     16 Sym. Ops., with inversion, found

   Cartesian axes

     site n.     atom                  positions (alat units)
         1           Ni1 tau(   1) = (   0.0000000   0.0000000   0.0000000  )
         2           Ni2 tau(   2) = (   0.5000000   0.5000000   0.0000000  )
         3           Ni1 tau(   3) = (   0.0000000   0.5000000   0.5000000  )
         4           Ni2 tau(   4) = (   0.5000000   0.0000000   0.5000000  )

     number of k points=    40  Methfessel-Paxton smearing, width (Ry)=  0.0300
                       cart. coord. in units 2pi/alat
        k(    1) = (   0.0625000   0.0625000   0.0625000), wk =   0.0156250
        k(    2) = (   0.0625000   0.0625000   0.1875000), wk =   0.0312500
        k(    3) = (   0.0625000   0.0625000   0.3125000), wk =   0.0312500
        k(    4) = (   0.0625000   0.0625000   0.4375000), wk =   0.0312500
        k(    5) = (   0.0625000   0.1875000   0.1875000), wk =   0.0156250
        k(    6) = (   0.0625000   0.1875000   0.3125000), wk =   0.0312500
        k(    7) = (   0.0625000   0.1875000   0.4375000), wk =   0.0312500
        k(    8) = (   0.0625000   0.3125000   0.3125000), wk =   0.0156250
        k(    9) = (   0.0625000   0.3125000   0.4375000), wk =   0.0312500
        k(   10) = (   0.0625000   0.4375000   0.4375000), wk =   0.0156250
        k(   11) = (   0.1875000   0.1875000   0.1875000), wk =   0.0156250
        k(   12) = (   0.1875000   0.1875000   0.3125000), wk =   0.0312500
        k(   13) = (   0.1875000   0.1875000   0.4375000), wk =   0.0312500
        k(   14) = (   0.1875000   0.3125000   0.3125000), wk =   0.0156250
        k(   15) = (   0.1875000   0.3125000   0.4375000), wk =   0.0312500
        k(   16) = (   0.1875000   0.4375000   0.4375000), wk =   0.0156250
        k(   17) = (   0.3125000   0.3125000   0.3125000), wk =   0.0156250
        k(   18) = (   0.3125000   0.3125000   0.4375000), wk =   0.0312500
        k(   19) = (   0.3125000   0.4375000   0.4375000), wk =   0.0156250
        k(   20) = (   0.4375000   0.4375000   0.4375000), wk =   0.0156250
        k(   21) = (   0.1875000   0.0625000   0.0625000), wk =   0.0156250
        k(   22) = (   0.3125000   0.0625000   0.0625000), wk =   0.0156250
        k(   23) = (   0.4375000   0.0625000   0.0625000), wk =   0.0156250
        k(   24) = (   0.1875000   0.1875000   0.0625000), wk =   0.0312500
        k(   25) = (   0.1875000   0.3125000   0.0625000), wk =   0.0312500
        k(   26) = (   0.3125000   0.0625000   0.1875000), wk =   0.0312500
        k(   27) = (   0.1875000   0.4375000   0.0625000), wk =   0.0312500
        k(   28) = (   0.4375000   0.0625000   0.1875000), wk =   0.0312500
        k(   29) = (   0.3125000   0.3125000   0.0625000), wk =   0.0312500
        k(   30) = (   0.3125000   0.4375000   0.0625000), wk =   0.0312500
        k(   31) = (   0.4375000   0.0625000   0.3125000), wk =   0.0312500
        k(   32) = (   0.4375000   0.4375000   0.0625000), wk =   0.0312500
        k(   33) = (   0.3125000   0.1875000   0.1875000), wk =   0.0156250
        k(   34) = (   0.4375000   0.1875000   0.1875000), wk =   0.0156250
        k(   35) = (   0.3125000   0.3125000   0.1875000), wk =   0.0312500
        k(   36) = (   0.3125000   0.4375000   0.1875000), wk =   0.0312500
        k(   37) = (   0.4375000   0.1875000   0.3125000), wk =   0.0312500
        k(   38) = (   0.4375000   0.4375000   0.1875000), wk =   0.0312500
        k(   39) = (   0.4375000   0.3125000   0.3125000), wk =   0.0156250
        k(   40) = (   0.4375000   0.4375000   0.3125000), wk =   0.0312500

     Check: negative core charge=   -0.000037

     Initial potential from superposition of free atoms

     starting charge   71.99900, renormalised to   72.00000
     Starting wfcs are   40 randomized atomic wfcs +    3 random wfcs

     Self-consistent Calculation

     iteration #  1     ecut=    35.00 Ry     beta= 0.70
     Davidson diagonalization with overlap
     ethr =  1.00E-02,  avg # of iterations =  3.2

     total energy              =   -1351.79468381 Ry
     Harris-Foulkes estimate   =   -1352.37112158 Ry
     estimated scf accuracy    <       1.03066480 Ry

     total magnetization       =    -0.00 Bohr mag/cell
     absolute magnetization    =     3.31 Bohr mag/cell

[...]

     total energy              =   -1352.23648599 Ry
     Harris-Foulkes estimate   =   -1352.23648916 Ry
     estimated scf accuracy    <       0.00000194 Ry

[...]

     iteration # 18     ecut=    35.00 Ry     beta= 0.70
     Davidson diagonalization with overlap
     ethr =  2.69E-09,  avg # of iterations =  2.5

     Magnetic moment per site:
     atom:    1    charge:   16.6919    magn:    0.0511    constr:    0.0000
     atom:    2    charge:   16.6868    magn:   -0.0143    constr:    0.0000
     atom:    3    charge:   16.6863    magn:   -0.0205    constr:    0.0000
     atom:    4    charge:   16.6868    magn:   -0.0143    constr:    0.0000

     End of self-consistent calculation

 ------ SPIN UP ------------

          k = 0.0625 0.0625 0.0625 (  1021 PWs)   bands (ev):

   -86.6181 -86.5686 -86.5459 -86.5422 -45.2824 -45.1176 -45.1165 -45.0611
   -45.0600 -45.0507 -44.9342 -44.9320 -44.9221 -44.7749 -44.7518 -44.7494
     9.2520  13.5629  13.5643  13.5656  14.2558  14.2598  14.2602  15.7913
    15.8507  15.8540  17.1056  17.1090  18.0152  18.0160  18.0466  18.1076
    18.1359  18.1397  18.3161  18.3182  18.3518  20.3775  20.3818  20.3826
    27.5923  27.5928  27.5965

[...]

 ------ SPIN DOWN ----------

[...]

          k = 0.4375 0.4375 0.3125 (  1024 PWs)   bands (ev):

   -86.5876 -86.5835 -86.5799 -86.5352 -45.2103 -45.1659 -45.1622 -45.1366
   -45.1246 -45.0533 -45.0512 -44.9589 -44.9362 -44.9213 -44.9106 -44.8110
    13.2321  13.6197  13.6260  13.8253  15.6897  15.6925  15.7172  15.8603
    15.8844  15.9883  16.0092  16.0666  16.2924  16.4017  16.4082  16.5225
    17.8411  17.9904  18.0242  18.0283  18.3010  19.0563  19.0846  19.6766
    24.2334  24.9585  24.9605

     the Fermi energy is    18.1118 ev

!    total energy              =   -1352.23649210 Ry
     Harris-Foulkes estimate   =   -1352.23649165 Ry
     estimated scf accuracy    <       0.00000075 Ry

     The total energy is the sum of the following terms:

     one-electron contribution =    -735.86658572 Ry
     hartree contribution      =     413.86156000 Ry
     xc contribution           =    -136.93733601 Ry
     ewald contribution        =    -893.28438931 Ry
     smearing contrib. (-TS)   =      -0.00974105 Ry

     total magnetization       =     0.00 Bohr mag/cell
     absolute magnetization    =     0.13 Bohr mag/cell

     convergence has been achieved in  18 iterations

     Writing output data file ni-35.save/

     General routines

     Parallel routines

   This run was terminated on:  15:18:31  23Mar2022

   JOB DONE.