     Program PWSCF v.6.4.1 starts on 25Sep2022 at  8:59:46

     R & G space division:  proc/nbgrp/npool/nimage =       6
     Reading input from cu-relax.in

     Current dimensions of program PWSCF are:
     Max number of different atomic species (ntypx) = 10
     Max number of k-points (npk) =  40000
     Max angular momentum in pseudopotentials (lmaxx) =  3
               file H.pbe-rrkjus.UPF: wavefunction(s)  1S renormalized
               file Cu.pbe-dn-rrkjus_psl.1.0.0.UPF: wavefunction(s)  3D renormalized

     Subspace diagonalization in iterative solution of the eigenvalue problem:
     a serial algorithm will be used

     bravais-lattice index     =            4
     lattice parameter (alat)  =      23.2937  a.u.
     unit-cell volume          =    8879.8548 (a.u.)^3
     number of atoms/cell      =           52
     number of atomic types    =            3
     number of electrons       =       209.00
     number of Kohn-Sham states=          126
     kinetic-energy cutoff     =      70.0000  Ry
     charge density cutoff     =     490.0000  Ry
     convergence threshold     =      1.0E-10
     mixing beta               =       0.7000
     number of iterations used =            8  plain     mixing
     Exchange-correlation      = PBE ( 1  4  3  4 0 0)
     nstep                     =           50

     celldm(1)=  23.293684  celldm(2)=   0.000000  celldm(3)=   0.811261
     celldm(4)=   0.000000  celldm(5)=   0.000000  celldm(6)=   0.000000

     crystal axes: (cart. coord. in units of alat)
               a(1) = (   1.000000   0.000000   0.000000 )
               a(2) = (  -0.500000   0.866025   0.000000 )
               a(3) = (   0.000000   0.000000   0.811261 )

     reciprocal axes: (cart. coord. in units 2 pi/alat)
               b(1) = (  1.000000  0.577350 -0.000000 )
               b(2) = (  0.000000  1.154701  0.000000 )
               b(3) = (  0.000000 -0.000000  1.232649 )

     PseudoPot. # 1 for H  read from file:
     /home/cristian/Escritorio/Proyecto_Grafeno/pseudopotenciales/H.pbe-rrkjus.UPF
     MD5 check sum: 7cc9d459525c9a0585f487a71c3c9563
     Pseudo is Ultrasoft, Zval =  1.0
     Generated by new atomic code, or converted to UPF format
     Using radial grid of 1061 points,  2 beta functions with:
                l(1) =   0
                l(2) =   0
     Q(r) pseudized with 0 coefficients

     PseudoPot. # 2 for C  read from file:
     /home/cristian/Escritorio/Proyecto_Grafeno/pseudopotenciales/C.pbe-n-rrkjus_psl.1.0.0.UPF
     MD5 check sum: 1fdd950c42eb37d8afe3dd2f8d12311e
     Pseudo is Ultrasoft + core correction, Zval =  4.0
     Generated using "atomic" code by A. Dal Corso v.6.3MaX
     Using radial grid of 1073 points,  4 beta functions with:
                l(1) =   0
                l(2) =   0
                l(3) =   1
                l(4) =   1
     Q(r) pseudized with 0 coefficients

     PseudoPot. # 3 for Cu read from file:
     /home/cristian/Escritorio/Proyecto_Grafeno/pseudopotenciales/Cu.pbe-dn-rrkjus_psl.1.0.0.UPF
     MD5 check sum: ba3d6c84e19846e79d48cdc68ff7152b
     Pseudo is Ultrasoft + core correction, Zval = 11.0
     Generated using "atomic" code by A. Dal Corso v.6.3
     Using radial grid of 1199 points,  6 beta functions with:
                l(1) =   0
                l(2) =   0
                l(3) =   1
                l(4) =   1
                l(5) =   2
                l(6) =   2
     Q(r) pseudized with 0 coefficients

     atomic species   valence    mass     pseudopotential
        H              1.00     1.00794     H ( 1.00)
        C              4.00    12.01070     C ( 1.00)
        Cu            11.00    63.54600     Cu( 1.00)

     Starting magnetic structure
     atomic species   magnetization
        H            0.500
        C            0.300
        Cu           0.800

     No symmetry found

                                    s                        frac. trans.

      isym =  1     identity

 cryst.   s( 1) = (     1          0          0      )
                  (     0          1          0      )
                  (     0          0          1      )

 cart.    s( 1) = (  1.0000000  0.0000000  0.0000000 )
                  (  0.0000000  1.0000000  0.0000000 )
                  (  0.0000000  0.0000000  1.0000000 )

     point group C_1 (1)
     there are  1 classes
     the character table:

       E
A      1.00

     the symmetry operations in each class and the name of the first element:

     E        1
          identity

   Cartesian axes

     site n.     atom                  positions (alat units)
         1           H   tau(   1) = (   0.3305063   0.4041452   0.2433783  )
         2           H   tau(   2) = (   0.2694937   0.4041452   0.2433783  )
         3           C   tau(   3) = (   0.0000000   0.0000000   0.0000000  )
         4           C   tau(   4) = (   0.0000000   0.1154701   0.0000000  )
         5           C   tau(   5) = (  -0.1000000   0.1732051   0.0000000  )
         6           C   tau(   6) = (  -0.1000000   0.2886751   0.0000000  )
         7           C   tau(   7) = (  -0.2000000   0.3464102   0.0000000  )
         8           C   tau(   8) = (  -0.2000000   0.4618802   0.0000000  )
         9           C   tau(   9) = (  -0.3000000   0.5196152   0.0000000  )
        10           C   tau(  10) = (  -0.3000000   0.6350853   0.0000000  )
        11           C   tau(  11) = (  -0.4000000   0.6928203   0.0000000  )
        12           C   tau(  12) = (  -0.4000000   0.8082904   0.0000000  )
        13           C   tau(  13) = (   0.2000000   0.0000000   0.0000000  )
        14           C   tau(  14) = (   0.2000000   0.1154701   0.0000000  )
        15           C   tau(  15) = (   0.1000000   0.1732051   0.0000000  )
        16           C   tau(  16) = (   0.1000000   0.2886751   0.0000000  )
        17           C   tau(  17) = (   0.0000000   0.3464102   0.0000000  )
        18           C   tau(  18) = (   0.0000000   0.4618802   0.0000000  )
        19           C   tau(  19) = (  -0.1000000   0.5196152   0.0000000  )
        20           C   tau(  20) = (  -0.1000000   0.6350853   0.0000000  )
        21           C   tau(  21) = (  -0.2000000   0.6928203   0.0000000  )
        22           C   tau(  22) = (  -0.2000000   0.8082904   0.0000000  )
        23           C   tau(  23) = (   0.4000000   0.0000000   0.0000000  )
        24           C   tau(  24) = (   0.4000000   0.1154701   0.0000000  )
        25           C   tau(  25) = (   0.3000000   0.1732051   0.0000000  )
        26           C   tau(  26) = (   0.3000000   0.2886751   0.0000000  )
        27           C   tau(  27) = (   0.2000000   0.3464102   0.0000000  )
        28           Cu  tau(  28) = (   0.2000000   0.4618802   0.0000000  )
        29           C   tau(  29) = (   0.1000000   0.5196152   0.0000000  )
        30           C   tau(  30) = (   0.1000000   0.6350853   0.0000000  )
        31           C   tau(  31) = (   0.0000000   0.6928203   0.0000000  )
        32           C   tau(  32) = (   0.0000000   0.8082904   0.0000000  )
        33           C   tau(  33) = (   0.6000000   0.0000000   0.0000000  )
        34           C   tau(  34) = (   0.6000000   0.1154701   0.0000000  )
        35           C   tau(  35) = (   0.5000000   0.1732051   0.0000000  )
        36           C   tau(  36) = (   0.5000000   0.2886751   0.0000000  )
        37           C   tau(  37) = (   0.4000000   0.3464102   0.0000000  )
        38           C   tau(  38) = (   0.4000000   0.4618802   0.0000000  )
        39           C   tau(  39) = (   0.3000000   0.5196152   0.0000000  )
        40           C   tau(  40) = (   0.3000000   0.6350853   0.0000000  )
        41           C   tau(  41) = (   0.2000000   0.6928203   0.0000000  )
        42           C   tau(  42) = (   0.2000000   0.8082904   0.0000000  )
        43           C   tau(  43) = (   0.8000000   0.0000000   0.0000000  )
        44           C   tau(  44) = (   0.8000000   0.1154701   0.0000000  )
        45           C   tau(  45) = (   0.7000000   0.1732051   0.0000000  )
        46           C   tau(  46) = (   0.7000000   0.2886751   0.0000000  )
        47           C   tau(  47) = (   0.6000000   0.3464102   0.0000000  )
        48           C   tau(  48) = (   0.6000000   0.4618802   0.0000000  )
        49           C   tau(  49) = (   0.5000000   0.5196152   0.0000000  )
        50           C   tau(  50) = (   0.5000000   0.6350853   0.0000000  )
        51           C   tau(  51) = (   0.4000000   0.6928203   0.0000000  )
        52           C   tau(  52) = (   0.4000000   0.8082904   0.0000000  )

   Crystallographic axes

     site n.     atom                  positions (cryst. coord.)
         1           H   tau(   1) = (  0.5638397  0.4666667  0.3000000  )
         2           H   tau(   2) = (  0.5028270  0.4666667  0.3000000  )
         3           C   tau(   3) = (  0.0000000  0.0000000  0.0000000  )
         4           C   tau(   4) = (  0.0666667  0.1333333  0.0000000  )
         5           C   tau(   5) = (  0.0000000  0.2000000  0.0000000  )
         6           C   tau(   6) = (  0.0666667  0.3333333  0.0000000  )
         7           C   tau(   7) = (  0.0000000  0.4000000  0.0000000  )
         8           C   tau(   8) = (  0.0666667  0.5333333  0.0000000  )
         9           C   tau(   9) = (  0.0000000  0.6000000  0.0000000  )
        10           C   tau(  10) = (  0.0666667  0.7333333  0.0000000  )
        11           C   tau(  11) = (  0.0000000  0.8000000  0.0000000  )
        12           C   tau(  12) = (  0.0666667  0.9333333  0.0000000  )
        13           C   tau(  13) = (  0.2000000  0.0000000  0.0000000  )
        14           C   tau(  14) = (  0.2666667  0.1333333  0.0000000  )
        15           C   tau(  15) = (  0.2000000  0.2000000  0.0000000  )
        16           C   tau(  16) = (  0.2666667  0.3333333  0.0000000  )
        17           C   tau(  17) = (  0.2000000  0.4000000  0.0000000  )
        18           C   tau(  18) = (  0.2666667  0.5333333  0.0000000  )
        19           C   tau(  19) = (  0.2000000  0.6000000  0.0000000  )
        20           C   tau(  20) = (  0.2666667  0.7333333  0.0000000  )
        21           C   tau(  21) = (  0.2000000  0.8000000  0.0000000  )
        22           C   tau(  22) = (  0.2666667  0.9333333  0.0000000  )
        23           C   tau(  23) = (  0.4000000  0.0000000  0.0000000  )
        24           C   tau(  24) = (  0.4666667  0.1333333  0.0000000  )
        25           C   tau(  25) = (  0.4000000  0.2000000  0.0000000  )
        26           C   tau(  26) = (  0.4666667  0.3333333  0.0000000  )
        27           C   tau(  27) = (  0.4000000  0.4000000  0.0000000  )
        28           Cu  tau(  28) = (  0.4666667  0.5333333  0.0000000  )
        29           C   tau(  29) = (  0.4000000  0.6000000  0.0000000  )
        30           C   tau(  30) = (  0.4666667  0.7333333  0.0000000  )
        31           C   tau(  31) = (  0.4000000  0.8000000  0.0000000  )
        32           C   tau(  32) = (  0.4666667  0.9333333  0.0000000  )
[...]
     atom   34 type  2   force =    -0.04141725    0.11299450   -0.47181365
     atom   35 type  2   force =    -0.24487537    0.21002851   -0.55775697
     atom   36 type  2   force =    -0.46673097    0.42122552   -0.39087890
     atom   37 type  2   force =    -0.64463813    0.48755100   -0.01650935
     atom   38 type  2   force =    -1.10156940    0.30064556    0.57013133
     atom   39 type  2   force =    -1.54215698   -1.22942322    3.13801153
     atom   40 type  2   force =    -0.02879545   -1.20329499    0.49169347
     atom   41 type  2   force =     0.06498007   -0.75190907    0.38752172
     atom   42 type  2   force =     0.06679691   -0.37679572   -0.13735515
     atom   43 type  2   force =     0.08786185   -0.16422081   -0.34582988
     atom   44 type  2   force =     0.11561850    0.08168330   -0.53558832
     atom   45 type  2   force =    -0.02014641    0.09103165   -0.36494291
     atom   46 type  2   force =     0.00422812    0.19254060   -0.56556814
     atom   47 type  2   force =    -0.22968580    0.15057770   -0.44004222
     atom   48 type  2   force =    -0.30282218    0.09318063   -0.88266450
     atom   49 type  2   force =    -0.59371429   -0.25717025   -0.45345396
     atom   50 type  2   force =    -0.32487470   -0.32820298   -0.20558436
     atom   51 type  2   force =    -0.22593867   -0.51387288   -0.40137877
     atom   52 type  2   force =    -0.02474418   -0.23627136   -0.69251294
     The core correction contribution to forces
     atom    1 type  1   force =     0.00000000    0.00000000    0.00000000
     atom    2 type  1   force =     0.00000000    0.00000000    0.00000000
     atom    3 type  2   force =     0.00000104    0.00009336   -0.00024471
     atom    4 type  2   force =    -0.00011323   -0.00019622   -0.00019540
     atom    5 type  2   force =    -0.00023101   -0.00026042   -0.00021730
     atom    6 type  2   force =     0.00049788    0.00041166   -0.00033056
     atom    7 type  2   force =    -0.00037458   -0.00020637   -0.00038651
     atom    8 type  2   force =    -0.00014252    0.00032310   -0.00043997
     atom    9 type  2   force =     0.00001612   -0.00039226   -0.00038971
     atom   10 type  2   force =    -0.00000559    0.00011192   -0.00026610
     atom   11 type  2   force =    -0.00013461   -0.00011680   -0.00026337
     atom   12 type  2   force =     0.00004348   -0.00004190   -0.00019743
     atom   13 type  2   force =    -0.00007329   -0.00033992   -0.00018456
     atom   14 type  2   force =    -0.00001259   -0.00005832   -0.00026793
     atom   15 type  2   force =    -0.00022992   -0.00068424   -0.00019445
     atom   16 type  2   force =     0.00093044   -0.00021085    0.00004899
     atom   17 type  2   force =    -0.00104926   -0.00020351    0.00028509
     atom   18 type  2   force =     0.00032009    0.00122911    0.00009484
     atom   19 type  2   force =    -0.00047126   -0.00031480   -0.00008289
     atom   20 type  2   force =    -0.00023619    0.00013826   -0.00031990
     atom   21 type  2   force =    -0.00009383   -0.00003783   -0.00017601
     atom   22 type  2   force =     0.00003223   -0.00002852   -0.00017026
     atom   23 type  2   force =    -0.00022139   -0.00005713   -0.00022797
     atom   24 type  2   force =     0.00040363   -0.00003663   -0.00024715
     atom   25 type  2   force =     0.00008049   -0.00101118   -0.00011221
     atom   26 type  2   force =    -0.00032219   -0.00019925    0.00028766
     atom   27 type  2   force =    -0.00033064   -0.00452147    0.00299389
     atom   28 type  3   force =     0.00936206    0.01993530    0.04388595
     atom   29 type  2   force =    -0.00408919    0.00120853   -0.00060713
     atom   30 type  2   force =    -0.00039874   -0.00011300    0.00055086
     atom   31 type  2   force =    -0.00061809    0.00053196    0.00001086
     atom   32 type  2   force =     0.00029088    0.00026651   -0.00011899
     atom   33 type  2   force =    -0.00034296    0.00015569   -0.00008214
     atom   34 type  2   force =     0.00033591    0.00026925   -0.00021953
     atom   35 type  2   force =    -0.00000768   -0.00034243   -0.00026022
     atom   36 type  2   force =    -0.00022473    0.00038453   -0.00020006
     atom   37 type  2   force =     0.00105618    0.00004207    0.00048204
     atom   38 type  2   force =    -0.00024828    0.00143952    0.00048267
     atom   39 type  2   force =     0.00171222    0.00039147   -0.00095229
     atom   40 type  2   force =     0.00094682   -0.00074733    0.00047456
     atom   41 type  2   force =     0.00018054    0.00090668   -0.00040202
     atom   42 type  2   force =     0.00013306   -0.00009292   -0.00002458
     atom   43 type  2   force =     0.00019738    0.00017529   -0.00012774
     atom   44 type  2   force =    -0.00000823    0.00018848   -0.00017908
     atom   45 type  2   force =    -0.00008546   -0.00002606   -0.00021759
     atom   46 type  2   force =     0.00005919    0.00003743   -0.00011982
     atom   47 type  2   force =     0.00030654   -0.00013965   -0.00036485
     atom   48 type  2   force =     0.00000944    0.00037321   -0.00038534
     atom   49 type  2   force =     0.00019907   -0.00040991    0.00014569
     atom   50 type  2   force =     0.00026337    0.00015460   -0.00025821
     atom   51 type  2   force =     0.00006644    0.00033212    0.00003879
     atom   52 type  2   force =    -0.00004613    0.00001089   -0.00016176
     The Hubbard contrib.    to forces
     atom    1 type  1   force =     0.00000000    0.00000000    0.00000000
     atom    2 type  1   force =     0.00000000    0.00000000    0.00000000
     atom    3 type  2   force =     0.00000000    0.00000000    0.00000000
     atom    4 type  2   force =     0.00000000    0.00000000    0.00000000
     atom    5 type  2   force =     0.00000000    0.00000000    0.00000000
     atom    6 type  2   force =     0.00000000    0.00000000    0.00000000
     atom    7 type  2   force =     0.00000000    0.00000000    0.00000000
     atom    8 type  2   force =     0.00000000    0.00000000    0.00000000
     atom    9 type  2   force =     0.00000000    0.00000000    0.00000000
     atom   10 type  2   force =     0.00000000    0.00000000    0.00000000
     atom   11 type  2   force =     0.00000000    0.00000000    0.00000000
     atom   12 type  2   force =     0.00000000    0.00000000    0.00000000
     atom   13 type  2   force =     0.00000000    0.00000000    0.00000000
     atom   14 type  2   force =     0.00000000    0.00000000    0.00000000
     atom   15 type  2   force =     0.00000000    0.00000000    0.00000000
     atom   16 type  2   force =     0.00000000    0.00000000    0.00000000
     atom   17 type  2   force =     0.00000000    0.00000000    0.00000000
     atom   18 type  2   force =     0.00000000    0.00000000    0.00000000
     atom   19 type  2   force =     0.00000000    0.00000000    0.00000000
     atom   20 type  2   force =     0.00000000    0.00000000    0.00000000
     atom   21 type  2   force =     0.00000000    0.00000000    0.00000000
     atom   22 type  2   force =     0.00000000    0.00000000    0.00000000
     atom   23 type  2   force =     0.00000000    0.00000000    0.00000000
     atom   24 type  2   force =     0.00000000    0.00000000    0.00000000
     atom   25 type  2   force =     0.00000000    0.00000000    0.00000000
     atom   26 type  2   force =     0.00000000    0.00000000    0.00000000
     atom   27 type  2   force =     0.00000000    0.00000000    0.00000000
     atom   28 type  3   force =     0.00000000    0.00000000    0.00000000
     atom   29 type  2   force =     0.00000000    0.00000000    0.00000000
     atom   30 type  2   force =     0.00000000    0.00000000    0.00000000
     atom   31 type  2   force =     0.00000000    0.00000000    0.00000000
     atom   32 type  2   force =     0.00000000    0.00000000    0.00000000
     atom   33 type  2   force =     0.00000000    0.00000000    0.00000000
     atom   34 type  2   force =     0.00000000    0.00000000    0.00000000
     atom   35 type  2   force =     0.00000000    0.00000000    0.00000000
     atom   36 type  2   force =     0.00000000    0.00000000    0.00000000
     atom   37 type  2   force =     0.00000000    0.00000000    0.00000000
     atom   38 type  2   force =     0.00000000    0.00000000    0.00000000
     atom   39 type  2   force =     0.00000000    0.00000000    0.00000000
     atom   40 type  2   force =     0.00000000    0.00000000    0.00000000
     atom   41 type  2   force =     0.00000000    0.00000000    0.00000000
     atom   42 type  2   force =     0.00000000    0.00000000    0.00000000
     atom   43 type  2   force =     0.00000000    0.00000000    0.00000000
     atom   44 type  2   force =     0.00000000    0.00000000    0.00000000
     atom   45 type  2   force =     0.00000000    0.00000000    0.00000000
     atom   46 type  2   force =     0.00000000    0.00000000    0.00000000
     atom   47 type  2   force =     0.00000000    0.00000000    0.00000000
     atom   48 type  2   force =     0.00000000    0.00000000    0.00000000
     atom   49 type  2   force =     0.00000000    0.00000000    0.00000000
     atom   50 type  2   force =     0.00000000    0.00000000    0.00000000
     atom   51 type  2   force =     0.00000000    0.00000000    0.00000000
     atom   52 type  2   force =     0.00000000    0.00000000    0.00000000
     The SCF correction term to forces
     atom    1 type  1   force =     0.00000001   -0.00000002   -0.00000001
     atom    2 type  1   force =     0.00000001   -0.00000002   -0.00000000
     atom    3 type  2   force =    -0.00000008    0.00000004   -0.00000002
     atom    4 type  2   force =    -0.00000017   -0.00000010   -0.00000001
     atom    5 type  2   force =    -0.00000027    0.00000004   -0.00000002
     atom    6 type  2   force =    -0.00000041   -0.00000011    0.00000000
     atom    7 type  2   force =    -0.00000016   -0.00000020   -0.00000002
     atom    8 type  2   force =    -0.00000031   -0.00000018   -0.00000002
     atom    9 type  2   force =    -0.00000008   -0.00000001   -0.00000004
     atom   10 type  2   force =     0.00000007    0.00000003   -0.00000004
     atom   11 type  2   force =     0.00000024   -0.00000007   -0.00000004
     atom   12 type  2   force =     0.00000017   -0.00000001   -0.00000003
     atom   13 type  2   force =     0.00000021   -0.00000001   -0.00000003
     atom   14 type  2   force =     0.00000030   -0.00000006   -0.00000001
     atom   15 type  2   force =     0.00000017   -0.00000016    0.00000000
     atom   16 type  2   force =     0.00000035    0.00000002    0.00000001
     atom   17 type  2   force =    -0.00000025   -0.00000015    0.00000002
     atom   18 type  2   force =    -0.00000016   -0.00000013    0.00000002
     atom   19 type  2   force =    -0.00000029    0.00000009    0.00000001
     atom   20 type  2   force =    -0.00000030    0.00000030   -0.00000000
     atom   21 type  2   force =    -0.00000008    0.00000008   -0.00000004
     atom   22 type  2   force =    -0.00000002   -0.00000001   -0.00000003
     atom   23 type  2   force =     0.00000002    0.00000006   -0.00000002
     atom   24 type  2   force =    -0.00000001    0.00000012   -0.00000002
     atom   25 type  2   force =     0.00000016    0.00000013   -0.00000001
     atom   26 type  2   force =     0.00000012    0.00000004    0.00000001
     atom   27 type  2   force =     0.00000049   -0.00000004    0.00000003
     atom   28 type  3   force =     0.00000088   -0.00000099    0.00000012
     atom   29 type  2   force =     0.00000001   -0.00000015   -0.00000004
     atom   30 type  2   force =    -0.00000017    0.00000024    0.00000002
     atom   31 type  2   force =    -0.00000030    0.00000036    0.00000003
     atom   32 type  2   force =    -0.00000004    0.00000026   -0.00000000
     atom   33 type  2   force =    -0.00000007    0.00000022   -0.00000001
     atom   34 type  2   force =    -0.00000002   -0.00000001   -0.00000003
     atom   35 type  2   force =    -0.00000002    0.00000003   -0.00000003
     atom   36 type  2   force =    -0.00000010    0.00000001   -0.00000003
     atom   37 type  2   force =    -0.00000008   -0.00000013    0.00000001
     atom   38 type  2   force =     0.00000002   -0.00000038   -0.00000000
     atom   39 type  2   force =     0.00000019   -0.00000044   -0.00000004
     atom   40 type  2   force =     0.00000018   -0.00000010   -0.00000004
     atom   41 type  2   force =    -0.00000003    0.00000036   -0.00000001
     atom   42 type  2   force =    -0.00000014    0.00000046    0.00000001
     atom   43 type  2   force =    -0.00000007    0.00000023   -0.00000001
     atom   44 type  2   force =    -0.00000010    0.00000012   -0.00000002
     atom   45 type  2   force =    -0.00000003    0.00000003   -0.00000003
     atom   46 type  2   force =     0.00000003    0.00000001   -0.00000003
     atom   47 type  2   force =    -0.00000001   -0.00000006   -0.00000003
     atom   48 type  2   force =     0.00000007   -0.00000015   -0.00000003
     atom   49 type  2   force =     0.00000009   -0.00000027   -0.00000003
     atom   50 type  2   force =     0.00000022   -0.00000005   -0.00000003
     atom   51 type  2   force =     0.00000017    0.00000016    0.00000000
     atom   52 type  2   force =     0.00000003    0.00000023   -0.00000001

     Total force =     0.011122     Total SCF correction =     0.000002

     number of scf cycles    =  50
     number of bfgs steps    =  49

     energy   old            =    -733.5026768746 Ry
     energy   new            =    -733.5028263769 Ry

     CASE: energy  _new < energy  _old

     new trust radius        =       0.0092916228 bohr
     new conv_thr            =            1.5E-12 Ry

ATOMIC_POSITIONS (angstrom)
H        4.100612898   5.012604538   3.229931670
H        3.373188733   5.004760304   3.037008645
C        0.001342546   0.000199457   0.121610948
C       -0.008463254   1.421218539   0.128138160
C       -1.244414936   2.124914101   0.130735256
C       -1.251418671   3.550474724   0.120923535
C       -2.482091399   4.266408950   0.138229215
C       -2.482872844   5.688874663   0.149119310
C       -3.699587375   6.411361180   0.152012495
C       -3.694782261   7.833607994   0.137103170
C       -4.921801597   8.549442022   0.100715620
C       -4.925819191   9.971759471   0.126973644
C        2.467359673   0.008265506   0.139551217
C        2.464652653   1.434354823   0.112917986
C        1.223450914   2.130726872   0.101350198
C        1.208255168   3.558805348   0.020332087
C       -0.038685858   4.260722010   0.034032481
C       -0.058420267   5.682651200  -0.071779942
C       -1.266955112   6.407699589   0.075707096
C       -1.241546050   7.831701411   0.069164653
C       -2.466637412   8.547654604   0.127676021
C       -2.466608696   9.970429856   0.129768305
C        4.929714427   0.002467632   0.110829467
C        4.931302449   1.428790333   0.094585276
C        3.698171100   2.143810707   0.065110714
C        3.701685253   3.580235426  -0.047925386
C        2.441314561   4.210650851  -0.077410764
Cu       2.422243210   5.589325775  -1.360514098
C        1.079335377   6.423801834  -0.374851787
C        1.225055720   7.816898289  -0.178333414
C       -0.006175382   8.537934002   0.003899563
C        0.000004350   9.962287458   0.064538776
C        7.397231212  -0.007756770   0.049815400
C        7.394553078   1.416809347   0.094117170
C        6.164526608   2.133532087   0.089238139
C        6.165267513   3.561693897   0.037752212
C        4.953180940   4.280128085  -0.095211621
C        4.992430633   5.703512738  -0.241233804
C        3.880262061   6.471343240  -0.606347058
C        3.731336306   7.836126652  -0.275124499
C        2.473156200   8.527516530  -0.188130742
C        2.466457856   9.944378832  -0.025087666
C        9.859769713  -0.008744709   0.047459275
C        9.853836911   1.413387672   0.107686872
C        8.623869440   2.129063754   0.106402679
C        8.621434915   3.551031891   0.123366656
C        7.399333896   4.271504688   0.084494652
C        7.408040941   5.693691900   0.096028610
C        6.198502336   6.415089557  -0.024297227
C        6.182853698   7.838805008  -0.000520117
C        4.949419303   8.547456262  -0.050666696
C        4.933887262   9.964486016   0.059107649

     Writing output data file cobre-sixhollow-3.0.save/
     NEW-OLD atomic charge density approx. for the potential

     Check: negative core charge=   -0.000002

     negative rho (up, down):  5.484E-04 1.207E-03

     Writing output data file cobre-sixhollow-3.0.save/

     General routines

     Parallel routines

   This run was terminated on:  12:31:18  27Sep2022

   JOB DONE.