     Program PWSCF v.6.4.1 starts on  7Nov2022 at  2:33:33

     R & G space division:  proc/nbgrp/npool/nimage =       6
     Reading input from distance-3.0.in

     Current dimensions of program PWSCF are:
     Max number of different atomic species (ntypx) = 10
     Max number of k-points (npk) =  40000
     Max angular momentum in pseudopotentials (lmaxx) =  3

     IMPORTANT: XC functional enforced from input :
     Exchange-correlation      = RVV10 ( 1  4 13  4 3 0)
     Any further DFT definition will be discarded
     Please, verify this is what you really want

               file H.pbe-rrkjus.UPF: wavefunction(s)  1S renormalized

     Subspace diagonalization in iterative solution of the eigenvalue problem:
     a serial algorithm will be used

     bravais-lattice index     =            4
     lattice parameter (alat)  =      23.2937  a.u.
     unit-cell volume          =    8879.8548 (a.u.)^3
     number of atoms/cell      =           52
     number of atomic types    =            3
     number of electrons       =       214.00
     number of Kohn-Sham states=          128
     kinetic-energy cutoff     =      70.0000  Ry
     charge density cutoff     =     490.0000  Ry
     convergence threshold     =      1.0E-06
     mixing beta               =       0.3000
     number of iterations used =            4  plain     mixing
     Exchange-correlation      = RVV10 ( 1  4 13  4 3 0)

     celldm(1)=  23.293684  celldm(2)=   0.000000  celldm(3)=   0.811261
     celldm(4)=   0.000000  celldm(5)=   0.000000  celldm(6)=   0.000000

     crystal axes: (cart. coord. in units of alat)
               a(1) = (   1.000000   0.000000   0.000000 )
               a(2) = (  -0.500000   0.866025   0.000000 )
               a(3) = (   0.000000   0.000000   0.811261 )

     reciprocal axes: (cart. coord. in units 2 pi/alat)
               b(1) = (  1.000000  0.577350 -0.000000 )
               b(2) = (  0.000000  1.154701  0.000000 )
               b(3) = (  0.000000 -0.000000  1.232649 )

     PseudoPot. # 1 for H  read from file:
     /home/cristian/Escritorio/Proyecto_Grafeno/pseudopotenciales/H.pbe-rrkjus.UPF
     MD5 check sum: 7cc9d459525c9a0585f487a71c3c9563
     Pseudo is Ultrasoft, Zval =  1.0
     Generated by new atomic code, or converted to UPF format
     Using radial grid of 1061 points,  2 beta functions with:
                l(1) =   0
                l(2) =   0
     Q(r) pseudized with 0 coefficients

     PseudoPot. # 2 for C  read from file:
     /home/cristian/Escritorio/Proyecto_Grafeno/pseudopotenciales/C.pbe-n-rrkjus_psl.1.0.0.UPF
     MD5 check sum: 1fdd950c42eb37d8afe3dd2f8d12311e
     Pseudo is Ultrasoft + core correction, Zval =  4.0
     Generated using "atomic" code by A. Dal Corso v.6.3MaX
     Using radial grid of 1073 points,  4 beta functions with:
                l(1) =   0
                l(2) =   0
                l(3) =   1
                l(4) =   1
     Q(r) pseudized with 0 coefficients

     PseudoPot. # 3 for Fe read from file:
     /home/cristian/Escritorio/Proyecto_Grafeno/pseudopotenciales/Fe.pbe-spn-rrkjus_psl.1.0.0.UPF
     MD5 check sum: 72ea77fed8e64ab3a2ccf2804dfc1862
     Pseudo is Ultrasoft + core correction, Zval = 16.0
     Generated using "atomic" code by A. Dal Corso v.6.3
     Using radial grid of 1191 points,  6 beta functions with:
                l(1) =   0
                l(2) =   0
                l(3) =   1
                l(4) =   1
                l(5) =   2
                l(6) =   2
     Q(r) pseudized with 0 coefficients

     vdW kernel table read from file rVV10_kernel_table
     MD5 check sum: b8e2538accc0c0b3206b45ba4daaba6c

     atomic species   valence    mass     pseudopotential
        H              1.00     1.00794     H ( 1.00)
        C              4.00    12.01070     C ( 1.00)
        Fe            16.00    55.84500     Fe( 1.00)

     Starting magnetic structure
     atomic species   magnetization
        H            0.500
        C            0.300
        Fe           0.800

     No symmetry found

                                    s                        frac. trans.

      isym =  1     identity

 cryst.   s( 1) = (     1          0          0      )
                  (     0          1          0      )
                  (     0          0          1      )

 cart.    s( 1) = (  1.0000000  0.0000000  0.0000000 )
                  (  0.0000000  1.0000000  0.0000000 )
                  (  0.0000000  0.0000000  1.0000000 )

     point group C_1 (1)
     there are  1 classes
     the character table:

       E
A      1.00

     the symmetry operations in each class and the name of the first element:

     E        1
          identity

   Cartesian axes

     site n.     atom                  positions (alat units)
         1           H   tau(   1) = (   0.2500000   0.4907477   0.2433783  )
         2           H   tau(   2) = (   0.2500000   0.4907477   0.3043910  )
         3           C   tau(   3) = (   0.0000000   0.0000000   0.0000000  )
         4           C   tau(   4) = (   0.0000000   0.1154701   0.0000000  )
         5           C   tau(   5) = (  -0.1000000   0.1732051   0.0000000  )
         6           C   tau(   6) = (  -0.1000000   0.2886751   0.0000000  )
         7           C   tau(   7) = (  -0.2000000   0.3464102   0.0000000  )
         8           C   tau(   8) = (  -0.2000000   0.4618802   0.0000000  )
         9           C   tau(   9) = (  -0.3000000   0.5196152   0.0000000  )
        10           C   tau(  10) = (  -0.3000000   0.6350853   0.0000000  )
        11           C   tau(  11) = (  -0.4000000   0.6928203   0.0000000  )
        12           C   tau(  12) = (  -0.4000000   0.8082904   0.0000000  )
        13           C   tau(  13) = (   0.2000000   0.0000000   0.0000000  )
        14           C   tau(  14) = (   0.2000000   0.1154701   0.0000000  )
        15           C   tau(  15) = (   0.1000000   0.1732051   0.0000000  )
        16           C   tau(  16) = (   0.1000000   0.2886751   0.0000000  )
        17           C   tau(  17) = (   0.0000000   0.3464102   0.0000000  )
        18           C   tau(  18) = (   0.0000000   0.4618802   0.0000000  )
        19           C   tau(  19) = (  -0.1000000   0.5196152   0.0000000  )
        20           C   tau(  20) = (  -0.1000000   0.6350853   0.0000000  )
        21           C   tau(  21) = (  -0.2000000   0.6928203   0.0000000  )
        22           C   tau(  22) = (  -0.2000000   0.8082904   0.0000000  )
        23           C   tau(  23) = (   0.4000000   0.0000000   0.0000000  )
        24           C   tau(  24) = (   0.4000000   0.1154701   0.0000000  )
        25           C   tau(  25) = (   0.3000000   0.1732051   0.0000000  )
        26           C   tau(  26) = (   0.3000000   0.2886751   0.0000000  )
        27           C   tau(  27) = (   0.2000000   0.3464102   0.0000000  )
        28           Fe  tau(  28) = (   0.2000000   0.4618802   0.0000000  )
        29           C   tau(  29) = (   0.1000000   0.5196152   0.0000000  )
        30           C   tau(  30) = (   0.1000000   0.6350853   0.0000000  )
        31           C   tau(  31) = (   0.0000000   0.6928203   0.0000000  )
        32           C   tau(  32) = (   0.0000000   0.8082904   0.0000000  )
        33           C   tau(  33) = (   0.6000000   0.0000000   0.0000000  )
        34           C   tau(  34) = (   0.6000000   0.1154701   0.0000000  )
        35           C   tau(  35) = (   0.5000000   0.1732051   0.0000000  )
        36           C   tau(  36) = (   0.5000000   0.2886751   0.0000000  )
        37           C   tau(  37) = (   0.4000000   0.3464102   0.0000000  )
        38           C   tau(  38) = (   0.4000000   0.4618802   0.0000000  )
        39           C   tau(  39) = (   0.3000000   0.5196152   0.0000000  )
        40           C   tau(  40) = (   0.3000000   0.6350853   0.0000000  )
        41           C   tau(  41) = (   0.2000000   0.6928203   0.0000000  )
        42           C   tau(  42) = (   0.2000000   0.8082904   0.0000000  )
        43           C   tau(  43) = (   0.8000000   0.0000000   0.0000000  )
        44           C   tau(  44) = (   0.8000000   0.1154701   0.0000000  )
        45           C   tau(  45) = (   0.7000000   0.1732051   0.0000000  )
        46           C   tau(  46) = (   0.7000000   0.2886751   0.0000000  )
        47           C   tau(  47) = (   0.6000000   0.3464102   0.0000000  )
        48           C   tau(  48) = (   0.6000000   0.4618802   0.0000000  )
        49           C   tau(  49) = (   0.5000000   0.5196152   0.0000000  )
        50           C   tau(  50) = (   0.5000000   0.6350853   0.0000000  )
        51           C   tau(  51) = (   0.4000000   0.6928203   0.0000000  )
        52           C   tau(  52) = (   0.4000000   0.8082904   0.0000000  )

   Crystallographic axes

     site n.     atom                  positions (cryst. coord.)
         1           H   tau(   1) = (  0.5333333  0.5666667  0.3000000  )
         2           H   tau(   2) = (  0.5333333  0.5666667  0.3752072  )
         3           C   tau(   3) = (  0.0000000  0.0000000  0.0000000  )
         4           C   tau(   4) = (  0.0666667  0.1333333  0.0000000  )
         5           C   tau(   5) = (  0.0000000  0.2000000  0.0000000  )
         6           C   tau(   6) = (  0.0666667  0.3333333  0.0000000  )
         7           C   tau(   7) = (  0.0000000  0.4000000  0.0000000  )
         8           C   tau(   8) = (  0.0666667  0.5333333  0.0000000  )
         9           C   tau(   9) = (  0.0000000  0.6000000  0.0000000  )
        10           C   tau(  10) = (  0.0666667  0.7333333  0.0000000  )
        11           C   tau(  11) = (  0.0000000  0.8000000  0.0000000  )
        12           C   tau(  12) = (  0.0666667  0.9333333  0.0000000  )
        13           C   tau(  13) = (  0.2000000  0.0000000  0.0000000  )
        14           C   tau(  14) = (  0.2666667  0.1333333  0.0000000  )
        15           C   tau(  15) = (  0.2000000  0.2000000  0.0000000  )
        16           C   tau(  16) = (  0.2666667  0.3333333  0.0000000  )
        17           C   tau(  17) = (  0.2000000  0.4000000  0.0000000  )
        18           C   tau(  18) = (  0.2666667  0.5333333  0.0000000  )
        19           C   tau(  19) = (  0.2000000  0.6000000  0.0000000  )
        20           C   tau(  20) = (  0.2666667  0.7333333  0.0000000  )
        21           C   tau(  21) = (  0.2000000  0.8000000  0.0000000  )
        22           C   tau(  22) = (  0.2666667  0.9333333  0.0000000  )
        23           C   tau(  23) = (  0.4000000  0.0000000  0.0000000  )
        24           C   tau(  24) = (  0.4666667  0.1333333  0.0000000  )
        25           C   tau(  25) = (  0.4000000  0.2000000  0.0000000  )
        26           C   tau(  26) = (  0.4666667  0.3333333  0.0000000  )
        27           C   tau(  27) = (  0.4000000  0.4000000  0.0000000  )
        28           Fe  tau(  28) = (  0.4666667  0.5333333  0.0000000  )
        29           C   tau(  29) = (  0.4000000  0.6000000  0.0000000  )
        30           C   tau(  30) = (  0.4666667  0.7333333  0.0000000  )
[...]
        42           C   tau(  42) = (  0.6666667  0.9333333  0.0000000  )
        43           C   tau(  43) = (  0.8000000  0.0000000  0.0000000  )
        44           C   tau(  44) = (  0.8666667  0.1333333  0.0000000  )
        45           C   tau(  45) = (  0.8000000  0.2000000  0.0000000  )
        46           C   tau(  46) = (  0.8666667  0.3333333  0.0000000  )
        47           C   tau(  47) = (  0.8000000  0.4000000  0.0000000  )
        48           C   tau(  48) = (  0.8666667  0.5333333  0.0000000  )
        49           C   tau(  49) = (  0.8000000  0.6000000  0.0000000  )
        50           C   tau(  50) = (  0.8666667  0.7333333  0.0000000  )
        51           C   tau(  51) = (  0.8000000  0.8000000  0.0000000  )
        52           C   tau(  52) = (  0.8666667  0.9333333  0.0000000  )

     number of k points=     1  Marzari-Vanderbilt smearing, width (Ry)=  0.0010
                       cart. coord. in units 2pi/alat
        k(    1) = (   0.0000000   0.0000000   0.0000000), wk =   1.0000000

                       cryst. coord.
        k(    1) = (   0.0000000   0.0000000   0.0000000), wk =   1.0000000

     Check: negative core charge=   -0.000002

     Initial potential from superposition of free atoms

     starting charge  213.80512, renormalised to  214.00000

     negative rho (up, down):  5.920E-05 1.033E-02

Carrying out rVV10 run using the following parameters:
Nqs =      20    Nr_points =    1024   r_max =   100.000
b_value =  6.30000    beta =  0.00901
     q_mesh =  0.00010000  0.00030000  0.00058939  0.00100810
               0.00161396  0.00249058  0.00375900  0.00559430
               0.00824984  0.01209221  0.01765183  0.02569619
               0.03733578  0.05417739  0.07854596  0.11380545
               0.16482331  0.23864234  0.34545298  0.50000000

Gradients computed in Reciprocal space

     Starting wfcs are  208 randomized atomic wfcs

     Self-consistent Calculation

     iteration #  1     ecut=    70.00 Ry     beta= 0.30
     Davidson diagonalization with overlap
     ethr =  1.00E-02,  avg # of iterations =  2.5

[...]

     total energy              =    -858.06471488 Ry
     Harris-Foulkes estimate   =    -858.62532934 Ry
     estimated scf accuracy    <      10.14996407 Ry

     total magnetization       =     6.00 Bohr mag/cell
     absolute magnetization    =     6.65 Bohr mag/cell

[...]

     Magnetic moment per site:
     atom:    1    charge:    0.2103    magn:   -0.0000    constr:    0.0000
     atom:    2    charge:    0.2123    magn:    0.0003    constr:    0.0000
     atom:    3    charge:    1.7172    magn:   -0.0103    constr:    0.0000
     atom:    4    charge:    1.7153    magn:    0.0156    constr:    0.0000
     atom:    5    charge:    1.7177    magn:   -0.0065    constr:    0.0000
     atom:    6    charge:    1.7142    magn:    0.0044    constr:    0.0000
     atom:    7    charge:    1.7177    magn:   -0.0065    constr:    0.0000
     atom:    8    charge:    1.7153    magn:    0.0157    constr:    0.0000
     atom:    9    charge:    1.7172    magn:   -0.0103    constr:    0.0000
     atom:   10    charge:    1.7147    magn:    0.0560    constr:    0.0000
     atom:   11    charge:    1.7175    magn:   -0.0143    constr:    0.0000
     atom:   12    charge:    1.7147    magn:    0.0559    constr:    0.0000
     atom:   13    charge:    1.7174    magn:   -0.0144    constr:    0.0000
     atom:   14    charge:    1.7156    magn:    0.0435    constr:    0.0000
     atom:   15    charge:    1.7139    magn:   -0.0111    constr:    0.0000
     atom:   16    charge:    1.7108    magn:    0.0539    constr:    0.0000
     atom:   17    charge:    1.7231    magn:   -0.0092    constr:    0.0000
     atom:   18    charge:    1.7108    magn:    0.0539    constr:    0.0000
     atom:   19    charge:    1.7138    magn:   -0.0111    constr:    0.0000
     atom:   20    charge:    1.7155    magn:    0.0435    constr:    0.0000
     atom:   21    charge:    1.7174    magn:   -0.0144    constr:    0.0000
     atom:   22    charge:    1.7153    magn:    0.0517    constr:    0.0000
     atom:   23    charge:    1.7170    magn:   -0.0097    constr:    0.0000
     atom:   24    charge:    1.7153    magn:    0.0148    constr:    0.0000
     atom:   25    charge:    1.7138    magn:   -0.0110    constr:    0.0000
     atom:   26    charge:    1.7112    magn:    0.0503    constr:    0.0000
     atom:   27    charge:    1.8524    magn:   -0.0171    constr:    0.0000
     atom:   28    charge:   11.1452    magn:    0.4889    constr:    0.0000
     atom:   29    charge:    1.8523    magn:   -0.0169    constr:    0.0000
     atom:   30    charge:    1.7112    magn:    0.0503    constr:    0.0000
     atom:   31    charge:    1.7138    magn:   -0.0110    constr:    0.0000
     atom:   32    charge:    1.7153    magn:    0.0148    constr:    0.0000
     atom:   33    charge:    1.7176    magn:   -0.0064    constr:    0.0000
     atom:   34    charge:    1.7139    magn:    0.0104    constr:    0.0000
     atom:   35    charge:    1.7176    magn:   -0.0064    constr:    0.0000
     atom:   36    charge:    1.7141    magn:    0.0041    constr:    0.0000
     atom:   37    charge:    1.7229    magn:   -0.0078    constr:    0.0000
     atom:   38    charge:    1.7112    magn:    0.0487    constr:    0.0000
     atom:   39    charge:    1.8522    magn:   -0.0164    constr:    0.0000
     atom:   40    charge:    1.7111    magn:    0.0487    constr:    0.0000
     atom:   41    charge:    1.7229    magn:   -0.0079    constr:    0.0000
     atom:   42    charge:    1.7141    magn:    0.0041    constr:    0.0000
     atom:   43    charge:    1.7177    magn:   -0.0063    constr:    0.0000
     atom:   44    charge:    1.7138    magn:    0.0110    constr:    0.0000
     atom:   45    charge:    1.7239    magn:   -0.0015    constr:    0.0000
     atom:   46    charge:    1.7138    magn:    0.0110    constr:    0.0000
     atom:   47    charge:    1.7177    magn:   -0.0063    constr:    0.0000
     atom:   48    charge:    1.7151    magn:    0.0160    constr:    0.0000
     atom:   49    charge:    1.7136    magn:   -0.0101    constr:    0.0000
     atom:   50    charge:    1.7158    magn:    0.0394    constr:    0.0000
     atom:   51    charge:    1.7136    magn:   -0.0101    constr:    0.0000
     atom:   52    charge:    1.7151    magn:    0.0160    constr:    0.0000

[...]

     total energy              =    -860.05649179 Ry
     Harris-Foulkes estimate   =    -860.05649112 Ry
     estimated scf accuracy    <       0.00000244 Ry

[...]

     iteration #120     ecut=    70.00 Ry     beta= 0.30
     Davidson diagonalization with overlap
     ethr =  1.14E-09,  avg # of iterations =  3.0

     negative rho (up, down):  5.831E-04 1.094E-02

     Magnetic moment per site:
     atom:    1    charge:    0.2103    magn:    0.0000    constr:    0.0000
     atom:    2    charge:    0.2123    magn:    0.0003    constr:    0.0000
     atom:    3    charge:    1.7171    magn:   -0.0108    constr:    0.0000
     atom:    4    charge:    1.7154    magn:    0.0160    constr:    0.0000
     atom:    5    charge:    1.7176    magn:   -0.0066    constr:    0.0000
     atom:    6    charge:    1.7142    magn:    0.0048    constr:    0.0000
     atom:    7    charge:    1.7176    magn:   -0.0066    constr:    0.0000
     atom:    8    charge:    1.7154    magn:    0.0160    constr:    0.0000
     atom:    9    charge:    1.7171    magn:   -0.0108    constr:    0.0000
     atom:   10    charge:    1.7149    magn:    0.0562    constr:    0.0000
     atom:   11    charge:    1.7174    magn:   -0.0153    constr:    0.0000
     atom:   12    charge:    1.7149    magn:    0.0562    constr:    0.0000
     atom:   13    charge:    1.7173    magn:   -0.0153    constr:    0.0000
     atom:   14    charge:    1.7156    magn:    0.0439    constr:    0.0000
     atom:   15    charge:    1.7139    magn:   -0.0119    constr:    0.0000
     atom:   16    charge:    1.7109    magn:    0.0546    constr:    0.0000
     atom:   17    charge:    1.7228    magn:   -0.0087    constr:    0.0000
     atom:   18    charge:    1.7109    magn:    0.0546    constr:    0.0000
     atom:   19    charge:    1.7138    magn:   -0.0119    constr:    0.0000
     atom:   20    charge:    1.7156    magn:    0.0439    constr:    0.0000
     atom:   21    charge:    1.7173    magn:   -0.0153    constr:    0.0000
     atom:   22    charge:    1.7159    magn:    0.0492    constr:    0.0000
     atom:   23    charge:    1.7167    magn:   -0.0103    constr:    0.0000
     atom:   24    charge:    1.7155    magn:    0.0149    constr:    0.0000
     atom:   25    charge:    1.7138    magn:   -0.0119    constr:    0.0000
     atom:   26    charge:    1.7116    magn:    0.0486    constr:    0.0000
     atom:   27    charge:    1.8522    magn:   -0.0155    constr:    0.0000
     atom:   28    charge:   11.1460    magn:    0.4790    constr:    0.0000
     atom:   29    charge:    1.8521    magn:   -0.0155    constr:    0.0000
     atom:   30    charge:    1.7116    magn:    0.0486    constr:    0.0000
     atom:   31    charge:    1.7137    magn:   -0.0119    constr:    0.0000
     atom:   32    charge:    1.7155    magn:    0.0149    constr:    0.0000
     atom:   33    charge:    1.7175    magn:   -0.0064    constr:    0.0000
     atom:   34    charge:    1.7141    magn:    0.0101    constr:    0.0000
     atom:   35    charge:    1.7175    magn:   -0.0064    constr:    0.0000
     atom:   36    charge:    1.7142    magn:    0.0047    constr:    0.0000
     atom:   37    charge:    1.7224    magn:   -0.0074    constr:    0.0000
     atom:   38    charge:    1.7116    magn:    0.0470    constr:    0.0000
     atom:   39    charge:    1.8517    magn:   -0.0154    constr:    0.0000
     atom:   40    charge:    1.7116    magn:    0.0470    constr:    0.0000
     atom:   41    charge:    1.7224    magn:   -0.0074    constr:    0.0000
     atom:   42    charge:    1.7142    magn:    0.0047    constr:    0.0000
     atom:   43    charge:    1.7176    magn:   -0.0065    constr:    0.0000
     atom:   44    charge:    1.7140    magn:    0.0112    constr:    0.0000
     atom:   45    charge:    1.7233    magn:    0.0001    constr:    0.0000
     atom:   46    charge:    1.7140    magn:    0.0112    constr:    0.0000
     atom:   47    charge:    1.7176    magn:   -0.0065    constr:    0.0000
     atom:   48    charge:    1.7152    magn:    0.0168    constr:    0.0000
     atom:   49    charge:    1.7135    magn:   -0.0110    constr:    0.0000
     atom:   50    charge:    1.7162    magn:    0.0381    constr:    0.0000
     atom:   51    charge:    1.7135    magn:   -0.0110    constr:    0.0000
     atom:   52    charge:    1.7152    magn:    0.0168    constr:    0.0000

     End of self-consistent calculation

 ------ SPIN UP ------------

          k = 0.0000 0.0000 0.0000 ( 87777 PWs)   bands (ev):

   -88.8500 -55.7413 -55.6887 -54.0748 -19.8676 -19.0401 -19.0248 -18.9428
   -18.9173 -18.9122 -18.5827 -17.1689 -17.1583 -17.1582 -17.0929 -17.0880
   -16.7833 -16.3170 -16.3143 -16.2124 -16.1668 -16.1665 -15.4853 -14.2307
   -14.2149 -14.1343 -14.0826 -14.0800 -13.4281 -13.1519 -13.1481 -13.1232
   -12.8491 -12.8484 -12.4353 -11.9352 -11.9337 -11.7410 -11.4982 -11.4966
   -10.6254  -9.8040  -9.8004  -9.5223  -9.4044  -9.4030  -9.3171  -9.2870
    -9.2865  -9.2744  -8.8163  -8.8158  -8.2862  -8.2831  -8.1855  -8.0184
    -7.9217  -7.5313  -7.5282  -7.3421  -7.2383  -7.2327  -7.0788  -7.0786
    -6.9256  -6.9092  -6.9028  -6.8017  -6.6533  -6.6465  -6.6331  -6.6214
    -6.6109  -6.6073  -6.5639  -6.2228  -5.7464  -5.7412  -5.7228  -5.7038
    -5.4753  -5.4726  -5.3464  -5.0746  -4.9668  -4.8270  -4.8032  -4.7980
    -4.5532  -4.5479  -4.4877  -4.3327  -4.3219  -3.9598  -3.9591  -3.8751
    -3.7699  -3.7683  -3.2169  -2.9175  -2.9082  -1.9589  -1.8897  -1.8874
    -1.3655  -1.3198  -1.2202  -0.9226   0.8358   0.8836   0.8852   1.3937
     1.4055   1.5146   2.3087   2.3096   2.5334   2.6817   2.6834   2.7753
     3.2899   3.2984   3.4301   3.6707   3.6786   3.7370   3.7380   3.7584

     occupation numbers
     1.0000   1.0000   1.0000   1.0000   1.0000   1.0000   1.0000   1.0000
     1.0000   1.0000   1.0000   1.0000   1.0000   1.0000   1.0000   1.0000
     1.0000   1.0000   1.0000   1.0000   1.0000   1.0000   1.0000   1.0000
     1.0000   1.0000   1.0000   1.0000   1.0000   1.0000   1.0000   1.0000
     1.0000   1.0000   1.0000   1.0000   1.0000   1.0000   1.0000   1.0000
     1.0000   1.0000   1.0000   1.0000   1.0000   1.0000   1.0000   1.0000
     1.0000   1.0000   1.0000   1.0000   1.0000   1.0000   1.0000   1.0000
     1.0000   1.0000   1.0000   1.0000   1.0000   1.0000   1.0000   1.0000
     1.0000   1.0000   1.0000   1.0000   1.0000   1.0000   1.0000   1.0000
     1.0000   1.0000   1.0000   1.0000   1.0000   1.0000   1.0000   1.0000
     1.0000   1.0000   1.0000   1.0000   1.0000   1.0000   1.0000   1.0000
     1.0000   1.0000   1.0000   1.0000   1.0000   1.0000   1.0000   1.0000
     1.0000   1.0000   1.0000   1.0000   1.0000   1.0000   1.0000   1.0000
     1.0000   1.0000   1.0000   1.0348   0.0000   0.0000   0.0000   0.0000
     0.0000   0.0000   0.0000   0.0000   0.0000   0.0000   0.0000   0.0000
     0.0000   0.0000   0.0000   0.0000   0.0000   0.0000   0.0000   0.0000

 ------ SPIN DOWN ----------

          k = 0.0000 0.0000 0.0000 ( 87777 PWs)   bands (ev):

   -88.0870 -55.1041 -55.0884 -53.1193 -19.8275 -18.9940 -18.9814 -18.9041
   -18.8919 -18.8866 -18.5247 -17.1345 -17.1285 -17.1243 -17.0408 -17.0373
   -16.7529 -16.2729 -16.2721 -16.1780 -16.1248 -16.1245 -15.4590 -14.1596
   -14.1505 -14.0769 -14.0721 -14.0685 -13.4264 -13.1264 -13.1240 -13.0925
   -12.8295 -12.8288 -12.4049 -11.8984 -11.8961 -11.7171 -11.4752 -11.4750
   -10.5992  -9.7505  -9.7483  -9.4923  -9.3726  -9.3725  -9.3006  -9.2645
    -9.2638  -9.2564  -8.8029  -8.8023  -8.2484  -8.2454  -8.1626  -7.9253
    -7.9050  -7.5171  -7.5136  -7.3064  -7.0724  -7.0700  -7.0287  -7.0278
    -6.8496  -6.8477  -6.8265  -6.7871  -6.6363  -6.6304  -6.6109  -6.5979
    -6.5945  -6.5456  -6.5231  -6.1953  -5.6904  -5.6873  -5.4794  -5.4771
    -5.4317  -5.4299  -5.2283  -5.0608  -4.9574  -4.7561  -4.7123  -4.7110
    -4.4689  -4.4641  -4.4128  -4.2057  -4.2048  -3.8342  -3.8331  -3.7797
    -3.7548  -3.7532  -3.1637  -2.6857  -2.6812  -1.8616  -1.8593  -1.8100
    -0.9419  -0.9058  -0.8326  -0.8098   0.9298   0.9322   0.9817   1.5504
     1.5506   1.6365   2.4725   2.4752   2.5465   2.8145   2.8161   2.8520
     3.4457   3.4481   3.5280   3.6876   3.6947   3.7435   3.7484   3.7634

     occupation numbers
     1.0000   1.0000   1.0000   1.0000   1.0000   1.0000   1.0000   1.0000
     1.0000   1.0000   1.0000   1.0000   1.0000   1.0000   1.0000   1.0000
     1.0000   1.0000   1.0000   1.0000   1.0000   1.0000   1.0000   1.0000
     1.0000   1.0000   1.0000   1.0000   1.0000   1.0000   1.0000   1.0000
     1.0000   1.0000   1.0000   1.0000   1.0000   1.0000   1.0000   1.0000
     1.0000   1.0000   1.0000   1.0000   1.0000   1.0000   1.0000   1.0000
     1.0000   1.0000   1.0000   1.0000   1.0000   1.0000   1.0000   1.0000
     1.0000   1.0000   1.0000   1.0000   1.0000   1.0000   1.0000   1.0000
     1.0000   1.0000   1.0000   1.0000   1.0000   1.0000   1.0000   1.0000
     1.0000   1.0000   1.0000   1.0000   1.0000   1.0000   1.0000   1.0000
     1.0000   1.0000   1.0000   1.0000   1.0000   1.0000   1.0000   1.0000
     1.0000   1.0000   1.0000   1.0000   1.0000   1.0000   1.0000   1.0000
     1.0000   1.0000   1.0000   1.0000   1.0000   1.0000   1.0000   1.0000
     1.0001   0.9651   0.0000   0.0000   0.0000   0.0000   0.0000   0.0000
     0.0000   0.0000   0.0000   0.0000   0.0000   0.0000   0.0000   0.0000
     0.0000   0.0000   0.0000   0.0000   0.0000   0.0000   0.0000   0.0000

     the Fermi energy is    -0.8944 ev

!    total energy              =    -860.05649422 Ry
     Harris-Foulkes estimate   =    -860.05649246 Ry
     estimated scf accuracy    <       0.00000041 Ry

     The total energy is the sum of the following terms:

     one-electron contribution =   -2791.51358331 Ry
     hartree contribution      =    1439.57531010 Ry
     xc contribution           =    -259.31892377 Ry
     ewald contribution        =     751.20056756 Ry
     smearing contrib. (-TS)   =       0.00013520 Ry

     total magnetization       =     2.07 Bohr mag/cell
     absolute magnetization    =     2.99 Bohr mag/cell

     convergence has been achieved in 120 iterations

     Writing output data file distance-3.0.save/

     General routines

     Parallel routines

   This run was terminated on:   6: 4:32   7Nov2022

   JOB DONE.