     Program PWSCF v.6.4.1 starts on  6Nov2022 at 16:47:21

     R & G space division:  proc/nbgrp/npool/nimage =       6
     Reading input from distance-4.0.in

     Current dimensions of program PWSCF are:
     Max number of different atomic species (ntypx) = 10
     Max number of k-points (npk) =  40000
     Max angular momentum in pseudopotentials (lmaxx) =  3

     IMPORTANT: XC functional enforced from input :
     Exchange-correlation      = RVV10 ( 1  4 13  4 3 0)
     Any further DFT definition will be discarded
     Please, verify this is what you really want

               file H.pbe-rrkjus.UPF: wavefunction(s)  1S renormalized

     Subspace diagonalization in iterative solution of the eigenvalue problem:
     a serial algorithm will be used

     bravais-lattice index     =            4
     lattice parameter (alat)  =      23.2937  a.u.
     unit-cell volume          =    8879.8548 (a.u.)^3
     number of atoms/cell      =           52
     number of atomic types    =            3
     number of electrons       =       214.00
     number of Kohn-Sham states=          128
     kinetic-energy cutoff     =      70.0000  Ry
     charge density cutoff     =     490.0000  Ry
     convergence threshold     =      1.0E-06
     mixing beta               =       0.3000
     number of iterations used =            4  plain     mixing
     Exchange-correlation      = RVV10 ( 1  4 13  4 3 0)

     celldm(1)=  23.293684  celldm(2)=   0.000000  celldm(3)=   0.811261
     celldm(4)=   0.000000  celldm(5)=   0.000000  celldm(6)=   0.000000

     crystal axes: (cart. coord. in units of alat)
               a(1) = (   1.000000   0.000000   0.000000 )
               a(2) = (  -0.500000   0.866025   0.000000 )
               a(3) = (   0.000000   0.000000   0.811261 )

     reciprocal axes: (cart. coord. in units 2 pi/alat)
               b(1) = (  1.000000  0.577350 -0.000000 )
               b(2) = (  0.000000  1.154701  0.000000 )
               b(3) = (  0.000000 -0.000000  1.232649 )

     PseudoPot. # 1 for H  read from file:
     /home/cristian/Escritorio/Proyecto_Grafeno/pseudopotenciales/H.pbe-rrkjus.UPF
     MD5 check sum: 7cc9d459525c9a0585f487a71c3c9563
     Pseudo is Ultrasoft, Zval =  1.0
     Generated by new atomic code, or converted to UPF format
     Using radial grid of 1061 points,  2 beta functions with:
                l(1) =   0
                l(2) =   0
     Q(r) pseudized with 0 coefficients

     PseudoPot. # 2 for C  read from file:
     /home/cristian/Escritorio/Proyecto_Grafeno/pseudopotenciales/C.pbe-n-rrkjus_psl.1.0.0.UPF
     MD5 check sum: 1fdd950c42eb37d8afe3dd2f8d12311e
     Pseudo is Ultrasoft + core correction, Zval =  4.0
     Generated using "atomic" code by A. Dal Corso v.6.3MaX
     Using radial grid of 1073 points,  4 beta functions with:
                l(1) =   0
                l(2) =   0
                l(3) =   1
                l(4) =   1
     Q(r) pseudized with 0 coefficients

     PseudoPot. # 3 for Fe read from file:
     /home/cristian/Escritorio/Proyecto_Grafeno/pseudopotenciales/Fe.pbe-spn-rrkjus_psl.1.0.0.UPF
     MD5 check sum: 72ea77fed8e64ab3a2ccf2804dfc1862
     Pseudo is Ultrasoft + core correction, Zval = 16.0
     Generated using "atomic" code by A. Dal Corso v.6.3
     Using radial grid of 1191 points,  6 beta functions with:
                l(1) =   0
                l(2) =   0
                l(3) =   1
                l(4) =   1
                l(5) =   2
                l(6) =   2
     Q(r) pseudized with 0 coefficients

     vdW kernel table read from file rVV10_kernel_table
     MD5 check sum: b8e2538accc0c0b3206b45ba4daaba6c

     atomic species   valence    mass     pseudopotential
        H              1.00     1.00794     H ( 1.00)
        C              4.00    12.01070     C ( 1.00)
        Fe            16.00    55.84500     Fe( 1.00)

     Starting magnetic structure
     atomic species   magnetization
        H            0.500
        C            0.300
        Fe           0.800

     No symmetry found

                                    s                        frac. trans.

      isym =  1     identity

 cryst.   s( 1) = (     1          0          0      )
                  (     0          1          0      )
                  (     0          0          1      )

 cart.    s( 1) = (  1.0000000  0.0000000  0.0000000 )
                  (  0.0000000  1.0000000  0.0000000 )
                  (  0.0000000  0.0000000  1.0000000 )

     point group C_1 (1)
     there are  1 classes
     the character table:

       E
A      1.00

     the symmetry operations in each class and the name of the first element:

     E        1
          identity

   Cartesian axes

     site n.     atom                  positions (alat units)
         1           H   tau(   1) = (   0.2500000   0.4907477   0.3245045  )
         2           H   tau(   2) = (   0.2500000   0.4907477   0.3855171  )
         3           C   tau(   3) = (   0.0000000   0.0000000   0.0000000  )
         4           C   tau(   4) = (   0.0000000   0.1154701   0.0000000  )
         5           C   tau(   5) = (  -0.1000000   0.1732051   0.0000000  )
         6           C   tau(   6) = (  -0.1000000   0.2886751   0.0000000  )
         7           C   tau(   7) = (  -0.2000000   0.3464102   0.0000000  )
         8           C   tau(   8) = (  -0.2000000   0.4618802   0.0000000  )
         9           C   tau(   9) = (  -0.3000000   0.5196152   0.0000000  )
        10           C   tau(  10) = (  -0.3000000   0.6350853   0.0000000  )
        11           C   tau(  11) = (  -0.4000000   0.6928203   0.0000000  )
        12           C   tau(  12) = (  -0.4000000   0.8082904   0.0000000  )
        13           C   tau(  13) = (   0.2000000   0.0000000   0.0000000  )
        14           C   tau(  14) = (   0.2000000   0.1154701   0.0000000  )
        15           C   tau(  15) = (   0.1000000   0.1732051   0.0000000  )
        16           C   tau(  16) = (   0.1000000   0.2886751   0.0000000  )
        17           C   tau(  17) = (   0.0000000   0.3464102   0.0000000  )
        18           C   tau(  18) = (   0.0000000   0.4618802   0.0000000  )
        19           C   tau(  19) = (  -0.1000000   0.5196152   0.0000000  )
        20           C   tau(  20) = (  -0.1000000   0.6350853   0.0000000  )
        21           C   tau(  21) = (  -0.2000000   0.6928203   0.0000000  )
        22           C   tau(  22) = (  -0.2000000   0.8082904   0.0000000  )
        23           C   tau(  23) = (   0.4000000   0.0000000   0.0000000  )
        24           C   tau(  24) = (   0.4000000   0.1154701   0.0000000  )
        25           C   tau(  25) = (   0.3000000   0.1732051   0.0000000  )
        26           C   tau(  26) = (   0.3000000   0.2886751   0.0000000  )
        27           C   tau(  27) = (   0.2000000   0.3464102   0.0000000  )
        28           Fe  tau(  28) = (   0.2000000   0.4618802   0.0000000  )
        29           C   tau(  29) = (   0.1000000   0.5196152   0.0000000  )
        30           C   tau(  30) = (   0.1000000   0.6350853   0.0000000  )
        31           C   tau(  31) = (   0.0000000   0.6928203   0.0000000  )
        32           C   tau(  32) = (   0.0000000   0.8082904   0.0000000  )
        33           C   tau(  33) = (   0.6000000   0.0000000   0.0000000  )
        34           C   tau(  34) = (   0.6000000   0.1154701   0.0000000  )
        35           C   tau(  35) = (   0.5000000   0.1732051   0.0000000  )
        36           C   tau(  36) = (   0.5000000   0.2886751   0.0000000  )
        37           C   tau(  37) = (   0.4000000   0.3464102   0.0000000  )
        38           C   tau(  38) = (   0.4000000   0.4618802   0.0000000  )
        39           C   tau(  39) = (   0.3000000   0.5196152   0.0000000  )
        40           C   tau(  40) = (   0.3000000   0.6350853   0.0000000  )
        41           C   tau(  41) = (   0.2000000   0.6928203   0.0000000  )
        42           C   tau(  42) = (   0.2000000   0.8082904   0.0000000  )
        43           C   tau(  43) = (   0.8000000   0.0000000   0.0000000  )
        44           C   tau(  44) = (   0.8000000   0.1154701   0.0000000  )
        45           C   tau(  45) = (   0.7000000   0.1732051   0.0000000  )
        46           C   tau(  46) = (   0.7000000   0.2886751   0.0000000  )
        47           C   tau(  47) = (   0.6000000   0.3464102   0.0000000  )
        48           C   tau(  48) = (   0.6000000   0.4618802   0.0000000  )
        49           C   tau(  49) = (   0.5000000   0.5196152   0.0000000  )
        50           C   tau(  50) = (   0.5000000   0.6350853   0.0000000  )
        51           C   tau(  51) = (   0.4000000   0.6928203   0.0000000  )
        52           C   tau(  52) = (   0.4000000   0.8082904   0.0000000  )

   Crystallographic axes

     site n.     atom                  positions (cryst. coord.)
         1           H   tau(   1) = (  0.5333333  0.5666667  0.4000000  )
         2           H   tau(   2) = (  0.5333333  0.5666667  0.4752072  )
         3           C   tau(   3) = (  0.0000000  0.0000000  0.0000000  )
         4           C   tau(   4) = (  0.0666667  0.1333333  0.0000000  )
         5           C   tau(   5) = (  0.0000000  0.2000000  0.0000000  )
         6           C   tau(   6) = (  0.0666667  0.3333333  0.0000000  )
         7           C   tau(   7) = (  0.0000000  0.4000000  0.0000000  )
         8           C   tau(   8) = (  0.0666667  0.5333333  0.0000000  )
         9           C   tau(   9) = (  0.0000000  0.6000000  0.0000000  )
        10           C   tau(  10) = (  0.0666667  0.7333333  0.0000000  )
        11           C   tau(  11) = (  0.0000000  0.8000000  0.0000000  )
        12           C   tau(  12) = (  0.0666667  0.9333333  0.0000000  )
        13           C   tau(  13) = (  0.2000000  0.0000000  0.0000000  )
        14           C   tau(  14) = (  0.2666667  0.1333333  0.0000000  )
        15           C   tau(  15) = (  0.2000000  0.2000000  0.0000000  )
        16           C   tau(  16) = (  0.2666667  0.3333333  0.0000000  )
        17           C   tau(  17) = (  0.2000000  0.4000000  0.0000000  )
        18           C   tau(  18) = (  0.2666667  0.5333333  0.0000000  )
        19           C   tau(  19) = (  0.2000000  0.6000000  0.0000000  )
        20           C   tau(  20) = (  0.2666667  0.7333333  0.0000000  )
        21           C   tau(  21) = (  0.2000000  0.8000000  0.0000000  )
        22           C   tau(  22) = (  0.2666667  0.9333333  0.0000000  )
        23           C   tau(  23) = (  0.4000000  0.0000000  0.0000000  )
        24           C   tau(  24) = (  0.4666667  0.1333333  0.0000000  )
        25           C   tau(  25) = (  0.4000000  0.2000000  0.0000000  )
        26           C   tau(  26) = (  0.4666667  0.3333333  0.0000000  )
        27           C   tau(  27) = (  0.4000000  0.4000000  0.0000000  )
        28           Fe  tau(  28) = (  0.4666667  0.5333333  0.0000000  )
        29           C   tau(  29) = (  0.4000000  0.6000000  0.0000000  )
        30           C   tau(  30) = (  0.4666667  0.7333333  0.0000000  )
[...]
        42           C   tau(  42) = (  0.6666667  0.9333333  0.0000000  )
        43           C   tau(  43) = (  0.8000000  0.0000000  0.0000000  )
        44           C   tau(  44) = (  0.8666667  0.1333333  0.0000000  )
        45           C   tau(  45) = (  0.8000000  0.2000000  0.0000000  )
        46           C   tau(  46) = (  0.8666667  0.3333333  0.0000000  )
        47           C   tau(  47) = (  0.8000000  0.4000000  0.0000000  )
        48           C   tau(  48) = (  0.8666667  0.5333333  0.0000000  )
        49           C   tau(  49) = (  0.8000000  0.6000000  0.0000000  )
        50           C   tau(  50) = (  0.8666667  0.7333333  0.0000000  )
        51           C   tau(  51) = (  0.8000000  0.8000000  0.0000000  )
        52           C   tau(  52) = (  0.8666667  0.9333333  0.0000000  )

     number of k points=     1  Marzari-Vanderbilt smearing, width (Ry)=  0.0010
                       cart. coord. in units 2pi/alat
        k(    1) = (   0.0000000   0.0000000   0.0000000), wk =   1.0000000

                       cryst. coord.
        k(    1) = (   0.0000000   0.0000000   0.0000000), wk =   1.0000000

     Check: negative core charge=   -0.000002

     Initial potential from superposition of free atoms

     starting charge  213.80512, renormalised to  214.00000

     negative rho (up, down):  6.316E-05 9.227E-03

Carrying out rVV10 run using the following parameters:
Nqs =      20    Nr_points =    1024   r_max =   100.000
b_value =  6.30000    beta =  0.00901
     q_mesh =  0.00010000  0.00030000  0.00058939  0.00100810
               0.00161396  0.00249058  0.00375900  0.00559430
               0.00824984  0.01209221  0.01765183  0.02569619
               0.03733578  0.05417739  0.07854596  0.11380545
               0.16482331  0.23864234  0.34545298  0.50000000

Gradients computed in Reciprocal space

     Starting wfcs are  208 randomized atomic wfcs

     Self-consistent Calculation

     iteration #  1     ecut=    70.00 Ry     beta= 0.30
     Davidson diagonalization with overlap
     ethr =  1.00E-02,  avg # of iterations =  2.5

[...]

     total energy              =    -858.10905490 Ry
     Harris-Foulkes estimate   =    -858.63145889 Ry
     estimated scf accuracy    <      10.05982393 Ry

     total magnetization       =     6.00 Bohr mag/cell
     absolute magnetization    =     6.66 Bohr mag/cell

[...]

     Magnetic moment per site:
     atom:    1    charge:    0.2107    magn:   -0.0000    constr:    0.0000
     atom:    2    charge:    0.2119    magn:   -0.0000    constr:    0.0000
     atom:    3    charge:    1.7171    magn:   -0.0127    constr:    0.0000
     atom:    4    charge:    1.7153    magn:    0.0178    constr:    0.0000
     atom:    5    charge:    1.7177    magn:   -0.0085    constr:    0.0000
     atom:    6    charge:    1.7142    magn:    0.0056    constr:    0.0000
     atom:    7    charge:    1.7177    magn:   -0.0085    constr:    0.0000
     atom:    8    charge:    1.7153    magn:    0.0178    constr:    0.0000
     atom:    9    charge:    1.7171    magn:   -0.0127    constr:    0.0000
     atom:   10    charge:    1.7149    magn:    0.0589    constr:    0.0000
     atom:   11    charge:    1.7176    magn:   -0.0173    constr:    0.0000
     atom:   12    charge:    1.7149    magn:    0.0589    constr:    0.0000
     atom:   13    charge:    1.7176    magn:   -0.0174    constr:    0.0000
     atom:   14    charge:    1.7155    magn:    0.0461    constr:    0.0000
     atom:   15    charge:    1.7140    magn:   -0.0137    constr:    0.0000
     atom:   16    charge:    1.7106    magn:    0.0554    constr:    0.0000
     atom:   17    charge:    1.7228    magn:   -0.0120    constr:    0.0000
     atom:   18    charge:    1.7106    magn:    0.0554    constr:    0.0000
     atom:   19    charge:    1.7140    magn:   -0.0137    constr:    0.0000
     atom:   20    charge:    1.7155    magn:    0.0461    constr:    0.0000
     atom:   21    charge:    1.7176    magn:   -0.0174    constr:    0.0000
     atom:   22    charge:    1.7149    magn:    0.0589    constr:    0.0000
     atom:   23    charge:    1.7171    magn:   -0.0127    constr:    0.0000
     atom:   24    charge:    1.7153    magn:    0.0178    constr:    0.0000
     atom:   25    charge:    1.7140    magn:   -0.0136    constr:    0.0000
     atom:   26    charge:    1.7106    magn:    0.0553    constr:    0.0000
     atom:   27    charge:    1.8518    magn:   -0.0190    constr:    0.0000
     atom:   28    charge:   11.1427    magn:    0.4497    constr:    0.0000
     atom:   29    charge:    1.8518    magn:   -0.0190    constr:    0.0000
     atom:   30    charge:    1.7106    magn:    0.0553    constr:    0.0000
     atom:   31    charge:    1.7140    magn:   -0.0136    constr:    0.0000
     atom:   32    charge:    1.7153    magn:    0.0178    constr:    0.0000
     atom:   33    charge:    1.7177    magn:   -0.0085    constr:    0.0000
     atom:   34    charge:    1.7139    magn:    0.0123    constr:    0.0000
     atom:   35    charge:    1.7177    magn:   -0.0085    constr:    0.0000
     atom:   36    charge:    1.7142    magn:    0.0055    constr:    0.0000
     atom:   37    charge:    1.7228    magn:   -0.0119    constr:    0.0000
     atom:   38    charge:    1.7106    magn:    0.0552    constr:    0.0000
     atom:   39    charge:    1.8518    magn:   -0.0188    constr:    0.0000
     atom:   40    charge:    1.7106    magn:    0.0551    constr:    0.0000
     atom:   41    charge:    1.7228    magn:   -0.0119    constr:    0.0000
     atom:   42    charge:    1.7142    magn:    0.0055    constr:    0.0000
     atom:   43    charge:    1.7177    magn:   -0.0085    constr:    0.0000
     atom:   44    charge:    1.7139    magn:    0.0123    constr:    0.0000
     atom:   45    charge:    1.7236    magn:   -0.0046    constr:    0.0000
     atom:   46    charge:    1.7139    magn:    0.0123    constr:    0.0000
     atom:   47    charge:    1.7177    magn:   -0.0085    constr:    0.0000
     atom:   48    charge:    1.7153    magn:    0.0178    constr:    0.0000
     atom:   49    charge:    1.7140    magn:   -0.0135    constr:    0.0000
     atom:   50    charge:    1.7155    magn:    0.0460    constr:    0.0000
     atom:   51    charge:    1.7140    magn:   -0.0135    constr:    0.0000
     atom:   52    charge:    1.7153    magn:    0.0178    constr:    0.0000

[...]

     total energy              =    -860.05423042 Ry
     Harris-Foulkes estimate   =    -860.05423207 Ry
     estimated scf accuracy    <       0.00000134 Ry

[...]

     iteration #110     ecut=    70.00 Ry     beta= 0.30
     Davidson diagonalization with overlap
     ethr =  5.31E-10,  avg # of iterations =  2.0

     negative rho (up, down):  5.375E-04 7.547E-03

     Magnetic moment per site:
     atom:    1    charge:    0.2107    magn:   -0.0000    constr:    0.0000
     atom:    2    charge:    0.2119    magn:   -0.0000    constr:    0.0000
     atom:    3    charge:    1.7171    magn:   -0.0127    constr:    0.0000
     atom:    4    charge:    1.7153    magn:    0.0179    constr:    0.0000
     atom:    5    charge:    1.7177    magn:   -0.0086    constr:    0.0000
     atom:    6    charge:    1.7142    magn:    0.0056    constr:    0.0000
     atom:    7    charge:    1.7177    magn:   -0.0086    constr:    0.0000
     atom:    8    charge:    1.7153    magn:    0.0179    constr:    0.0000
     atom:    9    charge:    1.7171    magn:   -0.0127    constr:    0.0000
     atom:   10    charge:    1.7149    magn:    0.0589    constr:    0.0000
     atom:   11    charge:    1.7176    magn:   -0.0173    constr:    0.0000
     atom:   12    charge:    1.7149    magn:    0.0589    constr:    0.0000
     atom:   13    charge:    1.7176    magn:   -0.0174    constr:    0.0000
     atom:   14    charge:    1.7155    magn:    0.0461    constr:    0.0000
     atom:   15    charge:    1.7140    magn:   -0.0137    constr:    0.0000
     atom:   16    charge:    1.7106    magn:    0.0555    constr:    0.0000
     atom:   17    charge:    1.7228    magn:   -0.0121    constr:    0.0000
     atom:   18    charge:    1.7106    magn:    0.0555    constr:    0.0000
     atom:   19    charge:    1.7140    magn:   -0.0137    constr:    0.0000
     atom:   20    charge:    1.7155    magn:    0.0461    constr:    0.0000
     atom:   21    charge:    1.7176    magn:   -0.0174    constr:    0.0000
     atom:   22    charge:    1.7149    magn:    0.0589    constr:    0.0000
     atom:   23    charge:    1.7171    magn:   -0.0127    constr:    0.0000
     atom:   24    charge:    1.7153    magn:    0.0178    constr:    0.0000
     atom:   25    charge:    1.7140    magn:   -0.0137    constr:    0.0000
     atom:   26    charge:    1.7106    magn:    0.0554    constr:    0.0000
     atom:   27    charge:    1.8518    magn:   -0.0192    constr:    0.0000
     atom:   28    charge:   11.1426    magn:    0.4510    constr:    0.0000
     atom:   29    charge:    1.8518    magn:   -0.0193    constr:    0.0000
     atom:   30    charge:    1.7106    magn:    0.0554    constr:    0.0000
     atom:   31    charge:    1.7140    magn:   -0.0137    constr:    0.0000
     atom:   32    charge:    1.7153    magn:    0.0178    constr:    0.0000
     atom:   33    charge:    1.7177    magn:   -0.0086    constr:    0.0000
     atom:   34    charge:    1.7139    magn:    0.0124    constr:    0.0000
     atom:   35    charge:    1.7177    magn:   -0.0086    constr:    0.0000
     atom:   36    charge:    1.7142    magn:    0.0056    constr:    0.0000
     atom:   37    charge:    1.7228    magn:   -0.0120    constr:    0.0000
     atom:   38    charge:    1.7106    magn:    0.0553    constr:    0.0000
     atom:   39    charge:    1.8519    magn:   -0.0191    constr:    0.0000
     atom:   40    charge:    1.7106    magn:    0.0553    constr:    0.0000
     atom:   41    charge:    1.7228    magn:   -0.0120    constr:    0.0000
     atom:   42    charge:    1.7142    magn:    0.0056    constr:    0.0000
     atom:   43    charge:    1.7177    magn:   -0.0086    constr:    0.0000
     atom:   44    charge:    1.7139    magn:    0.0124    constr:    0.0000
     atom:   45    charge:    1.7236    magn:   -0.0049    constr:    0.0000
     atom:   46    charge:    1.7139    magn:    0.0124    constr:    0.0000
     atom:   47    charge:    1.7177    magn:   -0.0086    constr:    0.0000
     atom:   48    charge:    1.7153    magn:    0.0178    constr:    0.0000
     atom:   49    charge:    1.7140    magn:   -0.0136    constr:    0.0000
     atom:   50    charge:    1.7155    magn:    0.0460    constr:    0.0000
     atom:   51    charge:    1.7140    magn:   -0.0136    constr:    0.0000
     atom:   52    charge:    1.7153    magn:    0.0178    constr:    0.0000

     End of self-consistent calculation

 ------ SPIN UP ------------

          k = 0.0000 0.0000 0.0000 ( 87777 PWs)   bands (ev):

   -88.6916 -55.5800 -55.5798 -53.8644 -19.8879 -19.0531 -19.0528 -18.9667
   -18.9282 -18.9281 -18.5846 -17.1778 -17.1778 -17.1777 -17.1062 -17.1061
   -16.8007 -16.3314 -16.3313 -16.2300 -16.1780 -16.1778 -15.4864 -14.2337
   -14.2335 -14.1481 -14.1011 -14.1010 -13.4328 -13.1652 -13.1651 -13.1408
   -12.8606 -12.8605 -12.4518 -11.9439 -11.9439 -11.7558 -11.5084 -11.5083
   -10.6271  -9.7936  -9.7936  -9.5308  -9.4218  -9.4218  -9.3390  -9.3078
    -9.3078  -9.2951  -8.8287  -8.8287  -8.2854  -8.2854  -8.1969  -8.0355
    -7.9373  -7.5480  -7.5480  -7.3410  -7.2248  -7.2241  -7.0804  -7.0803
    -6.9471  -6.9234  -6.9233  -6.8125  -6.6699  -6.6698  -6.6395  -6.6269
    -6.6268  -6.5859  -6.5800  -6.2780  -5.7360  -5.7359  -5.6705  -5.6699
    -5.4814  -5.4814  -5.2755  -5.0925  -4.9822  -4.8451  -4.8191  -4.8189
    -4.5341  -4.5339  -4.5043  -4.3367  -4.3366  -3.9819  -3.9817  -3.8951
    -3.7859  -3.7859  -3.2101  -2.8964  -2.8963  -1.9779  -1.9076  -1.9075
    -1.3008  -1.3004  -1.0614  -0.8913   0.8194   0.8673   0.8675   1.3954
     1.3958   1.5053   2.3855   2.3866   2.5221   2.6618   2.6618   2.7612
     3.2960   3.2967   3.4169   3.6584   3.6732   3.7229   3.7490   3.8852

     occupation numbers
     1.0000   1.0000   1.0000   1.0000   1.0000   1.0000   1.0000   1.0000
     1.0000   1.0000   1.0000   1.0000   1.0000   1.0000   1.0000   1.0000
     1.0000   1.0000   1.0000   1.0000   1.0000   1.0000   1.0000   1.0000
     1.0000   1.0000   1.0000   1.0000   1.0000   1.0000   1.0000   1.0000
     1.0000   1.0000   1.0000   1.0000   1.0000   1.0000   1.0000   1.0000
     1.0000   1.0000   1.0000   1.0000   1.0000   1.0000   1.0000   1.0000
     1.0000   1.0000   1.0000   1.0000   1.0000   1.0000   1.0000   1.0000
     1.0000   1.0000   1.0000   1.0000   1.0000   1.0000   1.0000   1.0000
     1.0000   1.0000   1.0000   1.0000   1.0000   1.0000   1.0000   1.0000
     1.0000   1.0000   1.0000   1.0000   1.0000   1.0000   1.0000   1.0000
     1.0000   1.0000   1.0000   1.0000   1.0000   1.0000   1.0000   1.0000
     1.0000   1.0000   1.0000   1.0000   1.0000   1.0000   1.0000   1.0000
     1.0000   1.0000   1.0000   1.0000   1.0000   1.0000   1.0000   1.0000
     1.0000   1.0000   1.0000   1.0000   0.0000   0.0000   0.0000   0.0000
     0.0000   0.0000   0.0000   0.0000   0.0000   0.0000   0.0000   0.0000
     0.0000   0.0000   0.0000   0.0000   0.0000   0.0000   0.0000   0.0000

 ------ SPIN DOWN ----------

          k = 0.0000 0.0000 0.0000 ( 87777 PWs)   bands (ev):

   -87.9757 -54.9967 -54.9963 -52.9758 -19.8459 -19.0066 -19.0063 -18.9269
   -18.9019 -18.9018 -18.5255 -17.1502 -17.1414 -17.1413 -17.0523 -17.0522
   -16.7704 -16.2859 -16.2859 -16.1958 -16.1345 -16.1344 -15.4617 -14.1625
   -14.1624 -14.0911 -14.0910 -14.0856 -13.4389 -13.1403 -13.1403 -13.1084
   -12.8416 -12.8416 -12.4210 -11.9064 -11.9063 -11.7328 -11.4863 -11.4862
   -10.6041  -9.7451  -9.7450  -9.4992  -9.3897  -9.3897  -9.3218  -9.2843
    -9.2843  -9.2770  -8.8162  -8.8161  -8.2501  -8.2501  -8.1774  -7.9378
    -7.9203  -7.5334  -7.5333  -7.3090  -7.0603  -7.0595  -7.0345  -7.0344
    -6.8640  -6.8639  -6.8470  -6.7972  -6.6534  -6.6533  -6.6289  -6.6133
    -6.6132  -6.5620  -6.4508  -6.2763  -5.6908  -5.6907  -5.4396  -5.4396
    -5.4364  -5.4359  -5.1964  -5.0787  -4.9725  -4.7704  -4.7264  -4.7263
    -4.4514  -4.4512  -4.4305  -4.2107  -4.2106  -3.8473  -3.8469  -3.7979
    -3.7712  -3.7712  -3.1659  -2.6661  -2.6660  -1.8804  -1.8803  -1.8166
    -0.9047  -0.8530  -0.7933  -0.7926   0.9145   0.9146   0.9767   1.5514
     1.5515   1.6283   2.5318   2.5328   2.5364   2.8031   2.8034   2.8359
     3.4536   3.4546   3.5081   3.6761   3.6887   3.7344   3.7545   3.8975

     occupation numbers
     1.0000   1.0000   1.0000   1.0000   1.0000   1.0000   1.0000   1.0000
     1.0000   1.0000   1.0000   1.0000   1.0000   1.0000   1.0000   1.0000
     1.0000   1.0000   1.0000   1.0000   1.0000   1.0000   1.0000   1.0000
     1.0000   1.0000   1.0000   1.0000   1.0000   1.0000   1.0000   1.0000
     1.0000   1.0000   1.0000   1.0000   1.0000   1.0000   1.0000   1.0000
     1.0000   1.0000   1.0000   1.0000   1.0000   1.0000   1.0000   1.0000
     1.0000   1.0000   1.0000   1.0000   1.0000   1.0000   1.0000   1.0000
     1.0000   1.0000   1.0000   1.0000   1.0000   1.0000   1.0000   1.0000
     1.0000   1.0000   1.0000   1.0000   1.0000   1.0000   1.0000   1.0000
     1.0000   1.0000   1.0000   1.0000   1.0000   1.0000   1.0000   1.0000
     1.0000   1.0000   1.0000   1.0000   1.0000   1.0000   1.0000   1.0000
     1.0000   1.0000   1.0000   1.0000   1.0000   1.0000   1.0000   1.0000
     1.0000   1.0000   1.0000   1.0000   1.0000   1.0000   1.0000   1.0000
     1.0000   1.0000   0.0000   0.0000   0.0000   0.0000   0.0000   0.0000
     0.0000   0.0000   0.0000   0.0000   0.0000   0.0000   0.0000   0.0000
     0.0000   0.0000   0.0000   0.0000   0.0000   0.0000   0.0000   0.0000

     the Fermi energy is    -0.8404 ev

!    total energy              =    -860.05423234 Ry
     Harris-Foulkes estimate   =    -860.05423090 Ry
     estimated scf accuracy    <       0.00000092 Ry

     The total energy is the sum of the following terms:

     one-electron contribution =   -2780.29294697 Ry
     hartree contribution      =    1433.93470019 Ry
     xc contribution           =    -259.29932648 Ry
     ewald contribution        =     745.60325928 Ry
     smearing contrib. (-TS)   =       0.00008164 Ry

     total magnetization       =     2.00 Bohr mag/cell
     absolute magnetization    =     3.18 Bohr mag/cell

     convergence has been achieved in 110 iterations

     Writing output data file distance-4.0.save/

     General routines

     Parallel routines

   This run was terminated on:  19:44: 1   6Nov2022

   JOB DONE.