     Program PWSCF v.6.4.1 starts on  6Nov2022 at 13:47:52

     R & G space division:  proc/nbgrp/npool/nimage =       6
     Reading input from distance-4.5.in

     Current dimensions of program PWSCF are:
     Max number of different atomic species (ntypx) = 10
     Max number of k-points (npk) =  40000
     Max angular momentum in pseudopotentials (lmaxx) =  3

     IMPORTANT: XC functional enforced from input :
     Exchange-correlation      = RVV10 ( 1  4 13  4 3 0)
     Any further DFT definition will be discarded
     Please, verify this is what you really want

               file H.pbe-rrkjus.UPF: wavefunction(s)  1S renormalized

     Subspace diagonalization in iterative solution of the eigenvalue problem:
     a serial algorithm will be used

     bravais-lattice index     =            4
     lattice parameter (alat)  =      23.2937  a.u.
     unit-cell volume          =    8879.8548 (a.u.)^3
     number of atoms/cell      =           52
     number of atomic types    =            3
     number of electrons       =       214.00
     number of Kohn-Sham states=          128
     kinetic-energy cutoff     =      70.0000  Ry
     charge density cutoff     =     490.0000  Ry
     convergence threshold     =      1.0E-06
     mixing beta               =       0.3000
     number of iterations used =            4  plain     mixing
     Exchange-correlation      = RVV10 ( 1  4 13  4 3 0)

     celldm(1)=  23.293684  celldm(2)=   0.000000  celldm(3)=   0.811261
     celldm(4)=   0.000000  celldm(5)=   0.000000  celldm(6)=   0.000000

     crystal axes: (cart. coord. in units of alat)
               a(1) = (   1.000000   0.000000   0.000000 )
               a(2) = (  -0.500000   0.866025   0.000000 )
               a(3) = (   0.000000   0.000000   0.811261 )

     reciprocal axes: (cart. coord. in units 2 pi/alat)
               b(1) = (  1.000000  0.577350 -0.000000 )
               b(2) = (  0.000000  1.154701  0.000000 )
               b(3) = (  0.000000 -0.000000  1.232649 )

     PseudoPot. # 1 for H  read from file:
     /home/cristian/Escritorio/Proyecto_Grafeno/pseudopotenciales/H.pbe-rrkjus.UPF
     MD5 check sum: 7cc9d459525c9a0585f487a71c3c9563
     Pseudo is Ultrasoft, Zval =  1.0
     Generated by new atomic code, or converted to UPF format
     Using radial grid of 1061 points,  2 beta functions with:
                l(1) =   0
                l(2) =   0
     Q(r) pseudized with 0 coefficients

     PseudoPot. # 2 for C  read from file:
     /home/cristian/Escritorio/Proyecto_Grafeno/pseudopotenciales/C.pbe-n-rrkjus_psl.1.0.0.UPF
     MD5 check sum: 1fdd950c42eb37d8afe3dd2f8d12311e
     Pseudo is Ultrasoft + core correction, Zval =  4.0
     Generated using "atomic" code by A. Dal Corso v.6.3MaX
     Using radial grid of 1073 points,  4 beta functions with:
                l(1) =   0
                l(2) =   0
                l(3) =   1
                l(4) =   1
     Q(r) pseudized with 0 coefficients

     PseudoPot. # 3 for Fe read from file:
     /home/cristian/Escritorio/Proyecto_Grafeno/pseudopotenciales/Fe.pbe-spn-rrkjus_psl.1.0.0.UPF
     MD5 check sum: 72ea77fed8e64ab3a2ccf2804dfc1862
     Pseudo is Ultrasoft + core correction, Zval = 16.0
     Generated using "atomic" code by A. Dal Corso v.6.3
     Using radial grid of 1191 points,  6 beta functions with:
                l(1) =   0
                l(2) =   0
                l(3) =   1
                l(4) =   1
                l(5) =   2
                l(6) =   2
     Q(r) pseudized with 0 coefficients

     vdW kernel table read from file rVV10_kernel_table
     MD5 check sum: b8e2538accc0c0b3206b45ba4daaba6c

     atomic species   valence    mass     pseudopotential
        H              1.00     1.00794     H ( 1.00)
        C              4.00    12.01070     C ( 1.00)
        Fe            16.00    55.84500     Fe( 1.00)

     Starting magnetic structure
     atomic species   magnetization
        H            0.500
        C            0.300
        Fe           0.800

     No symmetry found

                                    s                        frac. trans.

      isym =  1     identity

 cryst.   s( 1) = (     1          0          0      )
                  (     0          1          0      )
                  (     0          0          1      )

 cart.    s( 1) = (  1.0000000  0.0000000  0.0000000 )
                  (  0.0000000  1.0000000  0.0000000 )
                  (  0.0000000  0.0000000  1.0000000 )

     point group C_1 (1)
     there are  1 classes
     the character table:

       E
A      1.00

     the symmetry operations in each class and the name of the first element:

     E        1
          identity

   Cartesian axes

     site n.     atom                  positions (alat units)
         1           H   tau(   1) = (   0.2500000   0.4907477   0.3650675  )
         2           H   tau(   2) = (   0.2500000   0.4907477   0.4260802  )
         3           C   tau(   3) = (   0.0000000   0.0000000   0.0000000  )
         4           C   tau(   4) = (   0.0000000   0.1154701   0.0000000  )
         5           C   tau(   5) = (  -0.1000000   0.1732051   0.0000000  )
         6           C   tau(   6) = (  -0.1000000   0.2886751   0.0000000  )
         7           C   tau(   7) = (  -0.2000000   0.3464102   0.0000000  )
         8           C   tau(   8) = (  -0.2000000   0.4618802   0.0000000  )
         9           C   tau(   9) = (  -0.3000000   0.5196152   0.0000000  )
        10           C   tau(  10) = (  -0.3000000   0.6350853   0.0000000  )
        11           C   tau(  11) = (  -0.4000000   0.6928203   0.0000000  )
        12           C   tau(  12) = (  -0.4000000   0.8082904   0.0000000  )
        13           C   tau(  13) = (   0.2000000   0.0000000   0.0000000  )
        14           C   tau(  14) = (   0.2000000   0.1154701   0.0000000  )
        15           C   tau(  15) = (   0.1000000   0.1732051   0.0000000  )
        16           C   tau(  16) = (   0.1000000   0.2886751   0.0000000  )
        17           C   tau(  17) = (   0.0000000   0.3464102   0.0000000  )
        18           C   tau(  18) = (   0.0000000   0.4618802   0.0000000  )
        19           C   tau(  19) = (  -0.1000000   0.5196152   0.0000000  )
        20           C   tau(  20) = (  -0.1000000   0.6350853   0.0000000  )
        21           C   tau(  21) = (  -0.2000000   0.6928203   0.0000000  )
        22           C   tau(  22) = (  -0.2000000   0.8082904   0.0000000  )
        23           C   tau(  23) = (   0.4000000   0.0000000   0.0000000  )
        24           C   tau(  24) = (   0.4000000   0.1154701   0.0000000  )
        25           C   tau(  25) = (   0.3000000   0.1732051   0.0000000  )
        26           C   tau(  26) = (   0.3000000   0.2886751   0.0000000  )
        27           C   tau(  27) = (   0.2000000   0.3464102   0.0000000  )
        28           Fe  tau(  28) = (   0.2000000   0.4618802   0.0000000  )
        29           C   tau(  29) = (   0.1000000   0.5196152   0.0000000  )
        30           C   tau(  30) = (   0.1000000   0.6350853   0.0000000  )
        31           C   tau(  31) = (   0.0000000   0.6928203   0.0000000  )
        32           C   tau(  32) = (   0.0000000   0.8082904   0.0000000  )
        33           C   tau(  33) = (   0.6000000   0.0000000   0.0000000  )
        34           C   tau(  34) = (   0.6000000   0.1154701   0.0000000  )
        35           C   tau(  35) = (   0.5000000   0.1732051   0.0000000  )
        36           C   tau(  36) = (   0.5000000   0.2886751   0.0000000  )
        37           C   tau(  37) = (   0.4000000   0.3464102   0.0000000  )
        38           C   tau(  38) = (   0.4000000   0.4618802   0.0000000  )
        39           C   tau(  39) = (   0.3000000   0.5196152   0.0000000  )
        40           C   tau(  40) = (   0.3000000   0.6350853   0.0000000  )
        41           C   tau(  41) = (   0.2000000   0.6928203   0.0000000  )
        42           C   tau(  42) = (   0.2000000   0.8082904   0.0000000  )
        43           C   tau(  43) = (   0.8000000   0.0000000   0.0000000  )
        44           C   tau(  44) = (   0.8000000   0.1154701   0.0000000  )
        45           C   tau(  45) = (   0.7000000   0.1732051   0.0000000  )
        46           C   tau(  46) = (   0.7000000   0.2886751   0.0000000  )
        47           C   tau(  47) = (   0.6000000   0.3464102   0.0000000  )
        48           C   tau(  48) = (   0.6000000   0.4618802   0.0000000  )
        49           C   tau(  49) = (   0.5000000   0.5196152   0.0000000  )
        50           C   tau(  50) = (   0.5000000   0.6350853   0.0000000  )
        51           C   tau(  51) = (   0.4000000   0.6928203   0.0000000  )
        52           C   tau(  52) = (   0.4000000   0.8082904   0.0000000  )

   Crystallographic axes

     site n.     atom                  positions (cryst. coord.)
         1           H   tau(   1) = (  0.5333333  0.5666667  0.4500000  )
         2           H   tau(   2) = (  0.5333333  0.5666667  0.5252072  )
         3           C   tau(   3) = (  0.0000000  0.0000000  0.0000000  )
         4           C   tau(   4) = (  0.0666667  0.1333333  0.0000000  )
         5           C   tau(   5) = (  0.0000000  0.2000000  0.0000000  )
         6           C   tau(   6) = (  0.0666667  0.3333333  0.0000000  )
         7           C   tau(   7) = (  0.0000000  0.4000000  0.0000000  )
         8           C   tau(   8) = (  0.0666667  0.5333333  0.0000000  )
         9           C   tau(   9) = (  0.0000000  0.6000000  0.0000000  )
        10           C   tau(  10) = (  0.0666667  0.7333333  0.0000000  )
        11           C   tau(  11) = (  0.0000000  0.8000000  0.0000000  )
        12           C   tau(  12) = (  0.0666667  0.9333333  0.0000000  )
        13           C   tau(  13) = (  0.2000000  0.0000000  0.0000000  )
        14           C   tau(  14) = (  0.2666667  0.1333333  0.0000000  )
        15           C   tau(  15) = (  0.2000000  0.2000000  0.0000000  )
        16           C   tau(  16) = (  0.2666667  0.3333333  0.0000000  )
        17           C   tau(  17) = (  0.2000000  0.4000000  0.0000000  )
        18           C   tau(  18) = (  0.2666667  0.5333333  0.0000000  )
        19           C   tau(  19) = (  0.2000000  0.6000000  0.0000000  )
        20           C   tau(  20) = (  0.2666667  0.7333333  0.0000000  )
        21           C   tau(  21) = (  0.2000000  0.8000000  0.0000000  )
        22           C   tau(  22) = (  0.2666667  0.9333333  0.0000000  )
        23           C   tau(  23) = (  0.4000000  0.0000000  0.0000000  )
        24           C   tau(  24) = (  0.4666667  0.1333333  0.0000000  )
        25           C   tau(  25) = (  0.4000000  0.2000000  0.0000000  )
        26           C   tau(  26) = (  0.4666667  0.3333333  0.0000000  )
        27           C   tau(  27) = (  0.4000000  0.4000000  0.0000000  )
        28           Fe  tau(  28) = (  0.4666667  0.5333333  0.0000000  )
        29           C   tau(  29) = (  0.4000000  0.6000000  0.0000000  )
        30           C   tau(  30) = (  0.4666667  0.7333333  0.0000000  )
[...]
        42           C   tau(  42) = (  0.6666667  0.9333333  0.0000000  )
        43           C   tau(  43) = (  0.8000000  0.0000000  0.0000000  )
        44           C   tau(  44) = (  0.8666667  0.1333333  0.0000000  )
        45           C   tau(  45) = (  0.8000000  0.2000000  0.0000000  )
        46           C   tau(  46) = (  0.8666667  0.3333333  0.0000000  )
        47           C   tau(  47) = (  0.8000000  0.4000000  0.0000000  )
        48           C   tau(  48) = (  0.8666667  0.5333333  0.0000000  )
        49           C   tau(  49) = (  0.8000000  0.6000000  0.0000000  )
        50           C   tau(  50) = (  0.8666667  0.7333333  0.0000000  )
        51           C   tau(  51) = (  0.8000000  0.8000000  0.0000000  )
        52           C   tau(  52) = (  0.8666667  0.9333333  0.0000000  )

     number of k points=     1  Marzari-Vanderbilt smearing, width (Ry)=  0.0010
                       cart. coord. in units 2pi/alat
        k(    1) = (   0.0000000   0.0000000   0.0000000), wk =   1.0000000

                       cryst. coord.
        k(    1) = (   0.0000000   0.0000000   0.0000000), wk =   1.0000000

     Check: negative core charge=   -0.000002

     Initial potential from superposition of free atoms

     starting charge  213.80512, renormalised to  214.00000

     negative rho (up, down):  6.834E-05 9.482E-03

Carrying out rVV10 run using the following parameters:
Nqs =      20    Nr_points =    1024   r_max =   100.000
b_value =  6.30000    beta =  0.00901
     q_mesh =  0.00010000  0.00030000  0.00058939  0.00100810
               0.00161396  0.00249058  0.00375900  0.00559430
               0.00824984  0.01209221  0.01765183  0.02569619
               0.03733578  0.05417739  0.07854596  0.11380545
               0.16482331  0.23864234  0.34545298  0.50000000

Gradients computed in Reciprocal space

     Starting wfcs are  208 randomized atomic wfcs

     Self-consistent Calculation

     iteration #  1     ecut=    70.00 Ry     beta= 0.30
     Davidson diagonalization with overlap
     ethr =  1.00E-02,  avg # of iterations =  2.5

[...]

     total energy              =    -858.11491639 Ry
     Harris-Foulkes estimate   =    -858.63502272 Ry
     estimated scf accuracy    <      10.05383825 Ry

     total magnetization       =     6.00 Bohr mag/cell
     absolute magnetization    =     6.66 Bohr mag/cell

[...]

     Magnetic moment per site:
     atom:    1    charge:    0.2114    magn:   -0.0000    constr:    0.0000
     atom:    2    charge:    0.2112    magn:   -0.0000    constr:    0.0000
     atom:    3    charge:    1.7172    magn:   -0.0114    constr:    0.0000
     atom:    4    charge:    1.7152    magn:    0.0171    constr:    0.0000
     atom:    5    charge:    1.7177    magn:   -0.0069    constr:    0.0000
     atom:    6    charge:    1.7141    magn:    0.0048    constr:    0.0000
     atom:    7    charge:    1.7177    magn:   -0.0069    constr:    0.0000
     atom:    8    charge:    1.7152    magn:    0.0171    constr:    0.0000
     atom:    9    charge:    1.7172    magn:   -0.0114    constr:    0.0000
     atom:   10    charge:    1.7147    magn:    0.0585    constr:    0.0000
     atom:   11    charge:    1.7176    magn:   -0.0164    constr:    0.0000
     atom:   12    charge:    1.7147    magn:    0.0585    constr:    0.0000
     atom:   13    charge:    1.7176    magn:   -0.0165    constr:    0.0000
     atom:   14    charge:    1.7155    magn:    0.0457    constr:    0.0000
     atom:   15    charge:    1.7139    magn:   -0.0128    constr:    0.0000
     atom:   16    charge:    1.7106    magn:    0.0548    constr:    0.0000
     atom:   17    charge:    1.7231    magn:   -0.0089    constr:    0.0000
     atom:   18    charge:    1.7106    magn:    0.0547    constr:    0.0000
     atom:   19    charge:    1.7139    magn:   -0.0127    constr:    0.0000
     atom:   20    charge:    1.7155    magn:    0.0457    constr:    0.0000
     atom:   21    charge:    1.7176    magn:   -0.0164    constr:    0.0000
     atom:   22    charge:    1.7147    magn:    0.0585    constr:    0.0000
     atom:   23    charge:    1.7172    magn:   -0.0114    constr:    0.0000
     atom:   24    charge:    1.7152    magn:    0.0170    constr:    0.0000
     atom:   25    charge:    1.7139    magn:   -0.0127    constr:    0.0000
     atom:   26    charge:    1.7106    magn:    0.0547    constr:    0.0000
     atom:   27    charge:    1.8523    magn:   -0.0165    constr:    0.0000
     atom:   28    charge:   11.1428    magn:    0.4721    constr:    0.0000
     atom:   29    charge:    1.8523    magn:   -0.0165    constr:    0.0000
     atom:   30    charge:    1.7106    magn:    0.0547    constr:    0.0000
     atom:   31    charge:    1.7139    magn:   -0.0127    constr:    0.0000
     atom:   32    charge:    1.7152    magn:    0.0170    constr:    0.0000
     atom:   33    charge:    1.7177    magn:   -0.0069    constr:    0.0000
     atom:   34    charge:    1.7137    magn:    0.0114    constr:    0.0000
     atom:   35    charge:    1.7177    magn:   -0.0069    constr:    0.0000
     atom:   36    charge:    1.7141    magn:    0.0047    constr:    0.0000
     atom:   37    charge:    1.7231    magn:   -0.0087    constr:    0.0000
     atom:   38    charge:    1.7106    magn:    0.0544    constr:    0.0000
     atom:   39    charge:    1.8523    magn:   -0.0162    constr:    0.0000
     atom:   40    charge:    1.7106    magn:    0.0544    constr:    0.0000
     atom:   41    charge:    1.7231    magn:   -0.0086    constr:    0.0000
     atom:   42    charge:    1.7141    magn:    0.0047    constr:    0.0000
     atom:   43    charge:    1.7177    magn:   -0.0068    constr:    0.0000
     atom:   44    charge:    1.7137    magn:    0.0114    constr:    0.0000
     atom:   45    charge:    1.7240    magn:    0.0001    constr:    0.0000
     atom:   46    charge:    1.7137    magn:    0.0114    constr:    0.0000
     atom:   47    charge:    1.7177    magn:   -0.0068    constr:    0.0000
     atom:   48    charge:    1.7152    magn:    0.0170    constr:    0.0000
     atom:   49    charge:    1.7139    magn:   -0.0125    constr:    0.0000
     atom:   50    charge:    1.7155    magn:    0.0454    constr:    0.0000
     atom:   51    charge:    1.7139    magn:   -0.0125    constr:    0.0000
     atom:   52    charge:    1.7152    magn:    0.0170    constr:    0.0000

[...]

     total energy              =    -860.05368711 Ry
     Harris-Foulkes estimate   =    -860.05368787 Ry
     estimated scf accuracy    <       0.00000100 Ry

[...]

     iteration #113     ecut=    70.00 Ry     beta= 0.30
     Davidson diagonalization with overlap
     ethr =  4.68E-10,  avg # of iterations =  3.0

     negative rho (up, down):  5.330E-04 7.079E-03

     Magnetic moment per site:
     atom:    1    charge:    0.2114    magn:   -0.0000    constr:    0.0000
     atom:    2    charge:    0.2112    magn:   -0.0000    constr:    0.0000
     atom:    3    charge:    1.7172    magn:   -0.0119    constr:    0.0000
     atom:    4    charge:    1.7152    magn:    0.0175    constr:    0.0000
     atom:    5    charge:    1.7177    magn:   -0.0073    constr:    0.0000
     atom:    6    charge:    1.7141    magn:    0.0053    constr:    0.0000
     atom:    7    charge:    1.7177    magn:   -0.0073    constr:    0.0000
     atom:    8    charge:    1.7152    magn:    0.0175    constr:    0.0000
     atom:    9    charge:    1.7172    magn:   -0.0119    constr:    0.0000
     atom:   10    charge:    1.7147    magn:    0.0588    constr:    0.0000
     atom:   11    charge:    1.7176    magn:   -0.0169    constr:    0.0000
     atom:   12    charge:    1.7147    magn:    0.0588    constr:    0.0000
     atom:   13    charge:    1.7177    magn:   -0.0170    constr:    0.0000
     atom:   14    charge:    1.7155    magn:    0.0461    constr:    0.0000
     atom:   15    charge:    1.7139    magn:   -0.0133    constr:    0.0000
     atom:   16    charge:    1.7106    magn:    0.0551    constr:    0.0000
     atom:   17    charge:    1.7231    magn:   -0.0089    constr:    0.0000
     atom:   18    charge:    1.7106    magn:    0.0551    constr:    0.0000
     atom:   19    charge:    1.7139    magn:   -0.0133    constr:    0.0000
     atom:   20    charge:    1.7155    magn:    0.0460    constr:    0.0000
     atom:   21    charge:    1.7177    magn:   -0.0170    constr:    0.0000
     atom:   22    charge:    1.7148    magn:    0.0588    constr:    0.0000
     atom:   23    charge:    1.7172    magn:   -0.0119    constr:    0.0000
     atom:   24    charge:    1.7152    magn:    0.0175    constr:    0.0000
     atom:   25    charge:    1.7139    magn:   -0.0132    constr:    0.0000
     atom:   26    charge:    1.7106    magn:    0.0551    constr:    0.0000
     atom:   27    charge:    1.8523    magn:   -0.0165    constr:    0.0000
     atom:   28    charge:   11.1431    magn:    0.4738    constr:    0.0000
     atom:   29    charge:    1.8523    magn:   -0.0163    constr:    0.0000
     atom:   30    charge:    1.7106    magn:    0.0551    constr:    0.0000
     atom:   31    charge:    1.7139    magn:   -0.0132    constr:    0.0000
     atom:   32    charge:    1.7152    magn:    0.0175    constr:    0.0000
     atom:   33    charge:    1.7177    magn:   -0.0073    constr:    0.0000
     atom:   34    charge:    1.7137    magn:    0.0119    constr:    0.0000
     atom:   35    charge:    1.7177    magn:   -0.0073    constr:    0.0000
     atom:   36    charge:    1.7141    magn:    0.0053    constr:    0.0000
     atom:   37    charge:    1.7231    magn:   -0.0088    constr:    0.0000
     atom:   38    charge:    1.7106    magn:    0.0550    constr:    0.0000
     atom:   39    charge:    1.8523    magn:   -0.0164    constr:    0.0000
     atom:   40    charge:    1.7106    magn:    0.0550    constr:    0.0000
     atom:   41    charge:    1.7231    magn:   -0.0088    constr:    0.0000
     atom:   42    charge:    1.7141    magn:    0.0053    constr:    0.0000
     atom:   43    charge:    1.7177    magn:   -0.0073    constr:    0.0000
     atom:   44    charge:    1.7137    magn:    0.0119    constr:    0.0000
     atom:   45    charge:    1.7240    magn:    0.0002    constr:    0.0000
     atom:   46    charge:    1.7137    magn:    0.0119    constr:    0.0000
     atom:   47    charge:    1.7177    magn:   -0.0073    constr:    0.0000
     atom:   48    charge:    1.7152    magn:    0.0175    constr:    0.0000
     atom:   49    charge:    1.7139    magn:   -0.0132    constr:    0.0000
     atom:   50    charge:    1.7155    magn:    0.0460    constr:    0.0000
     atom:   51    charge:    1.7139    magn:   -0.0132    constr:    0.0000
     atom:   52    charge:    1.7152    magn:    0.0175    constr:    0.0000

     End of self-consistent calculation

 ------ SPIN UP ------------

          k = 0.0000 0.0000 0.0000 ( 87777 PWs)   bands (ev):

   -88.7843 -55.6580 -55.6577 -53.9840 -19.8832 -19.0510 -19.0507 -18.9581
   -18.9200 -18.9199 -18.5821 -17.1727 -17.1727 -17.1725 -17.1017 -17.1016
   -16.7948 -16.3263 -16.3262 -16.2210 -16.1738 -16.1738 -15.4854 -14.2346
   -14.2344 -14.1426 -14.0935 -14.0935 -13.4236 -13.1602 -13.1601 -13.1345
   -12.8550 -12.8549 -12.4504 -11.9407 -11.9407 -11.7488 -11.5040 -11.5039
   -10.6275  -9.7974  -9.7973  -9.5305  -9.4172  -9.4172  -9.3322  -9.2998
    -9.2998  -9.2869  -8.8238  -8.8237  -8.2825  -8.2824  -8.1979  -8.0324
    -7.9320  -7.5421  -7.5421  -7.3377  -7.2344  -7.2339  -7.0807  -7.0805
    -6.9412  -6.9173  -6.9171  -6.8104  -6.6639  -6.6639  -6.6305  -6.6186
    -6.6185  -6.5858  -6.5712  -6.3109  -5.7384  -5.7382  -5.6966  -5.6962
    -5.4783  -5.4783  -5.3112  -5.0886  -4.9729  -4.8408  -4.8144  -4.8143
    -4.5448  -4.5446  -4.5019  -4.3362  -4.3362  -3.9779  -3.9776  -3.8887
    -3.7773  -3.7773  -3.2130  -2.9089  -2.9088  -1.9728  -1.9005  -1.9003
    -1.3159  -1.3156  -1.1730  -0.8995   0.8242   0.8724   0.8726   1.3916
     1.3918   1.5053   2.3498   2.3515   2.5209   2.6660   2.6661   2.7672
     3.2926   3.2931   3.4117   3.6547   3.6697   3.7270   3.7287   3.7514

     occupation numbers
     1.0000   1.0000   1.0000   1.0000   1.0000   1.0000   1.0000   1.0000
     1.0000   1.0000   1.0000   1.0000   1.0000   1.0000   1.0000   1.0000
     1.0000   1.0000   1.0000   1.0000   1.0000   1.0000   1.0000   1.0000
     1.0000   1.0000   1.0000   1.0000   1.0000   1.0000   1.0000   1.0000
     1.0000   1.0000   1.0000   1.0000   1.0000   1.0000   1.0000   1.0000
     1.0000   1.0000   1.0000   1.0000   1.0000   1.0000   1.0000   1.0000
     1.0000   1.0000   1.0000   1.0000   1.0000   1.0000   1.0000   1.0000
     1.0000   1.0000   1.0000   1.0000   1.0000   1.0000   1.0000   1.0000
     1.0000   1.0000   1.0000   1.0000   1.0000   1.0000   1.0000   1.0000
     1.0000   1.0000   1.0000   1.0000   1.0000   1.0000   1.0000   1.0000
     1.0000   1.0000   1.0000   1.0000   1.0000   1.0000   1.0000   1.0000
     1.0000   1.0000   1.0000   1.0000   1.0000   1.0000   1.0000   1.0000
     1.0000   1.0000   1.0000   1.0000   1.0000   1.0000   1.0000   1.0000
     1.0000   1.0000   1.0000   1.0703   0.0000   0.0000   0.0000   0.0000
     0.0000   0.0000   0.0000   0.0000   0.0000   0.0000   0.0000   0.0000
     0.0000   0.0000   0.0000   0.0000   0.0000   0.0000   0.0000   0.0000

 ------ SPIN DOWN ----------

          k = 0.0000 0.0000 0.0000 ( 87777 PWs)   bands (ev):

   -88.0306 -55.0457 -55.0456 -53.0439 -19.8392 -19.0030 -19.0027 -18.9155
   -18.8918 -18.8917 -18.5201 -17.1443 -17.1338 -17.1337 -17.0456 -17.0455
   -16.7619 -16.2797 -16.2797 -16.1833 -16.1281 -16.1280 -15.4581 -14.1610
   -14.1608 -14.0827 -14.0826 -14.0786 -13.4228 -13.1338 -13.1338 -13.1012
   -12.8340 -12.8340 -12.4178 -11.9012 -11.9012 -11.7234 -11.4802 -11.4801
   -10.6014  -9.7444  -9.7442  -9.4979  -9.3835  -9.3835  -9.3144  -9.2751
    -9.2751  -9.2673  -8.8099  -8.8098  -8.2450  -8.2449  -8.1758  -7.9302
    -7.9139  -7.5266  -7.5265  -7.3025  -7.0613  -7.0607  -7.0308  -7.0306
    -6.8539  -6.8537  -6.8347  -6.7947  -6.6461  -6.6461  -6.6193  -6.6045
    -6.6045  -6.5517  -6.4417  -6.3110  -5.6876  -5.6873  -5.4491  -5.4485
    -5.4350  -5.4349  -5.2147  -5.0741  -4.9624  -4.7648  -4.7166  -4.7164
    -4.4589  -4.4585  -4.4214  -4.2047  -4.2047  -3.8408  -3.8404  -3.7829
    -3.7616  -3.7616  -3.1599  -2.6691  -2.6690  -1.8709  -1.8708  -1.8084
    -0.8889  -0.8872  -0.8084  -0.8078   0.9232   0.9233   0.9844   1.5529
     1.5531   1.6355   2.5097   2.5115   2.5358   2.8112   2.8114   2.8499
     3.4552   3.4562   3.5112   3.6735   3.6867   3.7365   3.7396   3.7579

     occupation numbers
     1.0000   1.0000   1.0000   1.0000   1.0000   1.0000   1.0000   1.0000
     1.0000   1.0000   1.0000   1.0000   1.0000   1.0000   1.0000   1.0000
     1.0000   1.0000   1.0000   1.0000   1.0000   1.0000   1.0000   1.0000
     1.0000   1.0000   1.0000   1.0000   1.0000   1.0000   1.0000   1.0000
     1.0000   1.0000   1.0000   1.0000   1.0000   1.0000   1.0000   1.0000
     1.0000   1.0000   1.0000   1.0000   1.0000   1.0000   1.0000   1.0000
     1.0000   1.0000   1.0000   1.0000   1.0000   1.0000   1.0000   1.0000
     1.0000   1.0000   1.0000   1.0000   1.0000   1.0000   1.0000   1.0000
     1.0000   1.0000   1.0000   1.0000   1.0000   1.0000   1.0000   1.0000
     1.0000   1.0000   1.0000   1.0000   1.0000   1.0000   1.0000   1.0000
     1.0000   1.0000   1.0000   1.0000   1.0000   1.0000   1.0000   1.0000
     1.0000   1.0000   1.0000   1.0000   1.0000   1.0000   1.0000   1.0000
     1.0000   1.0000   1.0000   1.0000   1.0000   1.0000   1.0000   1.0000
     0.9934   0.9364   0.0000   0.0000   0.0000   0.0000   0.0000   0.0000
     0.0000   0.0000   0.0000   0.0000   0.0000   0.0000   0.0000   0.0000
     0.0000   0.0000   0.0000   0.0000   0.0000   0.0000   0.0000   0.0000

     the Fermi energy is    -0.8766 ev

!    total energy              =    -860.05368850 Ry
     Harris-Foulkes estimate   =    -860.05368776 Ry
     estimated scf accuracy    <       0.00000091 Ry

     The total energy is the sum of the following terms:

     one-electron contribution =   -2778.47229628 Ry
     hartree contribution      =    1433.03188695 Ry
     xc contribution           =    -259.30221636 Ry
     ewald contribution        =     744.68868354 Ry
     smearing contrib. (-TS)   =       0.00025366 Ry

     total magnetization       =     2.14 Bohr mag/cell
     absolute magnetization    =     3.16 Bohr mag/cell

     convergence has been achieved in 113 iterations

     Writing output data file distance-4.5.save/

     General routines

     Parallel routines

   This run was terminated on:  16:47:20   6Nov2022

   JOB DONE.