     Program PWSCF v.6.4.1 starts on  7Nov2022 at  8:13:27

     R & G space division:  proc/nbgrp/npool/nimage =       6
     Reading input from distance-2.6.in

     Current dimensions of program PWSCF are:
     Max number of different atomic species (ntypx) = 10
     Max number of k-points (npk) =  40000
     Max angular momentum in pseudopotentials (lmaxx) =  3

     IMPORTANT: XC functional enforced from input :
     Exchange-correlation      = RVV10 ( 1  4 13  4 3 0)
     Any further DFT definition will be discarded
     Please, verify this is what you really want

               file H.pbe-rrkjus.UPF: wavefunction(s)  1S renormalized

     Subspace diagonalization in iterative solution of the eigenvalue problem:
     a serial algorithm will be used

     bravais-lattice index     =            4
     lattice parameter (alat)  =      23.2937  a.u.
     unit-cell volume          =    8879.8548 (a.u.)^3
     number of atoms/cell      =           52
     number of atomic types    =            3
     number of electrons       =       214.00
     number of Kohn-Sham states=          128
     kinetic-energy cutoff     =      70.0000  Ry
     charge density cutoff     =     490.0000  Ry
     convergence threshold     =      1.0E-06
     mixing beta               =       0.3000
     number of iterations used =            4  plain     mixing
     Exchange-correlation      = RVV10 ( 1  4 13  4 3 0)

     celldm(1)=  23.293684  celldm(2)=   0.000000  celldm(3)=   0.811261
     celldm(4)=   0.000000  celldm(5)=   0.000000  celldm(6)=   0.000000

     crystal axes: (cart. coord. in units of alat)
               a(1) = (   1.000000   0.000000   0.000000 )
               a(2) = (  -0.500000   0.866025   0.000000 )
               a(3) = (   0.000000   0.000000   0.811261 )

     reciprocal axes: (cart. coord. in units 2 pi/alat)
               b(1) = (  1.000000  0.577350 -0.000000 )
               b(2) = (  0.000000  1.154701  0.000000 )
               b(3) = (  0.000000 -0.000000  1.232649 )

     PseudoPot. # 1 for H  read from file:
     /home/cristian/Escritorio/Proyecto_Grafeno/pseudopotenciales/H.pbe-rrkjus.UPF
     MD5 check sum: 7cc9d459525c9a0585f487a71c3c9563
     Pseudo is Ultrasoft, Zval =  1.0
     Generated by new atomic code, or converted to UPF format
     Using radial grid of 1061 points,  2 beta functions with:
                l(1) =   0
                l(2) =   0
     Q(r) pseudized with 0 coefficients

     PseudoPot. # 2 for C  read from file:
     /home/cristian/Escritorio/Proyecto_Grafeno/pseudopotenciales/C.pbe-n-rrkjus_psl.1.0.0.UPF
     MD5 check sum: 1fdd950c42eb37d8afe3dd2f8d12311e
     Pseudo is Ultrasoft + core correction, Zval =  4.0
     Generated using "atomic" code by A. Dal Corso v.6.3MaX
     Using radial grid of 1073 points,  4 beta functions with:
                l(1) =   0
                l(2) =   0
                l(3) =   1
                l(4) =   1
     Q(r) pseudized with 0 coefficients

     PseudoPot. # 3 for Fe read from file:
     /home/cristian/Escritorio/Proyecto_Grafeno/pseudopotenciales/Fe.pbe-spn-rrkjus_psl.1.0.0.UPF
     MD5 check sum: 72ea77fed8e64ab3a2ccf2804dfc1862
     Pseudo is Ultrasoft + core correction, Zval = 16.0
     Generated using "atomic" code by A. Dal Corso v.6.3
     Using radial grid of 1191 points,  6 beta functions with:
                l(1) =   0
                l(2) =   0
                l(3) =   1
                l(4) =   1
                l(5) =   2
                l(6) =   2
     Q(r) pseudized with 0 coefficients

     vdW kernel table read from file rVV10_kernel_table
     MD5 check sum: b8e2538accc0c0b3206b45ba4daaba6c

     atomic species   valence    mass     pseudopotential
        H              1.00     1.00794     H ( 1.00)
        C              4.00    12.01070     C ( 1.00)
        Fe            16.00    55.84500     Fe( 1.00)

     Starting magnetic structure
     atomic species   magnetization
        H            0.500
        C            0.300
        Fe           0.800

     No symmetry found

                                    s                        frac. trans.

      isym =  1     identity

 cryst.   s( 1) = (     1          0          0      )
                  (     0          1          0      )
                  (     0          0          1      )

 cart.    s( 1) = (  1.0000000  0.0000000  0.0000000 )
                  (  0.0000000  1.0000000  0.0000000 )
                  (  0.0000000  0.0000000  1.0000000 )

     point group C_1 (1)
     there are  1 classes
     the character table:

       E
A      1.00

     the symmetry operations in each class and the name of the first element:

     E        1
          identity

   Cartesian axes

     site n.     atom                  positions (alat units)
         1           H   tau(   1) = (   0.2500000   0.4907477   0.2109279  )
         2           H   tau(   2) = (   0.2500000   0.4907477   0.2719406  )
         3           C   tau(   3) = (   0.0000000   0.0000000   0.0000000  )
         4           C   tau(   4) = (   0.0000000   0.1154701   0.0000000  )
         5           C   tau(   5) = (  -0.1000000   0.1732051   0.0000000  )
         6           C   tau(   6) = (  -0.1000000   0.2886751   0.0000000  )
         7           C   tau(   7) = (  -0.2000000   0.3464102   0.0000000  )
         8           C   tau(   8) = (  -0.2000000   0.4618802   0.0000000  )
         9           C   tau(   9) = (  -0.3000000   0.5196152   0.0000000  )
        10           C   tau(  10) = (  -0.3000000   0.6350853   0.0000000  )
        11           C   tau(  11) = (  -0.4000000   0.6928203   0.0000000  )
        12           C   tau(  12) = (  -0.4000000   0.8082904   0.0000000  )
        13           C   tau(  13) = (   0.2000000   0.0000000   0.0000000  )
        14           C   tau(  14) = (   0.2000000   0.1154701   0.0000000  )
        15           C   tau(  15) = (   0.1000000   0.1732051   0.0000000  )
        16           C   tau(  16) = (   0.1000000   0.2886751   0.0000000  )
        17           C   tau(  17) = (   0.0000000   0.3464102   0.0000000  )
        18           C   tau(  18) = (   0.0000000   0.4618802   0.0000000  )
        19           C   tau(  19) = (  -0.1000000   0.5196152   0.0000000  )
        20           C   tau(  20) = (  -0.1000000   0.6350853   0.0000000  )
        21           C   tau(  21) = (  -0.2000000   0.6928203   0.0000000  )
        22           C   tau(  22) = (  -0.2000000   0.8082904   0.0000000  )
        23           C   tau(  23) = (   0.4000000   0.0000000   0.0000000  )
        24           C   tau(  24) = (   0.4000000   0.1154701   0.0000000  )
        25           C   tau(  25) = (   0.3000000   0.1732051   0.0000000  )
        26           C   tau(  26) = (   0.3000000   0.2886751   0.0000000  )
        27           C   tau(  27) = (   0.2000000   0.3464102   0.0000000  )
        28           Fe  tau(  28) = (   0.2000000   0.4618802   0.0000000  )
        29           C   tau(  29) = (   0.1000000   0.5196152   0.0000000  )
        30           C   tau(  30) = (   0.1000000   0.6350853   0.0000000  )
        31           C   tau(  31) = (   0.0000000   0.6928203   0.0000000  )
        32           C   tau(  32) = (   0.0000000   0.8082904   0.0000000  )
        33           C   tau(  33) = (   0.6000000   0.0000000   0.0000000  )
        34           C   tau(  34) = (   0.6000000   0.1154701   0.0000000  )
        35           C   tau(  35) = (   0.5000000   0.1732051   0.0000000  )
        36           C   tau(  36) = (   0.5000000   0.2886751   0.0000000  )
        37           C   tau(  37) = (   0.4000000   0.3464102   0.0000000  )
        38           C   tau(  38) = (   0.4000000   0.4618802   0.0000000  )
        39           C   tau(  39) = (   0.3000000   0.5196152   0.0000000  )
        40           C   tau(  40) = (   0.3000000   0.6350853   0.0000000  )
        41           C   tau(  41) = (   0.2000000   0.6928203   0.0000000  )
        42           C   tau(  42) = (   0.2000000   0.8082904   0.0000000  )
        43           C   tau(  43) = (   0.8000000   0.0000000   0.0000000  )
        44           C   tau(  44) = (   0.8000000   0.1154701   0.0000000  )
        45           C   tau(  45) = (   0.7000000   0.1732051   0.0000000  )
        46           C   tau(  46) = (   0.7000000   0.2886751   0.0000000  )
        47           C   tau(  47) = (   0.6000000   0.3464102   0.0000000  )
        48           C   tau(  48) = (   0.6000000   0.4618802   0.0000000  )
        49           C   tau(  49) = (   0.5000000   0.5196152   0.0000000  )
        50           C   tau(  50) = (   0.5000000   0.6350853   0.0000000  )
        51           C   tau(  51) = (   0.4000000   0.6928203   0.0000000  )
        52           C   tau(  52) = (   0.4000000   0.8082904   0.0000000  )

   Crystallographic axes

     site n.     atom                  positions (cryst. coord.)
         1           H   tau(   1) = (  0.5333333  0.5666667  0.2600000  )
         2           H   tau(   2) = (  0.5333333  0.5666667  0.3352072  )
         3           C   tau(   3) = (  0.0000000  0.0000000  0.0000000  )
         4           C   tau(   4) = (  0.0666667  0.1333333  0.0000000  )
         5           C   tau(   5) = (  0.0000000  0.2000000  0.0000000  )
         6           C   tau(   6) = (  0.0666667  0.3333333  0.0000000  )
         7           C   tau(   7) = (  0.0000000  0.4000000  0.0000000  )
         8           C   tau(   8) = (  0.0666667  0.5333333  0.0000000  )
         9           C   tau(   9) = (  0.0000000  0.6000000  0.0000000  )
        10           C   tau(  10) = (  0.0666667  0.7333333  0.0000000  )
        11           C   tau(  11) = (  0.0000000  0.8000000  0.0000000  )
        12           C   tau(  12) = (  0.0666667  0.9333333  0.0000000  )
        13           C   tau(  13) = (  0.2000000  0.0000000  0.0000000  )
        14           C   tau(  14) = (  0.2666667  0.1333333  0.0000000  )
        15           C   tau(  15) = (  0.2000000  0.2000000  0.0000000  )
        16           C   tau(  16) = (  0.2666667  0.3333333  0.0000000  )
        17           C   tau(  17) = (  0.2000000  0.4000000  0.0000000  )
        18           C   tau(  18) = (  0.2666667  0.5333333  0.0000000  )
        19           C   tau(  19) = (  0.2000000  0.6000000  0.0000000  )
        20           C   tau(  20) = (  0.2666667  0.7333333  0.0000000  )
        21           C   tau(  21) = (  0.2000000  0.8000000  0.0000000  )
        22           C   tau(  22) = (  0.2666667  0.9333333  0.0000000  )
        23           C   tau(  23) = (  0.4000000  0.0000000  0.0000000  )
        24           C   tau(  24) = (  0.4666667  0.1333333  0.0000000  )
        25           C   tau(  25) = (  0.4000000  0.2000000  0.0000000  )
        26           C   tau(  26) = (  0.4666667  0.3333333  0.0000000  )
        27           C   tau(  27) = (  0.4000000  0.4000000  0.0000000  )
        28           Fe  tau(  28) = (  0.4666667  0.5333333  0.0000000  )
        29           C   tau(  29) = (  0.4000000  0.6000000  0.0000000  )
        30           C   tau(  30) = (  0.4666667  0.7333333  0.0000000  )
        31           C   tau(  31) = (  0.4000000  0.8000000  0.0000000  )
        32           C   tau(  32) = (  0.4666667  0.9333333  0.0000000  )
        33           C   tau(  33) = (  0.6000000  0.0000000  0.0000000  )
        34           C   tau(  34) = (  0.6666667  0.1333333  0.0000000  )
        35           C   tau(  35) = (  0.6000000  0.2000000  0.0000000  )
        36           C   tau(  36) = (  0.6666667  0.3333333  0.0000000  )
        37           C   tau(  37) = (  0.6000000  0.4000000  0.0000000  )
        38           C   tau(  38) = (  0.6666667  0.5333333  0.0000000  )
        39           C   tau(  39) = (  0.6000000  0.6000000  0.0000000  )
        40           C   tau(  40) = (  0.6666667  0.7333333  0.0000000  )
        41           C   tau(  41) = (  0.6000000  0.8000000  0.0000000  )
        42           C   tau(  42) = (  0.6666667  0.9333333  0.0000000  )
        43           C   tau(  43) = (  0.8000000  0.0000000  0.0000000  )
        44           C   tau(  44) = (  0.8666667  0.1333333  0.0000000  )
        45           C   tau(  45) = (  0.8000000  0.2000000  0.0000000  )
        46           C   tau(  46) = (  0.8666667  0.3333333  0.0000000  )
        47           C   tau(  47) = (  0.8000000  0.4000000  0.0000000  )
        48           C   tau(  48) = (  0.8666667  0.5333333  0.0000000  )
        49           C   tau(  49) = (  0.8000000  0.6000000  0.0000000  )
        50           C   tau(  50) = (  0.8666667  0.7333333  0.0000000  )
        51           C   tau(  51) = (  0.8000000  0.8000000  0.0000000  )
        52           C   tau(  52) = (  0.8666667  0.9333333  0.0000000  )

     number of k points=     1  Marzari-Vanderbilt smearing, width (Ry)=  0.0010
                       cart. coord. in units 2pi/alat
        k(    1) = (   0.0000000   0.0000000   0.0000000), wk =   1.0000000

                       cryst. coord.
        k(    1) = (   0.0000000   0.0000000   0.0000000), wk =   1.0000000

     Check: negative core charge=   -0.000002

     Initial potential from superposition of free atoms

     starting charge  213.80512, renormalised to  214.00000

     negative rho (up, down):  5.991E-05 1.121E-02

Carrying out rVV10 run using the following parameters:
Nqs =      20    Nr_points =    1024   r_max =   100.000
b_value =  6.30000    beta =  0.00901
     q_mesh =  0.00010000  0.00030000  0.00058939  0.00100810
               0.00161396  0.00249058  0.00375900  0.00559430
               0.00824984  0.01209221  0.01765183  0.02569619
               0.03733578  0.05417739  0.07854596  0.11380545
               0.16482331  0.23864234  0.34545298  0.50000000

Gradients computed in Reciprocal space

     Starting wfcs are  208 randomized atomic wfcs

     Self-consistent Calculation

     iteration #  1     ecut=    70.00 Ry     beta= 0.30
     Davidson diagonalization with overlap
     ethr =  1.00E-02,  avg # of iterations =  2.5

[...]

     total energy              =    -858.02189655 Ry
     Harris-Foulkes estimate   =    -858.63728030 Ry
     estimated scf accuracy    <      10.27519218 Ry

     total magnetization       =     6.00 Bohr mag/cell
     absolute magnetization    =     6.64 Bohr mag/cell

[...]

     total energy              =    -860.05484029 Ry
     Harris-Foulkes estimate   =    -860.05483996 Ry
     estimated scf accuracy    <       0.00000105 Ry

[...]

     iteration # 99     ecut=    70.00 Ry     beta= 0.30
     Davidson diagonalization with overlap
     ethr =  4.91E-10,  avg # of iterations =  2.0

     negative rho (up, down):  6.045E-04 1.219E-02

     Magnetic moment per site:
     atom:    1    charge:    0.2097    magn:    0.0000    constr:    0.0000
     atom:    2    charge:    0.2133    magn:    0.0011    constr:    0.0000
     atom:    3    charge:    1.7171    magn:   -0.0125    constr:    0.0000
     atom:    4    charge:    1.7154    magn:    0.0164    constr:    0.0000
     atom:    5    charge:    1.7176    magn:   -0.0090    constr:    0.0000
     atom:    6    charge:    1.7142    magn:    0.0058    constr:    0.0000
     atom:    7    charge:    1.7176    magn:   -0.0090    constr:    0.0000
     atom:    8    charge:    1.7154    magn:    0.0164    constr:    0.0000
     atom:    9    charge:    1.7171    magn:   -0.0125    constr:    0.0000
     atom:   10    charge:    1.7149    magn:    0.0556    constr:    0.0000
     atom:   11    charge:    1.7173    magn:   -0.0153    constr:    0.0000
     atom:   12    charge:    1.7149    magn:    0.0556    constr:    0.0000
     atom:   13    charge:    1.7172    magn:   -0.0155    constr:    0.0000
     atom:   14    charge:    1.7156    magn:    0.0437    constr:    0.0000
     atom:   15    charge:    1.7138    magn:   -0.0118    constr:    0.0000
     atom:   16    charge:    1.7109    magn:    0.0551    constr:    0.0000
     atom:   17    charge:    1.7229    magn:   -0.0150    constr:    0.0000
     atom:   18    charge:    1.7109    magn:    0.0551    constr:    0.0000
     atom:   19    charge:    1.7138    magn:   -0.0118    constr:    0.0000
     atom:   20    charge:    1.7156    magn:    0.0437    constr:    0.0000
     atom:   21    charge:    1.7172    magn:   -0.0155    constr:    0.0000
     atom:   22    charge:    1.7162    magn:    0.0463    constr:    0.0000
     atom:   23    charge:    1.7166    magn:   -0.0115    constr:    0.0000
     atom:   24    charge:    1.7156    magn:    0.0149    constr:    0.0000
     atom:   25    charge:    1.7137    magn:   -0.0120    constr:    0.0000
     atom:   26    charge:    1.7118    magn:    0.0473    constr:    0.0000
     atom:   27    charge:    1.8524    magn:   -0.0199    constr:    0.0000
     atom:   28    charge:   11.1480    magn:    0.4907    constr:    0.0000
     atom:   29    charge:    1.8525    magn:   -0.0199    constr:    0.0000
     atom:   30    charge:    1.7118    magn:    0.0473    constr:    0.0000
     atom:   31    charge:    1.7137    magn:   -0.0121    constr:    0.0000
     atom:   32    charge:    1.7156    magn:    0.0149    constr:    0.0000
     atom:   33    charge:    1.7175    magn:   -0.0088    constr:    0.0000
     atom:   34    charge:    1.7142    magn:    0.0112    constr:    0.0000
     atom:   35    charge:    1.7175    magn:   -0.0088    constr:    0.0000
     atom:   36    charge:    1.7142    magn:    0.0054    constr:    0.0000
     atom:   37    charge:    1.7222    magn:   -0.0123    constr:    0.0000
     atom:   38    charge:    1.7122    magn:    0.0437    constr:    0.0000
     atom:   39    charge:    1.8519    magn:   -0.0182    constr:    0.0000
     atom:   40    charge:    1.7122    magn:    0.0437    constr:    0.0000
     atom:   41    charge:    1.7222    magn:   -0.0124    constr:    0.0000
     atom:   42    charge:    1.7142    magn:    0.0054    constr:    0.0000
     atom:   43    charge:    1.7176    magn:   -0.0086    constr:    0.0000
     atom:   44    charge:    1.7140    magn:    0.0124    constr:    0.0000
     atom:   45    charge:    1.7232    magn:   -0.0098    constr:    0.0000
     atom:   46    charge:    1.7140    magn:    0.0124    constr:    0.0000
     atom:   47    charge:    1.7176    magn:   -0.0086    constr:    0.0000
     atom:   48    charge:    1.7151    magn:    0.0176    constr:    0.0000
     atom:   49    charge:    1.7133    magn:   -0.0104    constr:    0.0000
     atom:   50    charge:    1.7166    magn:    0.0342    constr:    0.0000
     atom:   51    charge:    1.7133    magn:   -0.0104    constr:    0.0000
     atom:   52    charge:    1.7151    magn:    0.0176    constr:    0.0000

     End of self-consistent calculation

 ------ SPIN UP ------------

          k = 0.0000 0.0000 0.0000 ( 87777 PWs)   bands (ev):

   -88.9069 -55.8011 -55.7265 -54.1509 -19.8581 -19.0344 -19.0124 -18.9310
   -18.9107 -18.9043 -18.5791 -17.1635 -17.1494 -17.1488 -17.0859 -17.0790
   -16.7741 -16.3097 -16.3069 -16.2018 -16.1611 -16.1600 -15.4828 -14.2273
   -14.2066 -14.1277 -14.0740 -14.0707 -13.4188 -13.1462 -13.1398 -13.1147
   -12.8430 -12.8427 -12.4277 -11.9294 -11.9287 -11.7327 -11.4928 -11.4909
   -10.6229  -9.8063  -9.8010  -9.5184  -9.3961  -9.3940  -9.3078  -9.2775
    -9.2768  -9.2645  -8.8102  -8.8101  -8.2856  -8.2822  -8.1797  -8.0116
    -7.9146  -7.5238  -7.5195  -7.3423  -7.2437  -7.2408  -7.0762  -7.0762
    -6.9186  -6.8999  -6.8916  -6.7971  -6.7006  -6.6451  -6.6370  -6.6137
    -6.6044  -6.5981  -6.5558  -6.1883  -5.7540  -5.7409  -5.7322  -5.6993
    -5.4715  -5.4682  -5.3699  -5.0667  -4.9600  -4.8197  -4.7913  -4.7839
    -4.5595  -4.5500  -4.4697  -4.3270  -4.3134  -3.9478  -3.9476  -3.8583
    -3.7622  -3.7608  -3.2033  -2.9213  -2.9067  -1.9484  -1.8801  -1.8770
    -1.4106  -1.3265  -1.2309  -0.9087   0.8464   0.8932   0.8952   1.3986
     1.4127   1.5251   2.2762   2.2817   2.5335   2.6940   2.6965   2.7903
     3.2916   3.3008   3.4422   3.6797   3.6828   3.7403   3.7423   3.7605

     occupation numbers
     1.0000   1.0000   1.0000   1.0000   1.0000   1.0000   1.0000   1.0000
     1.0000   1.0000   1.0000   1.0000   1.0000   1.0000   1.0000   1.0000
     1.0000   1.0000   1.0000   1.0000   1.0000   1.0000   1.0000   1.0000
     1.0000   1.0000   1.0000   1.0000   1.0000   1.0000   1.0000   1.0000
     1.0000   1.0000   1.0000   1.0000   1.0000   1.0000   1.0000   1.0000
     1.0000   1.0000   1.0000   1.0000   1.0000   1.0000   1.0000   1.0000
     1.0000   1.0000   1.0000   1.0000   1.0000   1.0000   1.0000   1.0000
     1.0000   1.0000   1.0000   1.0000   1.0000   1.0000   1.0000   1.0000
     1.0000   1.0000   1.0000   1.0000   1.0000   1.0000   1.0000   1.0000
     1.0000   1.0000   1.0000   1.0000   1.0000   1.0000   1.0000   1.0000
     1.0000   1.0000   1.0000   1.0000   1.0000   1.0000   1.0000   1.0000
     1.0000   1.0000   1.0000   1.0000   1.0000   1.0000   1.0000   1.0000
     1.0000   1.0000   1.0000   1.0000   1.0000   1.0000   1.0000   1.0000
     1.0000   1.0000   1.0000   0.9663   0.0000   0.0000   0.0000   0.0000
     0.0000   0.0000   0.0000   0.0000   0.0000   0.0000   0.0000   0.0000
     0.0000   0.0000   0.0000   0.0000   0.0000   0.0000   0.0000   0.0000

 ------ SPIN DOWN ----------

          k = 0.0000 0.0000 0.0000 ( 87777 PWs)   bands (ev):

   -88.1249 -55.1410 -55.1196 -53.1700 -19.8219 -18.9900 -18.9721 -18.8974
   -18.8898 -18.8832 -18.5281 -17.1302 -17.1240 -17.1198 -17.0384 -17.0334
   -16.7483 -16.2687 -16.2684 -16.1746 -16.1231 -16.1220 -15.4605 -14.1595
   -14.1482 -14.0750 -14.0653 -14.0609 -13.4297 -13.1220 -13.1182 -13.0875
   -12.8262 -12.8252 -12.3996 -11.8963 -11.8940 -11.7135 -11.4722 -11.4720
   -10.5999  -9.7542  -9.7516  -9.4899  -9.3675  -9.3673  -9.2927  -9.2576
    -9.2568  -9.2497  -8.7983  -8.7983  -8.2480  -8.2442  -8.1578  -7.9278
    -7.8996  -7.5115  -7.5067  -7.3076  -7.0982  -7.0805  -7.0283  -7.0262
    -6.8472  -6.8450  -6.8255  -6.7835  -6.6300  -6.6230  -6.6225  -6.6043
    -6.5932  -6.5871  -6.5402  -6.1388  -5.6917  -5.6873  -5.5029  -5.4855
    -5.4294  -5.4269  -5.2411  -5.0540  -4.9523  -4.7516  -4.7130  -4.7104
    -4.4757  -4.4686  -4.4065  -4.2066  -4.2058  -3.8326  -3.8312  -3.7814
    -3.7488  -3.7472  -3.1629  -2.6993  -2.6924  -1.8566  -1.8536  -1.8118
    -0.9571  -0.9257  -0.8462  -0.8128   0.9333   0.9362   0.9795   1.5466
     1.5469   1.6349   2.4394   2.4494   2.5458   2.8150   2.8164   2.8493
     3.4376   3.4415   3.5257   3.6953   3.6980   3.7453   3.7506   3.7641

     occupation numbers
     1.0000   1.0000   1.0000   1.0000   1.0000   1.0000   1.0000   1.0000
     1.0000   1.0000   1.0000   1.0000   1.0000   1.0000   1.0000   1.0000
     1.0000   1.0000   1.0000   1.0000   1.0000   1.0000   1.0000   1.0000
     1.0000   1.0000   1.0000   1.0000   1.0000   1.0000   1.0000   1.0000
     1.0000   1.0000   1.0000   1.0000   1.0000   1.0000   1.0000   1.0000
     1.0000   1.0000   1.0000   1.0000   1.0000   1.0000   1.0000   1.0000
     1.0000   1.0000   1.0000   1.0000   1.0000   1.0000   1.0000   1.0000
     1.0000   1.0000   1.0000   1.0000   1.0000   1.0000   1.0000   1.0000
     1.0000   1.0000   1.0000   1.0000   1.0000   1.0000   1.0000   1.0000
     1.0000   1.0000   1.0000   1.0000   1.0000   1.0000   1.0000   1.0000
     1.0000   1.0000   1.0000   1.0000   1.0000   1.0000   1.0000   1.0000
     1.0000   1.0000   1.0000   1.0000   1.0000   1.0000   1.0000   1.0000
     1.0000   1.0000   1.0000   1.0000   1.0000   1.0000   1.0000   1.0000
     1.0000   1.0337   0.0000   0.0000   0.0000   0.0000   0.0000   0.0000
     0.0000   0.0000   0.0000   0.0000   0.0000   0.0000   0.0000   0.0000
     0.0000   0.0000   0.0000   0.0000   0.0000   0.0000   0.0000   0.0000

     the Fermi energy is    -0.8972 ev

!    total energy              =    -860.05484142 Ry
     Harris-Foulkes estimate   =    -860.05484036 Ry
     estimated scf accuracy    <       0.00000096 Ry

     The total energy is the sum of the following terms:

     one-electron contribution =   -2798.99964982 Ry
     hartree contribution      =    1443.34150560 Ry
     xc contribution           =    -259.33854491 Ry
     ewald contribution        =     754.94171420 Ry
     smearing contrib. (-TS)   =       0.00013351 Ry

     total magnetization       =     1.93 Bohr mag/cell
     absolute magnetization    =     3.08 Bohr mag/cell

     convergence has been achieved in  99 iterations

     Writing output data file distance-2.6.save/

     General routines

     Parallel routines

   This run was terminated on:  11: 5: 4   7Nov2022

   JOB DONE.