     Program PWSCF v.6.4.1 starts on  7Nov2022 at 11: 5: 5

     R & G space division:  proc/nbgrp/npool/nimage =       6
     Reading input from distance-2.4.in

     Current dimensions of program PWSCF are:
     Max number of different atomic species (ntypx) = 10
     Max number of k-points (npk) =  40000
     Max angular momentum in pseudopotentials (lmaxx) =  3

     IMPORTANT: XC functional enforced from input :
     Exchange-correlation      = RVV10 ( 1  4 13  4 3 0)
     Any further DFT definition will be discarded
     Please, verify this is what you really want

               file H.pbe-rrkjus.UPF: wavefunction(s)  1S renormalized

     Subspace diagonalization in iterative solution of the eigenvalue problem:
     a serial algorithm will be used

     bravais-lattice index     =            4
     lattice parameter (alat)  =      23.2937  a.u.
     unit-cell volume          =    8879.8548 (a.u.)^3
     number of atoms/cell      =           52
     number of atomic types    =            3
     number of electrons       =       214.00
     number of Kohn-Sham states=          128
     kinetic-energy cutoff     =      70.0000  Ry
     charge density cutoff     =     490.0000  Ry
     convergence threshold     =      1.0E-06
     mixing beta               =       0.3000
     number of iterations used =            4  plain     mixing
     Exchange-correlation      = RVV10 ( 1  4 13  4 3 0)

     celldm(1)=  23.293684  celldm(2)=   0.000000  celldm(3)=   0.811261
     celldm(4)=   0.000000  celldm(5)=   0.000000  celldm(6)=   0.000000

     crystal axes: (cart. coord. in units of alat)
               a(1) = (   1.000000   0.000000   0.000000 )
               a(2) = (  -0.500000   0.866025   0.000000 )
               a(3) = (   0.000000   0.000000   0.811261 )

     reciprocal axes: (cart. coord. in units 2 pi/alat)
               b(1) = (  1.000000  0.577350 -0.000000 )
               b(2) = (  0.000000  1.154701  0.000000 )
               b(3) = (  0.000000 -0.000000  1.232649 )

     PseudoPot. # 1 for H  read from file:
     /home/cristian/Escritorio/Proyecto_Grafeno/pseudopotenciales/H.pbe-rrkjus.UPF
     MD5 check sum: 7cc9d459525c9a0585f487a71c3c9563
     Pseudo is Ultrasoft, Zval =  1.0
     Generated by new atomic code, or converted to UPF format
     Using radial grid of 1061 points,  2 beta functions with:
                l(1) =   0
                l(2) =   0
     Q(r) pseudized with 0 coefficients

     PseudoPot. # 2 for C  read from file:
     /home/cristian/Escritorio/Proyecto_Grafeno/pseudopotenciales/C.pbe-n-rrkjus_psl.1.0.0.UPF
     MD5 check sum: 1fdd950c42eb37d8afe3dd2f8d12311e
     Pseudo is Ultrasoft + core correction, Zval =  4.0
     Generated using "atomic" code by A. Dal Corso v.6.3MaX
     Using radial grid of 1073 points,  4 beta functions with:
                l(1) =   0
                l(2) =   0
                l(3) =   1
                l(4) =   1
     Q(r) pseudized with 0 coefficients

     PseudoPot. # 3 for Fe read from file:
     /home/cristian/Escritorio/Proyecto_Grafeno/pseudopotenciales/Fe.pbe-spn-rrkjus_psl.1.0.0.UPF
     MD5 check sum: 72ea77fed8e64ab3a2ccf2804dfc1862
     Pseudo is Ultrasoft + core correction, Zval = 16.0
     Generated using "atomic" code by A. Dal Corso v.6.3
     Using radial grid of 1191 points,  6 beta functions with:
                l(1) =   0
                l(2) =   0
                l(3) =   1
                l(4) =   1
                l(5) =   2
                l(6) =   2
     Q(r) pseudized with 0 coefficients

     vdW kernel table read from file rVV10_kernel_table
     MD5 check sum: b8e2538accc0c0b3206b45ba4daaba6c

     atomic species   valence    mass     pseudopotential
        H              1.00     1.00794     H ( 1.00)
        C              4.00    12.01070     C ( 1.00)
        Fe            16.00    55.84500     Fe( 1.00)

     Starting magnetic structure
     atomic species   magnetization
        H            0.500
        C            0.300
        Fe           0.800

     No symmetry found

                                    s                        frac. trans.

      isym =  1     identity

 cryst.   s( 1) = (     1          0          0      )
                  (     0          1          0      )
                  (     0          0          1      )

 cart.    s( 1) = (  1.0000000  0.0000000  0.0000000 )
                  (  0.0000000  1.0000000  0.0000000 )
                  (  0.0000000  0.0000000  1.0000000 )

     point group C_1 (1)
     there are  1 classes
     the character table:

       E
A      1.00

     the symmetry operations in each class and the name of the first element:

     E        1
          identity

   Cartesian axes

     site n.     atom                  positions (alat units)
         1           H   tau(   1) = (   0.2500000   0.4907477   0.1947027  )
         2           H   tau(   2) = (   0.2500000   0.4907477   0.2557154  )
         3           C   tau(   3) = (   0.0000000   0.0000000   0.0000000  )
         4           C   tau(   4) = (   0.0000000   0.1154701   0.0000000  )
         5           C   tau(   5) = (  -0.1000000   0.1732051   0.0000000  )
         6           C   tau(   6) = (  -0.1000000   0.2886751   0.0000000  )
         7           C   tau(   7) = (  -0.2000000   0.3464102   0.0000000  )
         8           C   tau(   8) = (  -0.2000000   0.4618802   0.0000000  )
         9           C   tau(   9) = (  -0.3000000   0.5196152   0.0000000  )
        10           C   tau(  10) = (  -0.3000000   0.6350853   0.0000000  )
        11           C   tau(  11) = (  -0.4000000   0.6928203   0.0000000  )
        12           C   tau(  12) = (  -0.4000000   0.8082904   0.0000000  )
        13           C   tau(  13) = (   0.2000000   0.0000000   0.0000000  )
        14           C   tau(  14) = (   0.2000000   0.1154701   0.0000000  )
        15           C   tau(  15) = (   0.1000000   0.1732051   0.0000000  )
        16           C   tau(  16) = (   0.1000000   0.2886751   0.0000000  )
        17           C   tau(  17) = (   0.0000000   0.3464102   0.0000000  )
        18           C   tau(  18) = (   0.0000000   0.4618802   0.0000000  )
        19           C   tau(  19) = (  -0.1000000   0.5196152   0.0000000  )
        20           C   tau(  20) = (  -0.1000000   0.6350853   0.0000000  )
        21           C   tau(  21) = (  -0.2000000   0.6928203   0.0000000  )
        22           C   tau(  22) = (  -0.2000000   0.8082904   0.0000000  )
        23           C   tau(  23) = (   0.4000000   0.0000000   0.0000000  )
        24           C   tau(  24) = (   0.4000000   0.1154701   0.0000000  )
        25           C   tau(  25) = (   0.3000000   0.1732051   0.0000000  )
        26           C   tau(  26) = (   0.3000000   0.2886751   0.0000000  )
        27           C   tau(  27) = (   0.2000000   0.3464102   0.0000000  )
        28           Fe  tau(  28) = (   0.2000000   0.4618802   0.0000000  )
        29           C   tau(  29) = (   0.1000000   0.5196152   0.0000000  )
        30           C   tau(  30) = (   0.1000000   0.6350853   0.0000000  )
        31           C   tau(  31) = (   0.0000000   0.6928203   0.0000000  )
        32           C   tau(  32) = (   0.0000000   0.8082904   0.0000000  )
        33           C   tau(  33) = (   0.6000000   0.0000000   0.0000000  )
        34           C   tau(  34) = (   0.6000000   0.1154701   0.0000000  )
        35           C   tau(  35) = (   0.5000000   0.1732051   0.0000000  )
        36           C   tau(  36) = (   0.5000000   0.2886751   0.0000000  )
        37           C   tau(  37) = (   0.4000000   0.3464102   0.0000000  )
        38           C   tau(  38) = (   0.4000000   0.4618802   0.0000000  )
        39           C   tau(  39) = (   0.3000000   0.5196152   0.0000000  )
        40           C   tau(  40) = (   0.3000000   0.6350853   0.0000000  )
        41           C   tau(  41) = (   0.2000000   0.6928203   0.0000000  )
        42           C   tau(  42) = (   0.2000000   0.8082904   0.0000000  )
        43           C   tau(  43) = (   0.8000000   0.0000000   0.0000000  )
        44           C   tau(  44) = (   0.8000000   0.1154701   0.0000000  )
        45           C   tau(  45) = (   0.7000000   0.1732051   0.0000000  )
        46           C   tau(  46) = (   0.7000000   0.2886751   0.0000000  )
        47           C   tau(  47) = (   0.6000000   0.3464102   0.0000000  )
        48           C   tau(  48) = (   0.6000000   0.4618802   0.0000000  )
        49           C   tau(  49) = (   0.5000000   0.5196152   0.0000000  )
        50           C   tau(  50) = (   0.5000000   0.6350853   0.0000000  )
        51           C   tau(  51) = (   0.4000000   0.6928203   0.0000000  )
        52           C   tau(  52) = (   0.4000000   0.8082904   0.0000000  )

   Crystallographic axes

     site n.     atom                  positions (cryst. coord.)
         1           H   tau(   1) = (  0.5333333  0.5666667  0.2400000  )
         2           H   tau(   2) = (  0.5333333  0.5666667  0.3152072  )
         3           C   tau(   3) = (  0.0000000  0.0000000  0.0000000  )
         4           C   tau(   4) = (  0.0666667  0.1333333  0.0000000  )
         5           C   tau(   5) = (  0.0000000  0.2000000  0.0000000  )
         6           C   tau(   6) = (  0.0666667  0.3333333  0.0000000  )
         7           C   tau(   7) = (  0.0000000  0.4000000  0.0000000  )
         8           C   tau(   8) = (  0.0666667  0.5333333  0.0000000  )
         9           C   tau(   9) = (  0.0000000  0.6000000  0.0000000  )
        10           C   tau(  10) = (  0.0666667  0.7333333  0.0000000  )
        11           C   tau(  11) = (  0.0000000  0.8000000  0.0000000  )
        12           C   tau(  12) = (  0.0666667  0.9333333  0.0000000  )
        13           C   tau(  13) = (  0.2000000  0.0000000  0.0000000  )
        14           C   tau(  14) = (  0.2666667  0.1333333  0.0000000  )
        15           C   tau(  15) = (  0.2000000  0.2000000  0.0000000  )
        16           C   tau(  16) = (  0.2666667  0.3333333  0.0000000  )
        17           C   tau(  17) = (  0.2000000  0.4000000  0.0000000  )
        18           C   tau(  18) = (  0.2666667  0.5333333  0.0000000  )
        19           C   tau(  19) = (  0.2000000  0.6000000  0.0000000  )
        20           C   tau(  20) = (  0.2666667  0.7333333  0.0000000  )
        21           C   tau(  21) = (  0.2000000  0.8000000  0.0000000  )
        22           C   tau(  22) = (  0.2666667  0.9333333  0.0000000  )
        23           C   tau(  23) = (  0.4000000  0.0000000  0.0000000  )
        24           C   tau(  24) = (  0.4666667  0.1333333  0.0000000  )
        25           C   tau(  25) = (  0.4000000  0.2000000  0.0000000  )
        26           C   tau(  26) = (  0.4666667  0.3333333  0.0000000  )
        27           C   tau(  27) = (  0.4000000  0.4000000  0.0000000  )
        28           Fe  tau(  28) = (  0.4666667  0.5333333  0.0000000  )
        29           C   tau(  29) = (  0.4000000  0.6000000  0.0000000  )
        30           C   tau(  30) = (  0.4666667  0.7333333  0.0000000  )
        31           C   tau(  31) = (  0.4000000  0.8000000  0.0000000  )
        32           C   tau(  32) = (  0.4666667  0.9333333  0.0000000  )
        33           C   tau(  33) = (  0.6000000  0.0000000  0.0000000  )
        34           C   tau(  34) = (  0.6666667  0.1333333  0.0000000  )
        35           C   tau(  35) = (  0.6000000  0.2000000  0.0000000  )
        36           C   tau(  36) = (  0.6666667  0.3333333  0.0000000  )
        37           C   tau(  37) = (  0.6000000  0.4000000  0.0000000  )
        38           C   tau(  38) = (  0.6666667  0.5333333  0.0000000  )
        39           C   tau(  39) = (  0.6000000  0.6000000  0.0000000  )
        40           C   tau(  40) = (  0.6666667  0.7333333  0.0000000  )
        41           C   tau(  41) = (  0.6000000  0.8000000  0.0000000  )
        42           C   tau(  42) = (  0.6666667  0.9333333  0.0000000  )
        43           C   tau(  43) = (  0.8000000  0.0000000  0.0000000  )
        44           C   tau(  44) = (  0.8666667  0.1333333  0.0000000  )
        45           C   tau(  45) = (  0.8000000  0.2000000  0.0000000  )
        46           C   tau(  46) = (  0.8666667  0.3333333  0.0000000  )
        47           C   tau(  47) = (  0.8000000  0.4000000  0.0000000  )
        48           C   tau(  48) = (  0.8666667  0.5333333  0.0000000  )
        49           C   tau(  49) = (  0.8000000  0.6000000  0.0000000  )
        50           C   tau(  50) = (  0.8666667  0.7333333  0.0000000  )
        51           C   tau(  51) = (  0.8000000  0.8000000  0.0000000  )
        52           C   tau(  52) = (  0.8666667  0.9333333  0.0000000  )

     number of k points=     1  Marzari-Vanderbilt smearing, width (Ry)=  0.0010
                       cart. coord. in units 2pi/alat
        k(    1) = (   0.0000000   0.0000000   0.0000000), wk =   1.0000000

                       cryst. coord.
        k(    1) = (   0.0000000   0.0000000   0.0000000), wk =   1.0000000

     Check: negative core charge=   -0.000002

     Initial potential from superposition of free atoms

     starting charge  213.80512, renormalised to  214.00000

     negative rho (up, down):  6.235E-05 1.195E-02

Carrying out rVV10 run using the following parameters:
Nqs =      20    Nr_points =    1024   r_max =   100.000
b_value =  6.30000    beta =  0.00901
     q_mesh =  0.00010000  0.00030000  0.00058939  0.00100810
               0.00161396  0.00249058  0.00375900  0.00559430
               0.00824984  0.01209221  0.01765183  0.02569619
               0.03733578  0.05417739  0.07854596  0.11380545
               0.16482331  0.23864234  0.34545298  0.50000000

Gradients computed in Reciprocal space

     Starting wfcs are  208 randomized atomic wfcs

     Self-consistent Calculation

     iteration #  1     ecut=    70.00 Ry     beta= 0.30
     Davidson diagonalization with overlap
     ethr =  1.00E-02,  avg # of iterations =  2.5

[...]

     total energy              =    -857.98829049 Ry
     Harris-Foulkes estimate   =    -858.65071211 Ry
     estimated scf accuracy    <      10.38210147 Ry

     total magnetization       =     6.00 Bohr mag/cell
     absolute magnetization    =     6.63 Bohr mag/cell

[...]

     total energy              =    -860.05174930 Ry
     Harris-Foulkes estimate   =    -860.05174934 Ry
     estimated scf accuracy    <       0.00000116 Ry

[...]

     iteration # 65     ecut=    70.00 Ry     beta= 0.30
     Davidson diagonalization with overlap
     ethr =  5.43E-10,  avg # of iterations =  2.0

     negative rho (up, down):  6.149E-04 1.336E-02

     Magnetic moment per site:
     atom:    1    charge:    0.2103    magn:   -0.0000    constr:    0.0000
     atom:    2    charge:    0.2138    magn:    0.0024    constr:    0.0000
     atom:    3    charge:    1.7170    magn:   -0.0122    constr:    0.0000
     atom:    4    charge:    1.7155    magn:    0.0158    constr:    0.0000
     atom:    5    charge:    1.7175    magn:   -0.0090    constr:    0.0000
     atom:    6    charge:    1.7143    magn:    0.0059    constr:    0.0000
     atom:    7    charge:    1.7175    magn:   -0.0090    constr:    0.0000
     atom:    8    charge:    1.7155    magn:    0.0158    constr:    0.0000
     atom:    9    charge:    1.7170    magn:   -0.0122    constr:    0.0000
     atom:   10    charge:    1.7150    magn:    0.0541    constr:    0.0000
     atom:   11    charge:    1.7171    magn:   -0.0142    constr:    0.0000
     atom:   12    charge:    1.7150    magn:    0.0541    constr:    0.0000
     atom:   13    charge:    1.7171    magn:   -0.0149    constr:    0.0000
     atom:   14    charge:    1.7156    magn:    0.0432    constr:    0.0000
     atom:   15    charge:    1.7137    magn:   -0.0110    constr:    0.0000
     atom:   16    charge:    1.7110    magn:    0.0550    constr:    0.0000
     atom:   17    charge:    1.7230    magn:   -0.0163    constr:    0.0000
     atom:   18    charge:    1.7110    magn:    0.0550    constr:    0.0000
     atom:   19    charge:    1.7137    magn:   -0.0110    constr:    0.0000
     atom:   20    charge:    1.7156    magn:    0.0432    constr:    0.0000
     atom:   21    charge:    1.7171    magn:   -0.0149    constr:    0.0000
     atom:   22    charge:    1.7166    magn:    0.0421    constr:    0.0000
     atom:   23    charge:    1.7164    magn:   -0.0107    constr:    0.0000
     atom:   24    charge:    1.7157    magn:    0.0137    constr:    0.0000
     atom:   25    charge:    1.7137    magn:   -0.0117    constr:    0.0000
     atom:   26    charge:    1.7121    magn:    0.0451    constr:    0.0000
     atom:   27    charge:    1.8527    magn:   -0.0200    constr:    0.0000
     atom:   28    charge:   11.1503    magn:    0.4975    constr:    0.0000
     atom:   29    charge:    1.8527    magn:   -0.0200    constr:    0.0000
     atom:   30    charge:    1.7121    magn:    0.0451    constr:    0.0000
     atom:   31    charge:    1.7137    magn:   -0.0117    constr:    0.0000
     atom:   32    charge:    1.7157    magn:    0.0137    constr:    0.0000
     atom:   33    charge:    1.7174    magn:   -0.0088    constr:    0.0000
     atom:   34    charge:    1.7144    magn:    0.0107    constr:    0.0000
     atom:   35    charge:    1.7174    magn:   -0.0088    constr:    0.0000
     atom:   36    charge:    1.7143    magn:    0.0049    constr:    0.0000
     atom:   37    charge:    1.7218    magn:   -0.0116    constr:    0.0000
     atom:   38    charge:    1.7129    magn:    0.0382    constr:    0.0000
     atom:   39    charge:    1.8518    magn:   -0.0156    constr:    0.0000
     atom:   40    charge:    1.7129    magn:    0.0382    constr:    0.0000
     atom:   41    charge:    1.7218    magn:   -0.0116    constr:    0.0000
     atom:   42    charge:    1.7143    magn:    0.0049    constr:    0.0000
     atom:   43    charge:    1.7175    magn:   -0.0080    constr:    0.0000
     atom:   44    charge:    1.7142    magn:    0.0120    constr:    0.0000
     atom:   45    charge:    1.7230    magn:   -0.0107    constr:    0.0000
     atom:   46    charge:    1.7142    magn:    0.0121    constr:    0.0000
     atom:   47    charge:    1.7175    magn:   -0.0080    constr:    0.0000
     atom:   48    charge:    1.7151    magn:    0.0173    constr:    0.0000
     atom:   49    charge:    1.7130    magn:   -0.0089    constr:    0.0000
     atom:   50    charge:    1.7171    magn:    0.0287    constr:    0.0000
     atom:   51    charge:    1.7130    magn:   -0.0089    constr:    0.0000
     atom:   52    charge:    1.7151    magn:    0.0173    constr:    0.0000

     End of self-consistent calculation

 ------ SPIN UP ------------

          k = 0.0000 0.0000 0.0000 ( 87777 PWs)   bands (ev):

   -88.9593 -55.8604 -55.7552 -54.2256 -19.8480 -19.0281 -18.9970 -18.9191
   -18.9051 -18.8969 -18.5774 -17.1590 -17.1392 -17.1391 -17.0792 -17.0695
   -16.7651 -16.3016 -16.2992 -16.1926 -16.1559 -16.1528 -15.4816 -14.2238
   -14.1970 -14.1209 -14.0646 -14.0603 -13.4164 -13.1401 -13.1301 -13.1056
   -12.8373 -12.8368 -12.4186 -11.9237 -11.9236 -11.7251 -11.4872 -11.4851
   -10.6214  -9.8097  -9.8024  -9.5131  -9.3874  -9.3842  -9.2970  -9.2671
    -9.2662  -9.2541  -8.8045  -8.8030  -8.2850  -8.2812  -8.1727  -8.0071
    -7.9065  -7.5157  -7.5096  -7.3460  -7.2653  -7.2474  -7.0742  -7.0736
    -6.9216  -6.8922  -6.8811  -6.7911  -6.7703  -6.6362  -6.6260  -6.6049
    -6.5975  -6.5874  -6.5478  -6.1981  -5.7701  -5.7406  -5.7387  -5.6969
    -5.4671  -5.4633  -5.3943  -5.0570  -4.9530  -4.8126  -4.7810  -4.7721
    -4.5653  -4.5506  -4.4545  -4.3223  -4.3054  -3.9373  -3.9347  -3.8461
    -3.7539  -3.7528  -3.1955  -2.9279  -2.9053  -1.9392  -1.8710  -1.8664
    -1.4648  -1.3307  -1.2277  -0.9127   0.8545   0.9020   0.9051   1.4017
     1.4186   1.5330   2.2395   2.2537   2.5348   2.7041   2.7086   2.7992
     3.2918   3.3021   3.4461   3.6853   3.6862   3.7449   3.7485   3.7637

     occupation numbers
     1.0000   1.0000   1.0000   1.0000   1.0000   1.0000   1.0000   1.0000
     1.0000   1.0000   1.0000   1.0000   1.0000   1.0000   1.0000   1.0000
     1.0000   1.0000   1.0000   1.0000   1.0000   1.0000   1.0000   1.0000
     1.0000   1.0000   1.0000   1.0000   1.0000   1.0000   1.0000   1.0000
     1.0000   1.0000   1.0000   1.0000   1.0000   1.0000   1.0000   1.0000
     1.0000   1.0000   1.0000   1.0000   1.0000   1.0000   1.0000   1.0000
     1.0000   1.0000   1.0000   1.0000   1.0000   1.0000   1.0000   1.0000
     1.0000   1.0000   1.0000   1.0000   1.0000   1.0000   1.0000   1.0000
     1.0000   1.0000   1.0000   1.0000   1.0000   1.0000   1.0000   1.0000
     1.0000   1.0000   1.0000   1.0000   1.0000   1.0000   1.0000   1.0000
     1.0000   1.0000   1.0000   1.0000   1.0000   1.0000   1.0000   1.0000
     1.0000   1.0000   1.0000   1.0000   1.0000   1.0000   1.0000   1.0000
     1.0000   1.0000   1.0000   1.0000   1.0000   1.0000   1.0000   1.0000
     1.0000   1.0000   1.0000   0.9520   0.0000   0.0000   0.0000   0.0000
     0.0000   0.0000   0.0000   0.0000   0.0000   0.0000   0.0000   0.0000
     0.0000   0.0000   0.0000   0.0000   0.0000   0.0000   0.0000   0.0000

 ------ SPIN DOWN ----------

          k = 0.0000 0.0000 0.0000 ( 87777 PWs)   bands (ev):

   -88.1680 -55.1832 -55.1545 -53.2272 -19.8135 -18.9840 -18.9590 -18.8888
   -18.8845 -18.8774 -18.5287 -17.1251 -17.1161 -17.1122 -17.0336 -17.0266
   -16.7407 -16.2623 -16.2622 -16.1678 -16.1190 -16.1171 -15.4595 -14.1570
   -14.1422 -14.0714 -14.0564 -14.0505 -13.4276 -13.1157 -13.1101 -13.0801
   -12.8211 -12.8196 -12.3912 -11.8920 -11.8897 -11.7070 -11.4671 -11.4668
   -10.5978  -9.7563  -9.7530  -9.4857  -9.3595  -9.3594  -9.2826  -9.2484
    -9.2473  -9.2404  -8.7923  -8.7915  -8.2470  -8.2424  -8.1497  -7.9275
    -7.8922  -7.5039  -7.4975  -7.3083  -7.1322  -7.0875  -7.0260  -7.0227
    -6.8412  -6.8390  -6.8219  -6.7782  -6.7063  -6.6216  -6.6124  -6.5959
    -6.5871  -6.5772  -6.5329  -6.1308  -5.6919  -5.6852  -5.5226  -5.4851
    -5.4258  -5.4224  -5.2514  -5.0447  -4.9459  -4.7446  -4.7087  -4.7046
    -4.4815  -4.4708  -4.3947  -4.2043  -4.2034  -3.8266  -3.8251  -3.7762
    -3.7411  -3.7394  -3.1546  -2.7097  -2.6996  -1.8483  -1.8448  -1.8096
    -0.9710  -0.9279  -0.8616  -0.8143   0.9396   0.9436   0.9808   1.5464
     1.5464   1.6383   2.4098   2.4244   2.5468   2.8199   2.8208   2.8538
     3.4329   3.4380   3.5263   3.7001   3.7010   3.7489   3.7555   3.7667

     occupation numbers
     1.0000   1.0000   1.0000   1.0000   1.0000   1.0000   1.0000   1.0000
     1.0000   1.0000   1.0000   1.0000   1.0000   1.0000   1.0000   1.0000
     1.0000   1.0000   1.0000   1.0000   1.0000   1.0000   1.0000   1.0000
     1.0000   1.0000   1.0000   1.0000   1.0000   1.0000   1.0000   1.0000
     1.0000   1.0000   1.0000   1.0000   1.0000   1.0000   1.0000   1.0000
     1.0000   1.0000   1.0000   1.0000   1.0000   1.0000   1.0000   1.0000
     1.0000   1.0000   1.0000   1.0000   1.0000   1.0000   1.0000   1.0000
     1.0000   1.0000   1.0000   1.0000   1.0000   1.0000   1.0000   1.0000
     1.0000   1.0000   1.0000   1.0000   1.0000   1.0000   1.0000   1.0000
     1.0000   1.0000   1.0000   1.0000   1.0000   1.0000   1.0000   1.0000
     1.0000   1.0000   1.0000   1.0000   1.0000   1.0000   1.0000   1.0000
     1.0000   1.0000   1.0000   1.0000   1.0000   1.0000   1.0000   1.0000
     1.0000   1.0000   1.0000   1.0000   1.0000   1.0000   1.0000   1.0000
     1.0000   1.0480   0.0000   0.0000   0.0000   0.0000   0.0000   0.0000
     0.0000   0.0000   0.0000   0.0000   0.0000   0.0000   0.0000   0.0000
     0.0000   0.0000   0.0000   0.0000   0.0000   0.0000   0.0000   0.0000

     the Fermi energy is    -0.9017 ev

!    total energy              =    -860.05175057 Ry
     Harris-Foulkes estimate   =    -860.05174959 Ry
     estimated scf accuracy    <       0.00000099 Ry

     The total energy is the sum of the following terms:

     one-electron contribution =   -2803.46235779 Ry
     hartree contribution      =    1445.59830354 Ry
     xc contribution           =    -259.35492279 Ry
     ewald contribution        =     757.16707607 Ry
     smearing contrib. (-TS)   =       0.00015039 Ry

     total magnetization       =     1.90 Bohr mag/cell
     absolute magnetization    =     3.02 Bohr mag/cell

     convergence has been achieved in  65 iterations

     Writing output data file distance-2.4.save/

     General routines

     Parallel routines

   This run was terminated on:  12:52:35   7Nov2022

   JOB DONE.