     Program PWSCF v.6.4.1 starts on  6Nov2022 at 19:44: 1

     R & G space division:  proc/nbgrp/npool/nimage =       6
     Reading input from distance-3.5.in

     Current dimensions of program PWSCF are:
     Max number of different atomic species (ntypx) = 10
     Max number of k-points (npk) =  40000
     Max angular momentum in pseudopotentials (lmaxx) =  3

     IMPORTANT: XC functional enforced from input :
     Exchange-correlation      = RVV10 ( 1  4 13  4 3 0)
     Any further DFT definition will be discarded
     Please, verify this is what you really want

               file H.pbe-rrkjus.UPF: wavefunction(s)  1S renormalized

     Subspace diagonalization in iterative solution of the eigenvalue problem:
     a serial algorithm will be used

     bravais-lattice index     =            4
     lattice parameter (alat)  =      23.2937  a.u.
     unit-cell volume          =    8879.8548 (a.u.)^3
     number of atoms/cell      =           52
     number of atomic types    =            3
     number of electrons       =       214.00
     number of Kohn-Sham states=          128
     kinetic-energy cutoff     =      70.0000  Ry
     charge density cutoff     =     490.0000  Ry
     convergence threshold     =      1.0E-06
     mixing beta               =       0.3000
     number of iterations used =            4  plain     mixing
     Exchange-correlation      = RVV10 ( 1  4 13  4 3 0)

     celldm(1)=  23.293684  celldm(2)=   0.000000  celldm(3)=   0.811261
     celldm(4)=   0.000000  celldm(5)=   0.000000  celldm(6)=   0.000000

     crystal axes: (cart. coord. in units of alat)
               a(1) = (   1.000000   0.000000   0.000000 )
               a(2) = (  -0.500000   0.866025   0.000000 )
               a(3) = (   0.000000   0.000000   0.811261 )

     reciprocal axes: (cart. coord. in units 2 pi/alat)
               b(1) = (  1.000000  0.577350 -0.000000 )
               b(2) = (  0.000000  1.154701  0.000000 )
               b(3) = (  0.000000 -0.000000  1.232649 )

     PseudoPot. # 1 for H  read from file:
     /home/cristian/Escritorio/Proyecto_Grafeno/pseudopotenciales/H.pbe-rrkjus.UPF
     MD5 check sum: 7cc9d459525c9a0585f487a71c3c9563
     Pseudo is Ultrasoft, Zval =  1.0
     Generated by new atomic code, or converted to UPF format
     Using radial grid of 1061 points,  2 beta functions with:
                l(1) =   0
                l(2) =   0
     Q(r) pseudized with 0 coefficients

     PseudoPot. # 2 for C  read from file:
     /home/cristian/Escritorio/Proyecto_Grafeno/pseudopotenciales/C.pbe-n-rrkjus_psl.1.0.0.UPF
     MD5 check sum: 1fdd950c42eb37d8afe3dd2f8d12311e
     Pseudo is Ultrasoft + core correction, Zval =  4.0
     Generated using "atomic" code by A. Dal Corso v.6.3MaX
     Using radial grid of 1073 points,  4 beta functions with:
                l(1) =   0
                l(2) =   0
                l(3) =   1
                l(4) =   1
     Q(r) pseudized with 0 coefficients

     PseudoPot. # 3 for Fe read from file:
     /home/cristian/Escritorio/Proyecto_Grafeno/pseudopotenciales/Fe.pbe-spn-rrkjus_psl.1.0.0.UPF
     MD5 check sum: 72ea77fed8e64ab3a2ccf2804dfc1862
     Pseudo is Ultrasoft + core correction, Zval = 16.0
     Generated using "atomic" code by A. Dal Corso v.6.3
     Using radial grid of 1191 points,  6 beta functions with:
                l(1) =   0
                l(2) =   0
                l(3) =   1
                l(4) =   1
                l(5) =   2
                l(6) =   2
     Q(r) pseudized with 0 coefficients

     vdW kernel table read from file rVV10_kernel_table
     MD5 check sum: b8e2538accc0c0b3206b45ba4daaba6c

     atomic species   valence    mass     pseudopotential
        H              1.00     1.00794     H ( 1.00)
        C              4.00    12.01070     C ( 1.00)
        Fe            16.00    55.84500     Fe( 1.00)

     Starting magnetic structure
     atomic species   magnetization
        H            0.500
        C            0.300
        Fe           0.800

     No symmetry found

                                    s                        frac. trans.

      isym =  1     identity

 cryst.   s( 1) = (     1          0          0      )
                  (     0          1          0      )
                  (     0          0          1      )

 cart.    s( 1) = (  1.0000000  0.0000000  0.0000000 )
                  (  0.0000000  1.0000000  0.0000000 )
                  (  0.0000000  0.0000000  1.0000000 )

     point group C_1 (1)
     there are  1 classes
     the character table:

       E
A      1.00

     the symmetry operations in each class and the name of the first element:

     E        1
          identity

   Cartesian axes

     site n.     atom                  positions (alat units)
         1           H   tau(   1) = (   0.2500000   0.4907477   0.2839414  )
         2           H   tau(   2) = (   0.2500000   0.4907477   0.3449541  )
         3           C   tau(   3) = (   0.0000000   0.0000000   0.0000000  )
         4           C   tau(   4) = (   0.0000000   0.1154701   0.0000000  )
         5           C   tau(   5) = (  -0.1000000   0.1732051   0.0000000  )
         6           C   tau(   6) = (  -0.1000000   0.2886751   0.0000000  )
         7           C   tau(   7) = (  -0.2000000   0.3464102   0.0000000  )
         8           C   tau(   8) = (  -0.2000000   0.4618802   0.0000000  )
         9           C   tau(   9) = (  -0.3000000   0.5196152   0.0000000  )
        10           C   tau(  10) = (  -0.3000000   0.6350853   0.0000000  )
        11           C   tau(  11) = (  -0.4000000   0.6928203   0.0000000  )
        12           C   tau(  12) = (  -0.4000000   0.8082904   0.0000000  )
        13           C   tau(  13) = (   0.2000000   0.0000000   0.0000000  )
        14           C   tau(  14) = (   0.2000000   0.1154701   0.0000000  )
        15           C   tau(  15) = (   0.1000000   0.1732051   0.0000000  )
        16           C   tau(  16) = (   0.1000000   0.2886751   0.0000000  )
        17           C   tau(  17) = (   0.0000000   0.3464102   0.0000000  )
        18           C   tau(  18) = (   0.0000000   0.4618802   0.0000000  )
        19           C   tau(  19) = (  -0.1000000   0.5196152   0.0000000  )
        20           C   tau(  20) = (  -0.1000000   0.6350853   0.0000000  )
        21           C   tau(  21) = (  -0.2000000   0.6928203   0.0000000  )
        22           C   tau(  22) = (  -0.2000000   0.8082904   0.0000000  )
        23           C   tau(  23) = (   0.4000000   0.0000000   0.0000000  )
        24           C   tau(  24) = (   0.4000000   0.1154701   0.0000000  )
        25           C   tau(  25) = (   0.3000000   0.1732051   0.0000000  )
        26           C   tau(  26) = (   0.3000000   0.2886751   0.0000000  )
        27           C   tau(  27) = (   0.2000000   0.3464102   0.0000000  )
        28           Fe  tau(  28) = (   0.2000000   0.4618802   0.0000000  )
        29           C   tau(  29) = (   0.1000000   0.5196152   0.0000000  )
        30           C   tau(  30) = (   0.1000000   0.6350853   0.0000000  )
        31           C   tau(  31) = (   0.0000000   0.6928203   0.0000000  )
        32           C   tau(  32) = (   0.0000000   0.8082904   0.0000000  )
        33           C   tau(  33) = (   0.6000000   0.0000000   0.0000000  )
        34           C   tau(  34) = (   0.6000000   0.1154701   0.0000000  )
        35           C   tau(  35) = (   0.5000000   0.1732051   0.0000000  )
        36           C   tau(  36) = (   0.5000000   0.2886751   0.0000000  )
        37           C   tau(  37) = (   0.4000000   0.3464102   0.0000000  )
        38           C   tau(  38) = (   0.4000000   0.4618802   0.0000000  )
        39           C   tau(  39) = (   0.3000000   0.5196152   0.0000000  )
        40           C   tau(  40) = (   0.3000000   0.6350853   0.0000000  )
        41           C   tau(  41) = (   0.2000000   0.6928203   0.0000000  )
        42           C   tau(  42) = (   0.2000000   0.8082904   0.0000000  )
        43           C   tau(  43) = (   0.8000000   0.0000000   0.0000000  )
        44           C   tau(  44) = (   0.8000000   0.1154701   0.0000000  )
        45           C   tau(  45) = (   0.7000000   0.1732051   0.0000000  )
        46           C   tau(  46) = (   0.7000000   0.2886751   0.0000000  )
        47           C   tau(  47) = (   0.6000000   0.3464102   0.0000000  )
        48           C   tau(  48) = (   0.6000000   0.4618802   0.0000000  )
        49           C   tau(  49) = (   0.5000000   0.5196152   0.0000000  )
        50           C   tau(  50) = (   0.5000000   0.6350853   0.0000000  )
        51           C   tau(  51) = (   0.4000000   0.6928203   0.0000000  )
        52           C   tau(  52) = (   0.4000000   0.8082904   0.0000000  )

   Crystallographic axes

     site n.     atom                  positions (cryst. coord.)
         1           H   tau(   1) = (  0.5333333  0.5666667  0.3500000  )
         2           H   tau(   2) = (  0.5333333  0.5666667  0.4252072  )
         3           C   tau(   3) = (  0.0000000  0.0000000  0.0000000  )
         4           C   tau(   4) = (  0.0666667  0.1333333  0.0000000  )
         5           C   tau(   5) = (  0.0000000  0.2000000  0.0000000  )
         6           C   tau(   6) = (  0.0666667  0.3333333  0.0000000  )
         7           C   tau(   7) = (  0.0000000  0.4000000  0.0000000  )
         8           C   tau(   8) = (  0.0666667  0.5333333  0.0000000  )
         9           C   tau(   9) = (  0.0000000  0.6000000  0.0000000  )
        10           C   tau(  10) = (  0.0666667  0.7333333  0.0000000  )
        11           C   tau(  11) = (  0.0000000  0.8000000  0.0000000  )
        12           C   tau(  12) = (  0.0666667  0.9333333  0.0000000  )
        13           C   tau(  13) = (  0.2000000  0.0000000  0.0000000  )
        14           C   tau(  14) = (  0.2666667  0.1333333  0.0000000  )
        15           C   tau(  15) = (  0.2000000  0.2000000  0.0000000  )
        16           C   tau(  16) = (  0.2666667  0.3333333  0.0000000  )
        17           C   tau(  17) = (  0.2000000  0.4000000  0.0000000  )
        18           C   tau(  18) = (  0.2666667  0.5333333  0.0000000  )
        19           C   tau(  19) = (  0.2000000  0.6000000  0.0000000  )
        20           C   tau(  20) = (  0.2666667  0.7333333  0.0000000  )
        21           C   tau(  21) = (  0.2000000  0.8000000  0.0000000  )
        22           C   tau(  22) = (  0.2666667  0.9333333  0.0000000  )
        23           C   tau(  23) = (  0.4000000  0.0000000  0.0000000  )
        24           C   tau(  24) = (  0.4666667  0.1333333  0.0000000  )
        25           C   tau(  25) = (  0.4000000  0.2000000  0.0000000  )
        26           C   tau(  26) = (  0.4666667  0.3333333  0.0000000  )
        27           C   tau(  27) = (  0.4000000  0.4000000  0.0000000  )
        28           Fe  tau(  28) = (  0.4666667  0.5333333  0.0000000  )
        29           C   tau(  29) = (  0.4000000  0.6000000  0.0000000  )
        30           C   tau(  30) = (  0.4666667  0.7333333  0.0000000  )
[...]
        42           C   tau(  42) = (  0.6666667  0.9333333  0.0000000  )
        43           C   tau(  43) = (  0.8000000  0.0000000  0.0000000  )
        44           C   tau(  44) = (  0.8666667  0.1333333  0.0000000  )
        45           C   tau(  45) = (  0.8000000  0.2000000  0.0000000  )
        46           C   tau(  46) = (  0.8666667  0.3333333  0.0000000  )
        47           C   tau(  47) = (  0.8000000  0.4000000  0.0000000  )
        48           C   tau(  48) = (  0.8666667  0.5333333  0.0000000  )
        49           C   tau(  49) = (  0.8000000  0.6000000  0.0000000  )
        50           C   tau(  50) = (  0.8666667  0.7333333  0.0000000  )
        51           C   tau(  51) = (  0.8000000  0.8000000  0.0000000  )
        52           C   tau(  52) = (  0.8666667  0.9333333  0.0000000  )

     number of k points=     1  Marzari-Vanderbilt smearing, width (Ry)=  0.0010
                       cart. coord. in units 2pi/alat
        k(    1) = (   0.0000000   0.0000000   0.0000000), wk =   1.0000000

                       cryst. coord.
        k(    1) = (   0.0000000   0.0000000   0.0000000), wk =   1.0000000

     Check: negative core charge=   -0.000002

     Initial potential from superposition of free atoms

     starting charge  213.80512, renormalised to  214.00000

     negative rho (up, down):  6.017E-05 1.006E-02

Carrying out rVV10 run using the following parameters:
Nqs =      20    Nr_points =    1024   r_max =   100.000
b_value =  6.30000    beta =  0.00901
     q_mesh =  0.00010000  0.00030000  0.00058939  0.00100810
               0.00161396  0.00249058  0.00375900  0.00559430
               0.00824984  0.01209221  0.01765183  0.02569619
               0.03733578  0.05417739  0.07854596  0.11380545
               0.16482331  0.23864234  0.34545298  0.50000000

Gradients computed in Reciprocal space

     Starting wfcs are  208 randomized atomic wfcs

     Self-consistent Calculation

     iteration #  1     ecut=    70.00 Ry     beta= 0.30
     Davidson diagonalization with overlap
     ethr =  1.00E-02,  avg # of iterations =  4.0

[...]

     total energy              =    -858.09379641 Ry
     Harris-Foulkes estimate   =    -858.62601893 Ry
     estimated scf accuracy    <      10.08357436 Ry

     total magnetization       =     6.00 Bohr mag/cell
     absolute magnetization    =     6.66 Bohr mag/cell

[...]

     Magnetic moment per site:
     atom:    1    charge:    0.2101    magn:    0.0000    constr:    0.0000
     atom:    2    charge:    0.2121    magn:    0.0001    constr:    0.0000
     atom:    3    charge:    1.7169    magn:   -0.0106    constr:    0.0000
     atom:    4    charge:    1.7155    magn:    0.0159    constr:    0.0000
     atom:    5    charge:    1.7175    magn:   -0.0062    constr:    0.0000
     atom:    6    charge:    1.7143    magn:    0.0048    constr:    0.0000
     atom:    7    charge:    1.7175    magn:   -0.0062    constr:    0.0000
     atom:    8    charge:    1.7155    magn:    0.0159    constr:    0.0000
     atom:    9    charge:    1.7169    magn:   -0.0106    constr:    0.0000
     atom:   10    charge:    1.7150    magn:    0.0559    constr:    0.0000
     atom:   11    charge:    1.7173    magn:   -0.0155    constr:    0.0000
     atom:   12    charge:    1.7150    magn:    0.0562    constr:    0.0000
     atom:   13    charge:    1.7171    magn:   -0.0155    constr:    0.0000
     atom:   14    charge:    1.7156    magn:    0.0440    constr:    0.0000
     atom:   15    charge:    1.7139    magn:   -0.0122    constr:    0.0000
     atom:   16    charge:    1.7109    magn:    0.0547    constr:    0.0000
     atom:   17    charge:    1.7225    magn:   -0.0073    constr:    0.0000
     atom:   18    charge:    1.7109    magn:    0.0548    constr:    0.0000
     atom:   19    charge:    1.7139    magn:   -0.0123    constr:    0.0000
     atom:   20    charge:    1.7156    magn:    0.0441    constr:    0.0000
     atom:   21    charge:    1.7171    magn:   -0.0155    constr:    0.0000
     atom:   22    charge:    1.7162    magn:    0.0485    constr:    0.0000
     atom:   23    charge:    1.7165    magn:   -0.0101    constr:    0.0000
     atom:   24    charge:    1.7156    magn:    0.0148    constr:    0.0000
     atom:   25    charge:    1.7138    magn:   -0.0123    constr:    0.0000
     atom:   26    charge:    1.7118    magn:    0.0484    constr:    0.0000
     atom:   27    charge:    1.8516    magn:   -0.0148    constr:    0.0000
     atom:   28    charge:   11.1464    magn:    0.4606    constr:    0.0000
     atom:   29    charge:    1.8516    magn:   -0.0145    constr:    0.0000
     atom:   30    charge:    1.7117    magn:    0.0486    constr:    0.0000
     atom:   31    charge:    1.7138    magn:   -0.0123    constr:    0.0000
     atom:   32    charge:    1.7156    magn:    0.0147    constr:    0.0000
     atom:   33    charge:    1.7174    magn:   -0.0060    constr:    0.0000
     atom:   34    charge:    1.7144    magn:    0.0098    constr:    0.0000
     atom:   35    charge:    1.7174    magn:   -0.0060    constr:    0.0000
     atom:   36    charge:    1.7143    magn:    0.0047    constr:    0.0000
     atom:   37    charge:    1.7220    magn:   -0.0060    constr:    0.0000
     atom:   38    charge:    1.7119    magn:    0.0465    constr:    0.0000
     atom:   39    charge:    1.8510    magn:   -0.0148    constr:    0.0000
     atom:   40    charge:    1.7118    magn:    0.0467    constr:    0.0000
     atom:   41    charge:    1.7220    magn:   -0.0060    constr:    0.0000
     atom:   42    charge:    1.7143    magn:    0.0047    constr:    0.0000
     atom:   43    charge:    1.7175    magn:   -0.0061    constr:    0.0000
     atom:   44    charge:    1.7142    magn:    0.0110    constr:    0.0000
     atom:   45    charge:    1.7228    magn:    0.0029    constr:    0.0000
     atom:   46    charge:    1.7142    magn:    0.0110    constr:    0.0000
     atom:   47    charge:    1.7175    magn:   -0.0061    constr:    0.0000
     atom:   48    charge:    1.7152    magn:    0.0169    constr:    0.0000
     atom:   49    charge:    1.7135    magn:   -0.0115    constr:    0.0000
     atom:   50    charge:    1.7164    magn:    0.0378    constr:    0.0000
     atom:   51    charge:    1.7135    magn:   -0.0115    constr:    0.0000
     atom:   52    charge:    1.7152    magn:    0.0169    constr:    0.0000

[...]

     total energy              =    -860.05559832 Ry
     Harris-Foulkes estimate   =    -860.05559846 Ry
     estimated scf accuracy    <       0.00000141 Ry

[...]

     iteration #226     ecut=    70.00 Ry     beta= 0.30
     Davidson diagonalization with overlap
     ethr =  6.57E-10,  avg # of iterations =  2.0

     negative rho (up, down):  5.597E-04 1.041E-02

     Magnetic moment per site:
     atom:    1    charge:    0.2101    magn:    0.0000    constr:    0.0000
     atom:    2    charge:    0.2121    magn:    0.0001    constr:    0.0000
     atom:    3    charge:    1.7171    magn:   -0.0112    constr:    0.0000
     atom:    4    charge:    1.7154    magn:    0.0164    constr:    0.0000
     atom:    5    charge:    1.7176    magn:   -0.0068    constr:    0.0000
     atom:    6    charge:    1.7142    magn:    0.0050    constr:    0.0000
     atom:    7    charge:    1.7176    magn:   -0.0068    constr:    0.0000
     atom:    8    charge:    1.7154    magn:    0.0164    constr:    0.0000
     atom:    9    charge:    1.7171    magn:   -0.0112    constr:    0.0000
     atom:   10    charge:    1.7149    magn:    0.0568    constr:    0.0000
     atom:   11    charge:    1.7174    magn:   -0.0159    constr:    0.0000
     atom:   12    charge:    1.7149    magn:    0.0569    constr:    0.0000
     atom:   13    charge:    1.7173    magn:   -0.0157    constr:    0.0000
     atom:   14    charge:    1.7156    magn:    0.0442    constr:    0.0000
     atom:   15    charge:    1.7138    magn:   -0.0123    constr:    0.0000
     atom:   16    charge:    1.7108    magn:    0.0547    constr:    0.0000
     atom:   17    charge:    1.7228    magn:   -0.0085    constr:    0.0000
     atom:   18    charge:    1.7108    magn:    0.0547    constr:    0.0000
     atom:   19    charge:    1.7139    magn:   -0.0123    constr:    0.0000
     atom:   20    charge:    1.7156    magn:    0.0443    constr:    0.0000
     atom:   21    charge:    1.7173    magn:   -0.0157    constr:    0.0000
     atom:   22    charge:    1.7158    magn:    0.0503    constr:    0.0000
     atom:   23    charge:    1.7168    magn:   -0.0107    constr:    0.0000
     atom:   24    charge:    1.7154    magn:    0.0154    constr:    0.0000
     atom:   25    charge:    1.7138    magn:   -0.0122    constr:    0.0000
     atom:   26    charge:    1.7115    magn:    0.0491    constr:    0.0000
     atom:   27    charge:    1.8520    magn:   -0.0152    constr:    0.0000
     atom:   28    charge:   11.1455    magn:    0.4752    constr:    0.0000
     atom:   29    charge:    1.8520    magn:   -0.0152    constr:    0.0000
     atom:   30    charge:    1.7115    magn:    0.0492    constr:    0.0000
     atom:   31    charge:    1.7138    magn:   -0.0122    constr:    0.0000
     atom:   32    charge:    1.7155    magn:    0.0154    constr:    0.0000
     atom:   33    charge:    1.7175    magn:   -0.0066    constr:    0.0000
     atom:   34    charge:    1.7141    magn:    0.0104    constr:    0.0000
     atom:   35    charge:    1.7175    magn:   -0.0066    constr:    0.0000
     atom:   36    charge:    1.7142    magn:    0.0050    constr:    0.0000
     atom:   37    charge:    1.7225    magn:   -0.0076    constr:    0.0000
     atom:   38    charge:    1.7115    magn:    0.0482    constr:    0.0000
     atom:   39    charge:    1.8517    magn:   -0.0157    constr:    0.0000
     atom:   40    charge:    1.7115    magn:    0.0483    constr:    0.0000
     atom:   41    charge:    1.7225    magn:   -0.0076    constr:    0.0000
     atom:   42    charge:    1.7142    magn:    0.0050    constr:    0.0000
     atom:   43    charge:    1.7176    magn:   -0.0069    constr:    0.0000
     atom:   44    charge:    1.7140    magn:    0.0115    constr:    0.0000
     atom:   45    charge:    1.7233    magn:    0.0003    constr:    0.0000
     atom:   46    charge:    1.7140    magn:    0.0115    constr:    0.0000
     atom:   47    charge:    1.7176    magn:   -0.0069    constr:    0.0000
     atom:   48    charge:    1.7152    magn:    0.0172    constr:    0.0000
     atom:   49    charge:    1.7136    magn:   -0.0116    constr:    0.0000
     atom:   50    charge:    1.7161    magn:    0.0395    constr:    0.0000
     atom:   51    charge:    1.7136    magn:   -0.0116    constr:    0.0000
     atom:   52    charge:    1.7152    magn:    0.0172    constr:    0.0000

     End of self-consistent calculation

 ------ SPIN UP ------------

          k = 0.0000 0.0000 0.0000 ( 87777 PWs)   bands (ev):

   -88.8322 -55.7231 -55.6763 -54.0513 -19.8693 -19.0406 -19.0276 -18.9451
   -18.9181 -18.9137 -18.5824 -17.1694 -17.1600 -17.1598 -17.0938 -17.0895
   -16.7849 -16.3183 -16.3154 -16.2143 -16.1679 -16.1672 -15.4849 -14.2308
   -14.2161 -14.1353 -14.0843 -14.0819 -13.4286 -13.1528 -13.1496 -13.1246
   -12.8501 -12.8490 -12.4366 -11.9357 -11.9342 -11.7423 -11.4989 -11.4973
   -10.6251  -9.8023  -9.7991  -9.5224  -9.4057  -9.4045  -9.3190  -9.2889
    -9.2884  -9.2764  -8.8174  -8.8166  -8.2858  -8.2827  -8.1859  -8.0187
    -7.9228  -7.5326  -7.5298  -7.3413  -7.2356  -7.2280  -7.0785  -7.0783
    -6.9261  -6.9109  -6.9046  -6.8022  -6.6547  -6.6484  -6.6229  -6.6121
    -6.6093  -6.6007  -6.5653  -6.2802  -5.7441  -5.7403  -5.7172  -5.7019
    -5.4757  -5.4731  -5.3384  -5.0760  -4.9681  -4.8284  -4.8050  -4.8003
    -4.5503  -4.5461  -4.4916  -4.3332  -4.3228  -3.9621  -3.9607  -3.8779
    -3.7715  -3.7697  -3.2190  -2.9144  -2.9069  -1.9605  -1.8914  -1.8894
    -1.3545  -1.3176  -1.2137  -0.9207   0.8346   0.8821   0.8837   1.3939
     1.4058   1.5136   2.3203   2.3214   2.5296   2.6802   2.6814   2.7733
     3.2912   3.3003   3.4225   3.6623   3.6727   3.7339   3.7352   3.7552

     occupation numbers
     1.0000   1.0000   1.0000   1.0000   1.0000   1.0000   1.0000   1.0000
     1.0000   1.0000   1.0000   1.0000   1.0000   1.0000   1.0000   1.0000
     1.0000   1.0000   1.0000   1.0000   1.0000   1.0000   1.0000   1.0000
     1.0000   1.0000   1.0000   1.0000   1.0000   1.0000   1.0000   1.0000
     1.0000   1.0000   1.0000   1.0000   1.0000   1.0000   1.0000   1.0000
     1.0000   1.0000   1.0000   1.0000   1.0000   1.0000   1.0000   1.0000
     1.0000   1.0000   1.0000   1.0000   1.0000   1.0000   1.0000   1.0000
     1.0000   1.0000   1.0000   1.0000   1.0000   1.0000   1.0000   1.0000
     1.0000   1.0000   1.0000   1.0000   1.0000   1.0000   1.0000   1.0000
     1.0000   1.0000   1.0000   1.0000   1.0000   1.0000   1.0000   1.0000
     1.0000   1.0000   1.0000   1.0000   1.0000   1.0000   1.0000   1.0000
     1.0000   1.0000   1.0000   1.0000   1.0000   1.0000   1.0000   1.0000
     1.0000   1.0000   1.0000   1.0000   1.0000   1.0000   1.0000   1.0000
     1.0000   1.0000   1.0000   1.0372   0.0000   0.0000   0.0000   0.0000
     0.0000   0.0000   0.0000   0.0000   0.0000   0.0000   0.0000   0.0000
     0.0000   0.0000   0.0000   0.0000   0.0000   0.0000   0.0000   0.0000

 ------ SPIN DOWN ----------

          k = 0.0000 0.0000 0.0000 ( 87777 PWs)   bands (ev):

   -88.0743 -55.0922 -55.0775 -53.1026 -19.8288 -18.9944 -18.9835 -18.9060
   -18.8923 -18.8876 -18.5237 -17.1354 -17.1293 -17.1254 -17.0412 -17.0381
   -16.7540 -16.2737 -16.2729 -16.1792 -16.1249 -16.1247 -15.4582 -14.1590
   -14.1506 -14.0772 -14.0736 -14.0704 -13.4270 -13.1271 -13.1251 -13.0937
   -12.8301 -12.8296 -12.4057 -11.8987 -11.8964 -11.7180 -11.4756 -11.4754
   -10.5987  -9.7492  -9.7469  -9.4922  -9.3736  -9.3735  -9.3024  -9.2661
    -9.2655  -9.2581  -8.8038  -8.8030  -8.2481  -8.2452  -8.1634  -7.9245
    -7.9060  -7.5183  -7.5150  -7.3057  -7.0670  -7.0656  -7.0284  -7.0279
    -6.8506  -6.8484  -6.8272  -6.7875  -6.6376  -6.6321  -6.6124  -6.5989
    -6.5962  -6.5467  -6.4745  -6.2694  -5.6898  -5.6869  -5.4737  -5.4726
    -5.4318  -5.4302  -5.2235  -5.0621  -4.9585  -4.7571  -4.7126  -4.7117
    -4.4663  -4.4619  -4.4155  -4.2056  -4.2046  -3.8350  -3.8335  -3.7805
    -3.7561  -3.7546  -3.1649  -2.6822  -2.6786  -1.8632  -1.8610  -1.8100
    -0.9338  -0.9041  -0.8266  -0.8066   0.9291   0.9313   0.9820   1.5515
     1.5516   1.6372   2.4844   2.4850   2.5431   2.8139   2.8162   2.8516
     3.4489   3.4508   3.5214   3.6791   3.6882   3.7407   3.7461   3.7603

     occupation numbers
     1.0000   1.0000   1.0000   1.0000   1.0000   1.0000   1.0000   1.0000
     1.0000   1.0000   1.0000   1.0000   1.0000   1.0000   1.0000   1.0000
     1.0000   1.0000   1.0000   1.0000   1.0000   1.0000   1.0000   1.0000
     1.0000   1.0000   1.0000   1.0000   1.0000   1.0000   1.0000   1.0000
     1.0000   1.0000   1.0000   1.0000   1.0000   1.0000   1.0000   1.0000
     1.0000   1.0000   1.0000   1.0000   1.0000   1.0000   1.0000   1.0000
     1.0000   1.0000   1.0000   1.0000   1.0000   1.0000   1.0000   1.0000
     1.0000   1.0000   1.0000   1.0000   1.0000   1.0000   1.0000   1.0000
     1.0000   1.0000   1.0000   1.0000   1.0000   1.0000   1.0000   1.0000
     1.0000   1.0000   1.0000   1.0000   1.0000   1.0000   1.0000   1.0000
     1.0000   1.0000   1.0000   1.0000   1.0000   1.0000   1.0000   1.0000
     1.0000   1.0000   1.0000   1.0000   1.0000   1.0000   1.0000   1.0000
     1.0000   1.0000   1.0000   1.0000   1.0000   1.0000   1.0000   1.0000
     1.0014   0.9615   0.0000   0.0000   0.0000   0.0000   0.0000   0.0000
     0.0000   0.0000   0.0000   0.0000   0.0000   0.0000   0.0000   0.0000
     0.0000   0.0000   0.0000   0.0000   0.0000   0.0000   0.0000   0.0000

     the Fermi energy is    -0.8928 ev

!    total energy              =    -860.05559936 Ry
     Harris-Foulkes estimate   =    -860.05559850 Ry
     estimated scf accuracy    <       0.00000063 Ry

     The total energy is the sum of the following terms:

     one-electron contribution =   -2784.63111503 Ry
     hartree contribution      =    1436.12778401 Ry
     xc contribution           =    -259.31052155 Ry
     ewald contribution        =     747.75811218 Ry
     smearing contrib. (-TS)   =       0.00014103 Ry

     total magnetization       =     2.07 Bohr mag/cell
     absolute magnetization    =     3.02 Bohr mag/cell

     convergence has been achieved in 226 iterations

     Writing output data file distance-3.5.save/

     General routines

     Parallel routines

   This run was terminated on:   2:33:32   7Nov2022

   JOB DONE.