     Program PWSCF v.6.4.1 starts on  7Nov2022 at  6: 4:32

     R & G space division:  proc/nbgrp/npool/nimage =       6
     Reading input from distance-2.8.in

     Current dimensions of program PWSCF are:
     Max number of different atomic species (ntypx) = 10
     Max number of k-points (npk) =  40000
     Max angular momentum in pseudopotentials (lmaxx) =  3

     IMPORTANT: XC functional enforced from input :
     Exchange-correlation      = RVV10 ( 1  4 13  4 3 0)
     Any further DFT definition will be discarded
     Please, verify this is what you really want

               file H.pbe-rrkjus.UPF: wavefunction(s)  1S renormalized

     Subspace diagonalization in iterative solution of the eigenvalue problem:
     a serial algorithm will be used

     bravais-lattice index     =            4
     lattice parameter (alat)  =      23.2937  a.u.
     unit-cell volume          =    8879.8548 (a.u.)^3
     number of atoms/cell      =           52
     number of atomic types    =            3
     number of electrons       =       214.00
     number of Kohn-Sham states=          128
     kinetic-energy cutoff     =      70.0000  Ry
     charge density cutoff     =     490.0000  Ry
     convergence threshold     =      1.0E-06
     mixing beta               =       0.3000
     number of iterations used =            4  plain     mixing
     Exchange-correlation      = RVV10 ( 1  4 13  4 3 0)

     celldm(1)=  23.293684  celldm(2)=   0.000000  celldm(3)=   0.811261
     celldm(4)=   0.000000  celldm(5)=   0.000000  celldm(6)=   0.000000

     crystal axes: (cart. coord. in units of alat)
               a(1) = (   1.000000   0.000000   0.000000 )
               a(2) = (  -0.500000   0.866025   0.000000 )
               a(3) = (   0.000000   0.000000   0.811261 )

     reciprocal axes: (cart. coord. in units 2 pi/alat)
               b(1) = (  1.000000  0.577350 -0.000000 )
               b(2) = (  0.000000  1.154701  0.000000 )
               b(3) = (  0.000000 -0.000000  1.232649 )

     PseudoPot. # 1 for H  read from file:
     /home/cristian/Escritorio/Proyecto_Grafeno/pseudopotenciales/H.pbe-rrkjus.UPF
     MD5 check sum: 7cc9d459525c9a0585f487a71c3c9563
     Pseudo is Ultrasoft, Zval =  1.0
     Generated by new atomic code, or converted to UPF format
     Using radial grid of 1061 points,  2 beta functions with:
                l(1) =   0
                l(2) =   0
     Q(r) pseudized with 0 coefficients

     PseudoPot. # 2 for C  read from file:
     /home/cristian/Escritorio/Proyecto_Grafeno/pseudopotenciales/C.pbe-n-rrkjus_psl.1.0.0.UPF
     MD5 check sum: 1fdd950c42eb37d8afe3dd2f8d12311e
     Pseudo is Ultrasoft + core correction, Zval =  4.0
     Generated using "atomic" code by A. Dal Corso v.6.3MaX
     Using radial grid of 1073 points,  4 beta functions with:
                l(1) =   0
                l(2) =   0
                l(3) =   1
                l(4) =   1
     Q(r) pseudized with 0 coefficients

     PseudoPot. # 3 for Fe read from file:
     /home/cristian/Escritorio/Proyecto_Grafeno/pseudopotenciales/Fe.pbe-spn-rrkjus_psl.1.0.0.UPF
     MD5 check sum: 72ea77fed8e64ab3a2ccf2804dfc1862
     Pseudo is Ultrasoft + core correction, Zval = 16.0
     Generated using "atomic" code by A. Dal Corso v.6.3
     Using radial grid of 1191 points,  6 beta functions with:
                l(1) =   0
                l(2) =   0
                l(3) =   1
                l(4) =   1
                l(5) =   2
                l(6) =   2
     Q(r) pseudized with 0 coefficients

     vdW kernel table read from file rVV10_kernel_table
     MD5 check sum: b8e2538accc0c0b3206b45ba4daaba6c

     atomic species   valence    mass     pseudopotential
        H              1.00     1.00794     H ( 1.00)
        C              4.00    12.01070     C ( 1.00)
        Fe            16.00    55.84500     Fe( 1.00)

     Starting magnetic structure
     atomic species   magnetization
        H            0.500
        C            0.300
        Fe           0.800

     No symmetry found

                                    s                        frac. trans.

      isym =  1     identity

 cryst.   s( 1) = (     1          0          0      )
                  (     0          1          0      )
                  (     0          0          1      )

 cart.    s( 1) = (  1.0000000  0.0000000  0.0000000 )
                  (  0.0000000  1.0000000  0.0000000 )
                  (  0.0000000  0.0000000  1.0000000 )

     point group C_1 (1)
     there are  1 classes
     the character table:

       E
A      1.00

     the symmetry operations in each class and the name of the first element:

     E        1
          identity

   Cartesian axes

     site n.     atom                  positions (alat units)
         1           H   tau(   1) = (   0.2500000   0.4907477   0.2271531  )
         2           H   tau(   2) = (   0.2500000   0.4907477   0.2881658  )
         3           C   tau(   3) = (   0.0000000   0.0000000   0.0000000  )
         4           C   tau(   4) = (   0.0000000   0.1154701   0.0000000  )
         5           C   tau(   5) = (  -0.1000000   0.1732051   0.0000000  )
         6           C   tau(   6) = (  -0.1000000   0.2886751   0.0000000  )
         7           C   tau(   7) = (  -0.2000000   0.3464102   0.0000000  )
         8           C   tau(   8) = (  -0.2000000   0.4618802   0.0000000  )
         9           C   tau(   9) = (  -0.3000000   0.5196152   0.0000000  )
        10           C   tau(  10) = (  -0.3000000   0.6350853   0.0000000  )
        11           C   tau(  11) = (  -0.4000000   0.6928203   0.0000000  )
        12           C   tau(  12) = (  -0.4000000   0.8082904   0.0000000  )
        13           C   tau(  13) = (   0.2000000   0.0000000   0.0000000  )
        14           C   tau(  14) = (   0.2000000   0.1154701   0.0000000  )
        15           C   tau(  15) = (   0.1000000   0.1732051   0.0000000  )
        16           C   tau(  16) = (   0.1000000   0.2886751   0.0000000  )
        17           C   tau(  17) = (   0.0000000   0.3464102   0.0000000  )
        18           C   tau(  18) = (   0.0000000   0.4618802   0.0000000  )
        19           C   tau(  19) = (  -0.1000000   0.5196152   0.0000000  )
        20           C   tau(  20) = (  -0.1000000   0.6350853   0.0000000  )
        21           C   tau(  21) = (  -0.2000000   0.6928203   0.0000000  )
        22           C   tau(  22) = (  -0.2000000   0.8082904   0.0000000  )
        23           C   tau(  23) = (   0.4000000   0.0000000   0.0000000  )
        24           C   tau(  24) = (   0.4000000   0.1154701   0.0000000  )
        25           C   tau(  25) = (   0.3000000   0.1732051   0.0000000  )
        26           C   tau(  26) = (   0.3000000   0.2886751   0.0000000  )
        27           C   tau(  27) = (   0.2000000   0.3464102   0.0000000  )
        28           Fe  tau(  28) = (   0.2000000   0.4618802   0.0000000  )
        29           C   tau(  29) = (   0.1000000   0.5196152   0.0000000  )
        30           C   tau(  30) = (   0.1000000   0.6350853   0.0000000  )
        31           C   tau(  31) = (   0.0000000   0.6928203   0.0000000  )
        32           C   tau(  32) = (   0.0000000   0.8082904   0.0000000  )
        33           C   tau(  33) = (   0.6000000   0.0000000   0.0000000  )
        34           C   tau(  34) = (   0.6000000   0.1154701   0.0000000  )
        35           C   tau(  35) = (   0.5000000   0.1732051   0.0000000  )
        36           C   tau(  36) = (   0.5000000   0.2886751   0.0000000  )
        37           C   tau(  37) = (   0.4000000   0.3464102   0.0000000  )
        38           C   tau(  38) = (   0.4000000   0.4618802   0.0000000  )
        39           C   tau(  39) = (   0.3000000   0.5196152   0.0000000  )
        40           C   tau(  40) = (   0.3000000   0.6350853   0.0000000  )
        41           C   tau(  41) = (   0.2000000   0.6928203   0.0000000  )
        42           C   tau(  42) = (   0.2000000   0.8082904   0.0000000  )
        43           C   tau(  43) = (   0.8000000   0.0000000   0.0000000  )
        44           C   tau(  44) = (   0.8000000   0.1154701   0.0000000  )
        45           C   tau(  45) = (   0.7000000   0.1732051   0.0000000  )
        46           C   tau(  46) = (   0.7000000   0.2886751   0.0000000  )
        47           C   tau(  47) = (   0.6000000   0.3464102   0.0000000  )
        48           C   tau(  48) = (   0.6000000   0.4618802   0.0000000  )
        49           C   tau(  49) = (   0.5000000   0.5196152   0.0000000  )
        50           C   tau(  50) = (   0.5000000   0.6350853   0.0000000  )
        51           C   tau(  51) = (   0.4000000   0.6928203   0.0000000  )
        52           C   tau(  52) = (   0.4000000   0.8082904   0.0000000  )

   Crystallographic axes

     site n.     atom                  positions (cryst. coord.)
         1           H   tau(   1) = (  0.5333333  0.5666667  0.2800000  )
         2           H   tau(   2) = (  0.5333333  0.5666667  0.3552072  )
         3           C   tau(   3) = (  0.0000000  0.0000000  0.0000000  )
         4           C   tau(   4) = (  0.0666667  0.1333333  0.0000000  )
         5           C   tau(   5) = (  0.0000000  0.2000000  0.0000000  )
         6           C   tau(   6) = (  0.0666667  0.3333333  0.0000000  )
         7           C   tau(   7) = (  0.0000000  0.4000000  0.0000000  )
         8           C   tau(   8) = (  0.0666667  0.5333333  0.0000000  )
         9           C   tau(   9) = (  0.0000000  0.6000000  0.0000000  )
        10           C   tau(  10) = (  0.0666667  0.7333333  0.0000000  )
        11           C   tau(  11) = (  0.0000000  0.8000000  0.0000000  )
        12           C   tau(  12) = (  0.0666667  0.9333333  0.0000000  )
        13           C   tau(  13) = (  0.2000000  0.0000000  0.0000000  )
        14           C   tau(  14) = (  0.2666667  0.1333333  0.0000000  )
        15           C   tau(  15) = (  0.2000000  0.2000000  0.0000000  )
        16           C   tau(  16) = (  0.2666667  0.3333333  0.0000000  )
        17           C   tau(  17) = (  0.2000000  0.4000000  0.0000000  )
        18           C   tau(  18) = (  0.2666667  0.5333333  0.0000000  )
        19           C   tau(  19) = (  0.2000000  0.6000000  0.0000000  )
        20           C   tau(  20) = (  0.2666667  0.7333333  0.0000000  )
        21           C   tau(  21) = (  0.2000000  0.8000000  0.0000000  )
        22           C   tau(  22) = (  0.2666667  0.9333333  0.0000000  )
        23           C   tau(  23) = (  0.4000000  0.0000000  0.0000000  )
        24           C   tau(  24) = (  0.4666667  0.1333333  0.0000000  )
        25           C   tau(  25) = (  0.4000000  0.2000000  0.0000000  )
        26           C   tau(  26) = (  0.4666667  0.3333333  0.0000000  )
        27           C   tau(  27) = (  0.4000000  0.4000000  0.0000000  )
        28           Fe  tau(  28) = (  0.4666667  0.5333333  0.0000000  )
        29           C   tau(  29) = (  0.4000000  0.6000000  0.0000000  )
        30           C   tau(  30) = (  0.4666667  0.7333333  0.0000000  )
        31           C   tau(  31) = (  0.4000000  0.8000000  0.0000000  )
        32           C   tau(  32) = (  0.4666667  0.9333333  0.0000000  )
        33           C   tau(  33) = (  0.6000000  0.0000000  0.0000000  )
        34           C   tau(  34) = (  0.6666667  0.1333333  0.0000000  )
        35           C   tau(  35) = (  0.6000000  0.2000000  0.0000000  )
        36           C   tau(  36) = (  0.6666667  0.3333333  0.0000000  )
        37           C   tau(  37) = (  0.6000000  0.4000000  0.0000000  )
        38           C   tau(  38) = (  0.6666667  0.5333333  0.0000000  )
        39           C   tau(  39) = (  0.6000000  0.6000000  0.0000000  )
        40           C   tau(  40) = (  0.6666667  0.7333333  0.0000000  )
        41           C   tau(  41) = (  0.6000000  0.8000000  0.0000000  )
        42           C   tau(  42) = (  0.6666667  0.9333333  0.0000000  )
        43           C   tau(  43) = (  0.8000000  0.0000000  0.0000000  )
        44           C   tau(  44) = (  0.8666667  0.1333333  0.0000000  )
        45           C   tau(  45) = (  0.8000000  0.2000000  0.0000000  )
        46           C   tau(  46) = (  0.8666667  0.3333333  0.0000000  )
        47           C   tau(  47) = (  0.8000000  0.4000000  0.0000000  )
        48           C   tau(  48) = (  0.8666667  0.5333333  0.0000000  )
        49           C   tau(  49) = (  0.8000000  0.6000000  0.0000000  )
        50           C   tau(  50) = (  0.8666667  0.7333333  0.0000000  )
        51           C   tau(  51) = (  0.8000000  0.8000000  0.0000000  )
        52           C   tau(  52) = (  0.8666667  0.9333333  0.0000000  )

     number of k points=     1  Marzari-Vanderbilt smearing, width (Ry)=  0.0010
                       cart. coord. in units 2pi/alat
        k(    1) = (   0.0000000   0.0000000   0.0000000), wk =   1.0000000

                       cryst. coord.
        k(    1) = (   0.0000000   0.0000000   0.0000000), wk =   1.0000000

     Check: negative core charge=   -0.000002

     Initial potential from superposition of free atoms

     starting charge  213.80512, renormalised to  214.00000

     negative rho (up, down):  5.956E-05 1.074E-02

Carrying out rVV10 run using the following parameters:
Nqs =      20    Nr_points =    1024   r_max =   100.000
b_value =  6.30000    beta =  0.00901
     q_mesh =  0.00010000  0.00030000  0.00058939  0.00100810
               0.00161396  0.00249058  0.00375900  0.00559430
               0.00824984  0.01209221  0.01765183  0.02569619
               0.03733578  0.05417739  0.07854596  0.11380545
               0.16482331  0.23864234  0.34545298  0.50000000

Gradients computed in Reciprocal space

     Starting wfcs are  208 randomized atomic wfcs

     Self-consistent Calculation

     iteration #  1     ecut=    70.00 Ry     beta= 0.30
     Davidson diagonalization with overlap
     ethr =  1.00E-02,  avg # of iterations =  2.5

[...]

     total energy              =    -858.04638929 Ry
     Harris-Foulkes estimate   =    -858.62924832 Ry
     estimated scf accuracy    <      10.20100128 Ry

     total magnetization       =     6.00 Bohr mag/cell
     absolute magnetization    =     6.65 Bohr mag/cell

[...]

     total energy              =    -860.05618586 Ry
     Harris-Foulkes estimate   =    -860.05618687 Ry
     estimated scf accuracy    <       0.00000107 Ry

[...]

     iteration # 74     ecut=    70.00 Ry     beta= 0.30
     Davidson diagonalization with overlap
     ethr =  4.99E-10,  avg # of iterations =  2.0

     negative rho (up, down):  5.936E-04 1.140E-02

     Magnetic moment per site:
     atom:    1    charge:    0.2100    magn:    0.0000    constr:    0.0000
     atom:    2    charge:    0.2126    magn:    0.0005    constr:    0.0000
     atom:    3    charge:    1.7171    magn:   -0.0124    constr:    0.0000
     atom:    4    charge:    1.7154    magn:    0.0166    constr:    0.0000
     atom:    5    charge:    1.7176    magn:   -0.0089    constr:    0.0000
     atom:    6    charge:    1.7143    magn:    0.0056    constr:    0.0000
     atom:    7    charge:    1.7176    magn:   -0.0089    constr:    0.0000
     atom:    8    charge:    1.7154    magn:    0.0166    constr:    0.0000
     atom:    9    charge:    1.7171    magn:   -0.0124    constr:    0.0000
     atom:   10    charge:    1.7149    magn:    0.0561    constr:    0.0000
     atom:   11    charge:    1.7174    magn:   -0.0155    constr:    0.0000
     atom:   12    charge:    1.7149    magn:    0.0562    constr:    0.0000
     atom:   13    charge:    1.7173    magn:   -0.0156    constr:    0.0000
     atom:   14    charge:    1.7156    magn:    0.0436    constr:    0.0000
     atom:   15    charge:    1.7138    magn:   -0.0120    constr:    0.0000
     atom:   16    charge:    1.7109    magn:    0.0550    constr:    0.0000
     atom:   17    charge:    1.7229    magn:   -0.0142    constr:    0.0000
     atom:   18    charge:    1.7109    magn:    0.0550    constr:    0.0000
     atom:   19    charge:    1.7138    magn:   -0.0120    constr:    0.0000
     atom:   20    charge:    1.7156    magn:    0.0437    constr:    0.0000
     atom:   21    charge:    1.7173    magn:   -0.0156    constr:    0.0000
     atom:   22    charge:    1.7159    magn:    0.0483    constr:    0.0000
     atom:   23    charge:    1.7167    magn:   -0.0116    constr:    0.0000
     atom:   24    charge:    1.7155    magn:    0.0153    constr:    0.0000
     atom:   25    charge:    1.7137    magn:   -0.0120    constr:    0.0000
     atom:   26    charge:    1.7117    magn:    0.0483    constr:    0.0000
     atom:   27    charge:    1.8523    magn:   -0.0200    constr:    0.0000
     atom:   28    charge:   11.1468    magn:    0.4853    constr:    0.0000
     atom:   29    charge:    1.8522    magn:   -0.0198    constr:    0.0000
     atom:   30    charge:    1.7116    magn:    0.0484    constr:    0.0000
     atom:   31    charge:    1.7137    magn:   -0.0120    constr:    0.0000
     atom:   32    charge:    1.7155    magn:    0.0153    constr:    0.0000
     atom:   33    charge:    1.7175    magn:   -0.0087    constr:    0.0000
     atom:   34    charge:    1.7142    magn:    0.0112    constr:    0.0000
     atom:   35    charge:    1.7175    magn:   -0.0087    constr:    0.0000
     atom:   36    charge:    1.7142    magn:    0.0054    constr:    0.0000
     atom:   37    charge:    1.7223    magn:   -0.0126    constr:    0.0000
     atom:   38    charge:    1.7118    magn:    0.0463    constr:    0.0000
     atom:   39    charge:    1.8518    magn:   -0.0194    constr:    0.0000
     atom:   40    charge:    1.7118    magn:    0.0463    constr:    0.0000
     atom:   41    charge:    1.7223    magn:   -0.0126    constr:    0.0000
     atom:   42    charge:    1.7142    magn:    0.0054    constr:    0.0000
     atom:   43    charge:    1.7176    magn:   -0.0088    constr:    0.0000
     atom:   44    charge:    1.7140    magn:    0.0124    constr:    0.0000
     atom:   45    charge:    1.7233    magn:   -0.0092    constr:    0.0000
     atom:   46    charge:    1.7140    magn:    0.0124    constr:    0.0000
     atom:   47    charge:    1.7176    magn:   -0.0088    constr:    0.0000
     atom:   48    charge:    1.7152    magn:    0.0176    constr:    0.0000
     atom:   49    charge:    1.7135    magn:   -0.0110    constr:    0.0000
     atom:   50    charge:    1.7163    magn:    0.0368    constr:    0.0000
     atom:   51    charge:    1.7135    magn:   -0.0110    constr:    0.0000
     atom:   52    charge:    1.7152    magn:    0.0176    constr:    0.0000

     End of self-consistent calculation

 ------ SPIN UP ------------

          k = 0.0000 0.0000 0.0000 ( 87777 PWs)   bands (ev):

   -88.8726 -55.7647 -55.7050 -54.1034 -19.8637 -19.0377 -19.0204 -18.9376
   -18.9139 -18.9084 -18.5797 -17.1661 -17.1549 -17.1540 -17.0895 -17.0840
   -16.7790 -16.3140 -16.3112 -16.2069 -16.1638 -16.1636 -15.4833 -14.2287
   -14.2113 -14.1314 -14.0793 -14.0764 -13.4209 -13.1494 -13.1449 -13.1197
   -12.8465 -12.8458 -12.4322 -11.9325 -11.9313 -11.7368 -11.4957 -11.4940
   -10.6233  -9.8040  -9.7998  -9.5209  -9.4008  -9.3992  -9.3137  -9.2832
    -9.2826  -9.2702  -8.8138  -8.8134  -8.2859  -8.2826  -8.1831  -8.0143
    -7.9190  -7.5283  -7.5248  -7.3411  -7.2365  -7.2338  -7.0773  -7.0772
    -6.9205  -6.9043  -6.8973  -6.8001  -6.6552  -6.6501  -6.6428  -6.6185
    -6.6083  -6.6040  -6.5603  -6.1995  -5.7476  -5.7404  -5.7241  -5.7000
    -5.4738  -5.4709  -5.3540  -5.0717  -4.9641  -4.8240  -4.7964  -4.7903
    -4.5552  -4.5487  -4.4785  -4.3294  -4.3176  -3.9544  -3.9536  -3.8649
    -3.7669  -3.7653  -3.2075  -2.9169  -2.9061  -1.9534  -1.8855  -1.8830
    -1.3789  -1.3222  -1.2254  -0.9065   0.8417   0.8882   0.8899   1.3971
     1.4097   1.5212   2.2981   2.3007   2.5329   2.6884   2.6900   2.7854
     3.2921   3.3009   3.4392   3.6742   3.6803   3.7377   3.7389   3.7585

     occupation numbers
     1.0000   1.0000   1.0000   1.0000   1.0000   1.0000   1.0000   1.0000
     1.0000   1.0000   1.0000   1.0000   1.0000   1.0000   1.0000   1.0000
     1.0000   1.0000   1.0000   1.0000   1.0000   1.0000   1.0000   1.0000
     1.0000   1.0000   1.0000   1.0000   1.0000   1.0000   1.0000   1.0000
     1.0000   1.0000   1.0000   1.0000   1.0000   1.0000   1.0000   1.0000
     1.0000   1.0000   1.0000   1.0000   1.0000   1.0000   1.0000   1.0000
     1.0000   1.0000   1.0000   1.0000   1.0000   1.0000   1.0000   1.0000
     1.0000   1.0000   1.0000   1.0000   1.0000   1.0000   1.0000   1.0000
     1.0000   1.0000   1.0000   1.0000   1.0000   1.0000   1.0000   1.0000
     1.0000   1.0000   1.0000   1.0000   1.0000   1.0000   1.0000   1.0000
     1.0000   1.0000   1.0000   1.0000   1.0000   1.0000   1.0000   1.0000
     1.0000   1.0000   1.0000   1.0000   1.0000   1.0000   1.0000   1.0000
     1.0000   1.0000   1.0000   1.0000   1.0000   1.0000   1.0000   1.0000
     1.0000   1.0000   1.0000   0.9711   0.0000   0.0000   0.0000   0.0000
     0.0000   0.0000   0.0000   0.0000   0.0000   0.0000   0.0000   0.0000
     0.0000   0.0000   0.0000   0.0000   0.0000   0.0000   0.0000   0.0000

 ------ SPIN DOWN ----------

          k = 0.0000 0.0000 0.0000 ( 87777 PWs)   bands (ev):

   -88.0985 -55.1153 -55.0978 -53.1354 -19.8266 -18.9931 -18.9790 -18.9030
   -18.8924 -18.8867 -18.5279 -17.1334 -17.1281 -17.1240 -17.0412 -17.0372
   -16.7527 -16.2723 -16.2717 -16.1788 -16.1253 -16.1248 -15.4609 -14.1608
   -14.1511 -14.0772 -14.0703 -14.0666 -13.4314 -13.1255 -13.1227 -13.0916
   -12.8291 -12.8284 -12.4040 -11.8986 -11.8963 -11.7173 -11.4750 -11.4749
   -10.6009  -9.7530  -9.7506  -9.4919  -9.3718  -9.3717  -9.2984  -9.2628
    -9.2621  -9.2550  -8.8020  -8.8016  -8.2487  -8.2454  -8.1618  -7.9283
    -7.9037  -7.5158  -7.5119  -7.3077  -7.0837  -7.0763  -7.0294  -7.0282
    -6.8507  -6.8486  -6.8288  -6.7864  -6.6347  -6.6283  -6.6091  -6.5968
    -6.5925  -6.5664  -6.5443  -6.1644  -5.6918  -5.6883  -5.4911  -5.4841
    -5.4314  -5.4293  -5.2342  -5.0589  -4.9562  -4.7552  -4.7155  -4.7138
    -4.4719  -4.4664  -4.4136  -4.2077  -4.2070  -3.8357  -3.8343  -3.7849
    -3.7533  -3.7517  -3.1679  -2.6930  -2.6878  -1.8610  -1.8584  -1.8129
    -0.9484  -0.9242  -0.8374  -0.8116   0.9298   0.9322   0.9787   1.5472
     1.5477   1.6328   2.4589   2.4643   2.5455   2.8123   2.8139   2.8463
     3.4408   3.4439   3.5241   3.6908   3.6956   3.7435   3.7481   3.7626

     occupation numbers
     1.0000   1.0000   1.0000   1.0000   1.0000   1.0000   1.0000   1.0000
     1.0000   1.0000   1.0000   1.0000   1.0000   1.0000   1.0000   1.0000
     1.0000   1.0000   1.0000   1.0000   1.0000   1.0000   1.0000   1.0000
     1.0000   1.0000   1.0000   1.0000   1.0000   1.0000   1.0000   1.0000
     1.0000   1.0000   1.0000   1.0000   1.0000   1.0000   1.0000   1.0000
     1.0000   1.0000   1.0000   1.0000   1.0000   1.0000   1.0000   1.0000
     1.0000   1.0000   1.0000   1.0000   1.0000   1.0000   1.0000   1.0000
     1.0000   1.0000   1.0000   1.0000   1.0000   1.0000   1.0000   1.0000
     1.0000   1.0000   1.0000   1.0000   1.0000   1.0000   1.0000   1.0000
     1.0000   1.0000   1.0000   1.0000   1.0000   1.0000   1.0000   1.0000
     1.0000   1.0000   1.0000   1.0000   1.0000   1.0000   1.0000   1.0000
     1.0000   1.0000   1.0000   1.0000   1.0000   1.0000   1.0000   1.0000
     1.0000   1.0000   1.0000   1.0000   1.0000   1.0000   1.0000   1.0000
     1.0000   1.0289   0.0000   0.0000   0.0000   0.0000   0.0000   0.0000
     0.0000   0.0000   0.0000   0.0000   0.0000   0.0000   0.0000   0.0000
     0.0000   0.0000   0.0000   0.0000   0.0000   0.0000   0.0000   0.0000

     the Fermi energy is    -0.8950 ev

!    total energy              =    -860.05618728 Ry
     Harris-Foulkes estimate   =    -860.05618620 Ry
     estimated scf accuracy    <       0.00000070 Ry

     The total energy is the sum of the following terms:

     one-electron contribution =   -2795.02986350 Ry
     hartree contribution      =    1441.34405627 Ry
     xc contribution           =    -259.32720602 Ry
     ewald contribution        =     752.95669856 Ry
     smearing contrib. (-TS)   =       0.00012741 Ry

     total magnetization       =     1.94 Bohr mag/cell
     absolute magnetization    =     3.09 Bohr mag/cell

     convergence has been achieved in  74 iterations

     Writing output data file distance-2.8.save/

     General routines

     Parallel routines

   This run was terminated on:   8:13:27   7Nov2022

   JOB DONE.