     Program PWSCF v.6.4.1 starts on 31Aug2022 at 22:34: 4

     R & G space division:  proc/nbgrp/npool/nimage =       5
     Reading input from distance-2.4.in

     Current dimensions of program PWSCF are:
     Max number of different atomic species (ntypx) = 10
     Max number of k-points (npk) =  40000
     Max angular momentum in pseudopotentials (lmaxx) =  3

     IMPORTANT: XC functional enforced from input :
     Exchange-correlation      = RVV10 ( 1  4 13  4 3 0)
     Any further DFT definition will be discarded
     Please, verify this is what you really want

               file H.pbe-rrkjus.UPF: wavefunction(s)  1S renormalized
               file V.pbe-spnl-rrkjus_psl.1.0.0.UPF: wavefunction(s)  3P 3D renormalized

     Subspace diagonalization in iterative solution of the eigenvalue problem:
     a serial algorithm will be used

     bravais-lattice index     =            4
     lattice parameter (alat)  =      23.2937  a.u.
     unit-cell volume          =    8879.8548 (a.u.)^3
     number of atoms/cell      =           52
     number of atomic types    =            3
     number of electrons       =       211.00
     number of Kohn-Sham states=          127
     kinetic-energy cutoff     =      70.0000  Ry
     charge density cutoff     =     490.0000  Ry
     convergence threshold     =      1.0E-06
     mixing beta               =       0.7000
     number of iterations used =            8  plain     mixing
     Exchange-correlation      = RVV10 ( 1  4 13  4 3 0)

     celldm(1)=  23.293684  celldm(2)=   0.000000  celldm(3)=   0.811261
     celldm(4)=   0.000000  celldm(5)=   0.000000  celldm(6)=   0.000000

     crystal axes: (cart. coord. in units of alat)
               a(1) = (   1.000000   0.000000   0.000000 )
               a(2) = (  -0.500000   0.866025   0.000000 )
               a(3) = (   0.000000   0.000000   0.811261 )

     reciprocal axes: (cart. coord. in units 2 pi/alat)
               b(1) = (  1.000000  0.577350 -0.000000 )
               b(2) = (  0.000000  1.154701  0.000000 )
               b(3) = (  0.000000 -0.000000  1.232649 )

     PseudoPot. # 1 for H  read from file:
     /home/cristian/Escritorio/Proyecto_Grafeno/pseudopotenciales/H.pbe-rrkjus.UPF
     MD5 check sum: 7cc9d459525c9a0585f487a71c3c9563
     Pseudo is Ultrasoft, Zval =  1.0
     Generated by new atomic code, or converted to UPF format
     Using radial grid of 1061 points,  2 beta functions with:
                l(1) =   0
                l(2) =   0
     Q(r) pseudized with 0 coefficients

     PseudoPot. # 2 for C  read from file:
     /home/cristian/Escritorio/Proyecto_Grafeno/pseudopotenciales/C.pbe-n-rrkjus_psl.1.0.0.UPF
     MD5 check sum: 1fdd950c42eb37d8afe3dd2f8d12311e
     Pseudo is Ultrasoft + core correction, Zval =  4.0
     Generated using "atomic" code by A. Dal Corso v.6.3MaX
     Using radial grid of 1073 points,  4 beta functions with:
                l(1) =   0
                l(2) =   0
                l(3) =   1
                l(4) =   1
     Q(r) pseudized with 0 coefficients

     PseudoPot. # 3 for V  read from file:
     /home/cristian/Escritorio/Proyecto_Grafeno/pseudopotenciales/V.pbe-spnl-rrkjus_psl.1.0.0.UPF
     MD5 check sum: 79b3eb63147daf0b665d9f1bcc691206
     Pseudo is Ultrasoft + core correction, Zval = 13.0
     Generated using "atomic" code by A. Dal Corso v.6.2.2
     Using radial grid of 1181 points,  6 beta functions with:
                l(1) =   0
                l(2) =   0
                l(3) =   1
                l(4) =   1
                l(5) =   2
                l(6) =   2
     Q(r) pseudized with 0 coefficients

     vdW kernel table read from file rVV10_kernel_table
     MD5 check sum: b8e2538accc0c0b3206b45ba4daaba6c

     atomic species   valence    mass     pseudopotential
        H              1.00     1.00794     H ( 1.00)
        C              4.00    12.01070     C ( 1.00)
        V             13.00    50.94150     V ( 1.00)

     Starting magnetic structure
     atomic species   magnetization
        H            0.500
        C            0.300
        V            0.800

     No symmetry found

                                    s                        frac. trans.

      isym =  1     identity

 cryst.   s( 1) = (     1          0          0      )
                  (     0          1          0      )
                  (     0          0          1      )

 cart.    s( 1) = (  1.0000000  0.0000000  0.0000000 )
                  (  0.0000000  1.0000000  0.0000000 )
                  (  0.0000000  0.0000000  1.0000000 )

     point group C_1 (1)
     there are  1 classes
     the character table:

       E
A      1.00

     the symmetry operations in each class and the name of the first element:

     E        1
          identity

   Cartesian axes

     site n.     atom                  positions (alat units)
         1           H   tau(   1) = (   0.1694937   0.4618802   0.1947027  )
         2           H   tau(   2) = (   0.2305063   0.4618802   0.1947027  )
         3           C   tau(   3) = (   0.0000000   0.0000000   0.0000000  )
         4           C   tau(   4) = (   0.0000000   0.1154701   0.0000000  )
         5           C   tau(   5) = (  -0.1000000   0.1732051   0.0000000  )
         6           C   tau(   6) = (  -0.1000000   0.2886751   0.0000000  )
         7           C   tau(   7) = (  -0.2000000   0.3464102   0.0000000  )
         8           C   tau(   8) = (  -0.2000000   0.4618802   0.0000000  )
         9           C   tau(   9) = (  -0.3000000   0.5196152   0.0000000  )
        10           C   tau(  10) = (  -0.3000000   0.6350853   0.0000000  )
        11           C   tau(  11) = (  -0.4000000   0.6928203   0.0000000  )
        12           C   tau(  12) = (  -0.4000000   0.8082904   0.0000000  )
        13           C   tau(  13) = (   0.2000000   0.0000000   0.0000000  )
        14           C   tau(  14) = (   0.2000000   0.1154701   0.0000000  )
        15           C   tau(  15) = (   0.1000000   0.1732051   0.0000000  )
        16           C   tau(  16) = (   0.1000000   0.2886751   0.0000000  )
        17           C   tau(  17) = (   0.0000000   0.3464102   0.0000000  )
        18           C   tau(  18) = (   0.0000000   0.4618802   0.0000000  )
        19           C   tau(  19) = (  -0.1000000   0.5196152   0.0000000  )
        20           C   tau(  20) = (  -0.1000000   0.6350853   0.0000000  )
        21           C   tau(  21) = (  -0.2000000   0.6928203   0.0000000  )
        22           C   tau(  22) = (  -0.2000000   0.8082904   0.0000000  )
        23           C   tau(  23) = (   0.4000000   0.0000000   0.0000000  )
        24           C   tau(  24) = (   0.4000000   0.1154701   0.0000000  )
        25           C   tau(  25) = (   0.3000000   0.1732051   0.0000000  )
        26           C   tau(  26) = (   0.3000000   0.2886751   0.0000000  )
        27           C   tau(  27) = (   0.2000000   0.3464102   0.0000000  )
        28           V   tau(  28) = (   0.2000000   0.4618802   0.0000000  )
        29           C   tau(  29) = (   0.1000000   0.5196152   0.0000000  )
        30           C   tau(  30) = (   0.1000000   0.6350853   0.0000000  )
        31           C   tau(  31) = (   0.0000000   0.6928203   0.0000000  )
        32           C   tau(  32) = (   0.0000000   0.8082904   0.0000000  )
        33           C   tau(  33) = (   0.6000000   0.0000000   0.0000000  )
        34           C   tau(  34) = (   0.6000000   0.1154701   0.0000000  )
        35           C   tau(  35) = (   0.5000000   0.1732051   0.0000000  )
        36           C   tau(  36) = (   0.5000000   0.2886751   0.0000000  )
        37           C   tau(  37) = (   0.4000000   0.3464102   0.0000000  )
        38           C   tau(  38) = (   0.4000000   0.4618802   0.0000000  )
        39           C   tau(  39) = (   0.3000000   0.5196152   0.0000000  )
        40           C   tau(  40) = (   0.3000000   0.6350853   0.0000000  )
        41           C   tau(  41) = (   0.2000000   0.6928203   0.0000000  )
        42           C   tau(  42) = (   0.2000000   0.8082904   0.0000000  )
        43           C   tau(  43) = (   0.8000000   0.0000000   0.0000000  )
        44           C   tau(  44) = (   0.8000000   0.1154701   0.0000000  )
        45           C   tau(  45) = (   0.7000000   0.1732051   0.0000000  )
        46           C   tau(  46) = (   0.7000000   0.2886751   0.0000000  )
        47           C   tau(  47) = (   0.6000000   0.3464102   0.0000000  )
        48           C   tau(  48) = (   0.6000000   0.4618802   0.0000000  )
        49           C   tau(  49) = (   0.5000000   0.5196152   0.0000000  )
        50           C   tau(  50) = (   0.5000000   0.6350853   0.0000000  )
        51           C   tau(  51) = (   0.4000000   0.6928203   0.0000000  )
        52           C   tau(  52) = (   0.4000000   0.8082904   0.0000000  )

   Crystallographic axes

     site n.     atom                  positions (cryst. coord.)
         1           H   tau(   1) = (  0.4361603  0.5333333  0.2400000  )
         2           H   tau(   2) = (  0.4971730  0.5333333  0.2400000  )
         3           C   tau(   3) = (  0.0000000  0.0000000  0.0000000  )
         4           C   tau(   4) = (  0.0666667  0.1333333  0.0000000  )
         5           C   tau(   5) = (  0.0000000  0.2000000  0.0000000  )
         6           C   tau(   6) = (  0.0666667  0.3333333  0.0000000  )
         7           C   tau(   7) = (  0.0000000  0.4000000  0.0000000  )
         8           C   tau(   8) = (  0.0666667  0.5333333  0.0000000  )
         9           C   tau(   9) = (  0.0000000  0.6000000  0.0000000  )
        10           C   tau(  10) = (  0.0666667  0.7333333  0.0000000  )
        11           C   tau(  11) = (  0.0000000  0.8000000  0.0000000  )
        12           C   tau(  12) = (  0.0666667  0.9333333  0.0000000  )
        13           C   tau(  13) = (  0.2000000  0.0000000  0.0000000  )
        14           C   tau(  14) = (  0.2666667  0.1333333  0.0000000  )
        15           C   tau(  15) = (  0.2000000  0.2000000  0.0000000  )
        16           C   tau(  16) = (  0.2666667  0.3333333  0.0000000  )
        17           C   tau(  17) = (  0.2000000  0.4000000  0.0000000  )
        18           C   tau(  18) = (  0.2666667  0.5333333  0.0000000  )
        19           C   tau(  19) = (  0.2000000  0.6000000  0.0000000  )
        20           C   tau(  20) = (  0.2666667  0.7333333  0.0000000  )
        21           C   tau(  21) = (  0.2000000  0.8000000  0.0000000  )
        22           C   tau(  22) = (  0.2666667  0.9333333  0.0000000  )
        23           C   tau(  23) = (  0.4000000  0.0000000  0.0000000  )
        24           C   tau(  24) = (  0.4666667  0.1333333  0.0000000  )
        25           C   tau(  25) = (  0.4000000  0.2000000  0.0000000  )
        26           C   tau(  26) = (  0.4666667  0.3333333  0.0000000  )
        27           C   tau(  27) = (  0.4000000  0.4000000  0.0000000  )
        28           V   tau(  28) = (  0.4666667  0.5333333  0.0000000  )
        29           C   tau(  29) = (  0.4000000  0.6000000  0.0000000  )
        30           C   tau(  30) = (  0.4666667  0.7333333  0.0000000  )
        31           C   tau(  31) = (  0.4000000  0.8000000  0.0000000  )
        32           C   tau(  32) = (  0.4666667  0.9333333  0.0000000  )
        33           C   tau(  33) = (  0.6000000  0.0000000  0.0000000  )
        34           C   tau(  34) = (  0.6666667  0.1333333  0.0000000  )
        35           C   tau(  35) = (  0.6000000  0.2000000  0.0000000  )
        36           C   tau(  36) = (  0.6666667  0.3333333  0.0000000  )
        37           C   tau(  37) = (  0.6000000  0.4000000  0.0000000  )
        38           C   tau(  38) = (  0.6666667  0.5333333  0.0000000  )
        39           C   tau(  39) = (  0.6000000  0.6000000  0.0000000  )
        40           C   tau(  40) = (  0.6666667  0.7333333  0.0000000  )
        41           C   tau(  41) = (  0.6000000  0.8000000  0.0000000  )
        42           C   tau(  42) = (  0.6666667  0.9333333  0.0000000  )
        43           C   tau(  43) = (  0.8000000  0.0000000  0.0000000  )
        44           C   tau(  44) = (  0.8666667  0.1333333  0.0000000  )
        45           C   tau(  45) = (  0.8000000  0.2000000  0.0000000  )
        46           C   tau(  46) = (  0.8666667  0.3333333  0.0000000  )
        47           C   tau(  47) = (  0.8000000  0.4000000  0.0000000  )
        48           C   tau(  48) = (  0.8666667  0.5333333  0.0000000  )
        49           C   tau(  49) = (  0.8000000  0.6000000  0.0000000  )
        50           C   tau(  50) = (  0.8666667  0.7333333  0.0000000  )
        51           C   tau(  51) = (  0.8000000  0.8000000  0.0000000  )
        52           C   tau(  52) = (  0.8666667  0.9333333  0.0000000  )

     number of k points=     1  Marzari-Vanderbilt smearing, width (Ry)=  0.0010
                       cart. coord. in units 2pi/alat
        k(    1) = (   0.0000000   0.0000000   0.0000000), wk =   1.0000000

                       cryst. coord.
        k(    1) = (   0.0000000   0.0000000   0.0000000), wk =   1.0000000

     Check: negative core charge=   -0.000002

     Initial potential from superposition of free atoms

     starting charge  210.80465, renormalised to  211.00000

     negative rho (up, down):  1.301E-04 1.731E-02

Carrying out rVV10 run using the following parameters:
Nqs =      20    Nr_points =    1024   r_max =   100.000
b_value =  6.30000    beta =  0.00901
     q_mesh =  0.00010000  0.00030000  0.00058939  0.00100810
               0.00161396  0.00249058  0.00375900  0.00559430
               0.00824984  0.01209221  0.01765183  0.02569619
               0.03733578  0.05417739  0.07854596  0.11380545
               0.16482331  0.23864234  0.34545298  0.50000000

Gradients computed in Reciprocal space

     Starting wfcs are  208 randomized atomic wfcs

     Self-consistent Calculation

     iteration #  1     ecut=    70.00 Ry     beta= 0.70
     Davidson diagonalization with overlap
     ethr =  1.00E-02,  avg # of iterations =  3.0

[...]

     total energy              =    -752.39970422 Ry
     Harris-Foulkes estimate   =    -757.05500383 Ry
     estimated scf accuracy    <      12.57651714 Ry

     total magnetization       =     5.00 Bohr mag/cell
     absolute magnetization    =     6.00 Bohr mag/cell

[...]

     total energy              =    -757.34213228 Ry
     Harris-Foulkes estimate   =    -757.34213574 Ry
     estimated scf accuracy    <       0.00001006 Ry

[...]

     iteration # 27     ecut=    70.00 Ry     beta= 0.70
     Davidson diagonalization with overlap
     ethr =  4.77E-09,  avg # of iterations =  6.5

     negative rho (up, down):  3.376E-02 1.988E-03

     Magnetic moment per site:
     atom:    1    charge:    0.2096    magn:   -0.0000    constr:    0.0000
     atom:    2    charge:    0.2096    magn:   -0.0000    constr:    0.0000
     atom:    3    charge:    1.7175    magn:   -0.0074    constr:    0.0000
     atom:    4    charge:    1.7161    magn:    0.0109    constr:    0.0000
     atom:    5    charge:    1.7182    magn:   -0.0043    constr:    0.0000
     atom:    6    charge:    1.7141    magn:    0.0026    constr:    0.0000
     atom:    7    charge:    1.7185    magn:   -0.0038    constr:    0.0000
     atom:    8    charge:    1.7153    magn:    0.0069    constr:    0.0000
     atom:    9    charge:    1.7182    magn:   -0.0060    constr:    0.0000
     atom:   10    charge:    1.7127    magn:    0.0203    constr:    0.0000
     atom:   11    charge:    1.7187    magn:   -0.0090    constr:    0.0000
     atom:   12    charge:    1.7154    magn:    0.0364    constr:    0.0000
     atom:   13    charge:    1.7184    magn:   -0.0091    constr:    0.0000
     atom:   14    charge:    1.7135    magn:    0.0153    constr:    0.0000
     atom:   15    charge:    1.7173    magn:   -0.0067    constr:    0.0000
     atom:   16    charge:    1.7103    magn:    0.0224    constr:    0.0000
     atom:   17    charge:    1.7274    magn:   -0.0042    constr:    0.0000
     atom:   18    charge:    1.7107    magn:    0.0259    constr:    0.0000
     atom:   19    charge:    1.7170    magn:   -0.0076    constr:    0.0000
     atom:   20    charge:    1.7151    magn:    0.0271    constr:    0.0000
     atom:   21    charge:    1.7187    magn:   -0.0090    constr:    0.0000
     atom:   22    charge:    1.7152    magn:    0.0364    constr:    0.0000
     atom:   23    charge:    1.7175    magn:   -0.0074    constr:    0.0000
     atom:   24    charge:    1.7160    magn:    0.0109    constr:    0.0000
     atom:   25    charge:    1.7173    magn:   -0.0067    constr:    0.0000
     atom:   26    charge:    1.7102    magn:    0.0224    constr:    0.0000
     atom:   27    charge:    1.9150    magn:   -0.0021    constr:    0.0000
     atom:   28    charge:    7.8592    magn:    0.1003    constr:    0.0000
     atom:   29    charge:    1.9145    magn:    0.0002    constr:    0.0000
     atom:   30    charge:    1.7127    magn:    0.0412    constr:    0.0000
     atom:   31    charge:    1.7166    magn:   -0.0096    constr:    0.0000
     atom:   32    charge:    1.7157    magn:    0.0107    constr:    0.0000
     atom:   33    charge:    1.7183    magn:   -0.0047    constr:    0.0000
     atom:   34    charge:    1.7139    magn:    0.0079    constr:    0.0000
     atom:   35    charge:    1.7182    magn:   -0.0043    constr:    0.0000
     atom:   36    charge:    1.7141    magn:    0.0026    constr:    0.0000
     atom:   37    charge:    1.7274    magn:   -0.0042    constr:    0.0000
     atom:   38    charge:    1.7105    magn:    0.0259    constr:    0.0000
     atom:   39    charge:    1.9144    magn:    0.0002    constr:    0.0000
     atom:   40    charge:    1.7127    magn:    0.0412    constr:    0.0000
     atom:   41    charge:    1.7264    magn:   -0.0073    constr:    0.0000
     atom:   42    charge:    1.7141    magn:    0.0030    constr:    0.0000
     atom:   43    charge:    1.7183    magn:   -0.0047    constr:    0.0000
     atom:   44    charge:    1.7140    magn:    0.0079    constr:    0.0000
     atom:   45    charge:    1.7247    magn:   -0.0031    constr:    0.0000
     atom:   46    charge:    1.7135    magn:    0.0051    constr:    0.0000
     atom:   47    charge:    1.7185    magn:   -0.0038    constr:    0.0000
     atom:   48    charge:    1.7153    magn:    0.0069    constr:    0.0000
     atom:   49    charge:    1.7170    magn:   -0.0076    constr:    0.0000
     atom:   50    charge:    1.7150    magn:    0.0271    constr:    0.0000
     atom:   51    charge:    1.7166    magn:   -0.0096    constr:    0.0000
     atom:   52    charge:    1.7158    magn:    0.0107    constr:    0.0000

     End of self-consistent calculation

 ------ SPIN UP ------------

          k = 0.0000 0.0000 0.0000 ( 87777 PWs)   bands (ev):

   -62.7948 -37.8974 -37.8697 -36.5511 -19.6115 -18.7825 -18.7542 -18.6989
   -18.6593 -18.6451 -18.2135 -16.9168 -16.9154 -16.9057 -16.7803 -16.7681
   -16.4925 -16.0586 -16.0581 -15.9646 -15.8089 -15.8080 -15.0574 -13.8709
   -13.8708 -13.8567 -13.8370 -13.8366 -13.1080 -12.8951 -12.8917 -12.8754
   -12.4816 -12.4795 -12.0898 -11.6221 -11.6181 -11.4962 -11.1145 -11.1139
   -10.1305  -9.3132  -9.3088  -9.2309  -9.1597  -9.1574  -9.0688  -9.0446
    -9.0424  -9.0278  -8.4405  -8.4375  -8.2315  -7.8716  -7.8654  -7.8328
    -7.7181  -7.6514  -7.2339  -7.2259  -6.9438  -6.9434  -6.8682  -6.6805
    -6.6759  -6.6729  -6.5678  -6.5637  -6.5190  -6.4166  -6.4047  -6.3715
    -6.3586  -6.3583  -6.3088  -6.1976  -5.2386  -5.2319  -5.1417  -5.1337
    -4.9206  -4.9197  -4.8097  -4.7217  -4.5997  -4.5886  -4.5856  -4.2027
    -3.9636  -3.9635  -3.7399  -3.7364  -3.6364  -3.5858  -3.4748  -3.4731
    -2.8272  -2.2422  -2.2339  -2.1908  -2.1778  -1.7254  -1.6622  -1.6569
    -0.4668  -0.2209  -0.2137   1.0710   1.0978   1.1047   1.4526   1.8956
     2.0719   2.0759   2.5174   2.9047   2.9204   2.9986   3.1102   3.4666
     3.6784   3.7461   3.7509   3.7992   3.9435   4.0173   4.0264

     occupation numbers
     1.0000   1.0000   1.0000   1.0000   1.0000   1.0000   1.0000   1.0000
     1.0000   1.0000   1.0000   1.0000   1.0000   1.0000   1.0000   1.0000
     1.0000   1.0000   1.0000   1.0000   1.0000   1.0000   1.0000   1.0000
     1.0000   1.0000   1.0000   1.0000   1.0000   1.0000   1.0000   1.0000
     1.0000   1.0000   1.0000   1.0000   1.0000   1.0000   1.0000   1.0000
     1.0000   1.0000   1.0000   1.0000   1.0000   1.0000   1.0000   1.0000
     1.0000   1.0000   1.0000   1.0000   1.0000   1.0000   1.0000   1.0000
     1.0000   1.0000   1.0000   1.0000   1.0000   1.0000   1.0000   1.0000
     1.0000   1.0000   1.0000   1.0000   1.0000   1.0000   1.0000   1.0000
     1.0000   1.0000   1.0000   1.0000   1.0000   1.0000   1.0000   1.0000
     1.0000   1.0000   1.0000   1.0000   1.0000   1.0000   1.0000   1.0000
     1.0000   1.0000   1.0000   1.0000   1.0000   1.0000   1.0000   1.0000
     1.0000   1.0000   1.0000   1.0000   1.0000   1.0000   1.0000   1.0000
     1.0000   0.6870   0.3130   0.0000   0.0000   0.0000   0.0000   0.0000
     0.0000   0.0000   0.0000   0.0000   0.0000   0.0000   0.0000   0.0000
     0.0000   0.0000   0.0000   0.0000   0.0000   0.0000   0.0000

 ------ SPIN DOWN ----------

          k = 0.0000 0.0000 0.0000 ( 87777 PWs)   bands (ev):

   -62.6016 -37.7707 -37.6775 -36.2867 -19.5899 -18.7651 -18.7287 -18.6787
   -18.6439 -18.6273 -18.1810 -16.9019 -16.8989 -16.8837 -16.7546 -16.7373
   -16.4781 -16.0334 -16.0290 -15.9484 -15.7872 -15.7870 -15.0425 -13.8427
   -13.8392 -13.8309 -13.8298 -13.8027 -13.1114 -12.8853 -12.8800 -12.8598
   -12.4743 -12.4706 -12.0714 -11.6028 -11.6015 -11.4829 -11.1036 -11.0997
   -10.1160  -9.2978  -9.2904  -9.2181  -9.1438  -9.1390  -9.0606  -9.0301
    -9.0287  -9.0176  -8.4346  -8.4298  -8.2194  -7.8605  -7.8536  -7.8252
    -7.6742  -7.6429  -7.2248  -7.2173  -6.8738  -6.8606  -6.8478  -6.6486
    -6.6404  -6.6243  -6.5562  -6.5530  -6.5095  -6.4077  -6.3944  -6.3667
    -6.3525  -6.3497  -6.3005  -6.1189  -5.2310  -5.2226  -5.0648  -5.0433
    -4.9111  -4.9095  -4.8039  -4.7156  -4.5603  -4.5423  -4.5274  -4.1651
    -3.9205  -3.9049  -3.6653  -3.6628  -3.5888  -3.5563  -3.4688  -3.4658
    -2.7917  -2.1765  -2.1658  -2.1301  -2.1080  -1.6510  -1.6425  -1.6256
    -0.4643  -0.0319   0.0505   1.1171   1.1250   1.1515   1.5286   1.9621
     2.1334   2.1542   2.5242   2.9718   2.9892   3.0418   3.1269   3.4737
     3.7030   3.7476   3.7540   3.8084   3.9712   4.0869   4.0976

     occupation numbers
     1.0000   1.0000   1.0000   1.0000   1.0000   1.0000   1.0000   1.0000
     1.0000   1.0000   1.0000   1.0000   1.0000   1.0000   1.0000   1.0000
     1.0000   1.0000   1.0000   1.0000   1.0000   1.0000   1.0000   1.0000
     1.0000   1.0000   1.0000   1.0000   1.0000   1.0000   1.0000   1.0000
     1.0000   1.0000   1.0000   1.0000   1.0000   1.0000   1.0000   1.0000
     1.0000   1.0000   1.0000   1.0000   1.0000   1.0000   1.0000   1.0000
     1.0000   1.0000   1.0000   1.0000   1.0000   1.0000   1.0000   1.0000
     1.0000   1.0000   1.0000   1.0000   1.0000   1.0000   1.0000   1.0000
     1.0000   1.0000   1.0000   1.0000   1.0000   1.0000   1.0000   1.0000
     1.0000   1.0000   1.0000   1.0000   1.0000   1.0000   1.0000   1.0000
     1.0000   1.0000   1.0000   1.0000   1.0000   1.0000   1.0000   1.0000
     1.0000   1.0000   1.0000   1.0000   1.0000   1.0000   1.0000   1.0000
     1.0000   1.0000   1.0000   1.0000   1.0000   1.0000   1.0000   1.0000
     1.0000   0.0000   0.0000   0.0000   0.0000   0.0000   0.0000   0.0000
     0.0000   0.0000   0.0000   0.0000   0.0000   0.0000   0.0000   0.0000
     0.0000   0.0000   0.0000   0.0000   0.0000   0.0000   0.0000

     the Fermi energy is    -0.2156 ev

!    total energy              =    -757.34213660 Ry
     Harris-Foulkes estimate   =    -757.34213668 Ry
     estimated scf accuracy    <       0.00000087 Ry

     The total energy is the sum of the following terms:

     one-electron contribution =   -2600.35815666 Ry
     hartree contribution      =    1347.14413707 Ry
     xc contribution           =    -252.69099253 Ry
     ewald contribution        =     748.56315548 Ry
     smearing contrib. (-TS)   =      -0.00027996 Ry

     total magnetization       =     1.00 Bohr mag/cell
     absolute magnetization    =     1.55 Bohr mag/cell

     convergence has been achieved in  27 iterations

     Writing output data file vanadio-top-distance-2.4.save/

     General routines

     Parallel routines

   This run was terminated on:  23:30: 5  31Aug2022

   JOB DONE.