     Program PWSCF v.6.4.1 starts on  1Sep2022 at  0:16:38

     R & G space division:  proc/nbgrp/npool/nimage =       5
     Reading input from distance-2.0.in

     Current dimensions of program PWSCF are:
     Max number of different atomic species (ntypx) = 10
     Max number of k-points (npk) =  40000
     Max angular momentum in pseudopotentials (lmaxx) =  3

     IMPORTANT: XC functional enforced from input :
     Exchange-correlation      = RVV10 ( 1  4 13  4 3 0)
     Any further DFT definition will be discarded
     Please, verify this is what you really want

               file H.pbe-rrkjus.UPF: wavefunction(s)  1S renormalized
               file V.pbe-spnl-rrkjus_psl.1.0.0.UPF: wavefunction(s)  3P 3D renormalized

     Subspace diagonalization in iterative solution of the eigenvalue problem:
     a serial algorithm will be used

     bravais-lattice index     =            4
     lattice parameter (alat)  =      23.2937  a.u.
     unit-cell volume          =    8879.8548 (a.u.)^3
     number of atoms/cell      =           52
     number of atomic types    =            3
     number of electrons       =       211.00
     number of Kohn-Sham states=          127
     kinetic-energy cutoff     =      70.0000  Ry
     charge density cutoff     =     490.0000  Ry
     convergence threshold     =      1.0E-06
     mixing beta               =       0.7000
     number of iterations used =            8  plain     mixing
     Exchange-correlation      = RVV10 ( 1  4 13  4 3 0)

     celldm(1)=  23.293684  celldm(2)=   0.000000  celldm(3)=   0.811261
     celldm(4)=   0.000000  celldm(5)=   0.000000  celldm(6)=   0.000000

     crystal axes: (cart. coord. in units of alat)
               a(1) = (   1.000000   0.000000   0.000000 )
               a(2) = (  -0.500000   0.866025   0.000000 )
               a(3) = (   0.000000   0.000000   0.811261 )

     reciprocal axes: (cart. coord. in units 2 pi/alat)
               b(1) = (  1.000000  0.577350 -0.000000 )
               b(2) = (  0.000000  1.154701  0.000000 )
               b(3) = (  0.000000 -0.000000  1.232649 )

     PseudoPot. # 1 for H  read from file:
     /home/cristian/Escritorio/Proyecto_Grafeno/pseudopotenciales/H.pbe-rrkjus.UPF
     MD5 check sum: 7cc9d459525c9a0585f487a71c3c9563
     Pseudo is Ultrasoft, Zval =  1.0
     Generated by new atomic code, or converted to UPF format
     Using radial grid of 1061 points,  2 beta functions with:
                l(1) =   0
                l(2) =   0
     Q(r) pseudized with 0 coefficients

     PseudoPot. # 2 for C  read from file:
     /home/cristian/Escritorio/Proyecto_Grafeno/pseudopotenciales/C.pbe-n-rrkjus_psl.1.0.0.UPF
     MD5 check sum: 1fdd950c42eb37d8afe3dd2f8d12311e
     Pseudo is Ultrasoft + core correction, Zval =  4.0
     Generated using "atomic" code by A. Dal Corso v.6.3MaX
     Using radial grid of 1073 points,  4 beta functions with:
                l(1) =   0
                l(2) =   0
                l(3) =   1
                l(4) =   1
     Q(r) pseudized with 0 coefficients

     PseudoPot. # 3 for V  read from file:
     /home/cristian/Escritorio/Proyecto_Grafeno/pseudopotenciales/V.pbe-spnl-rrkjus_psl.1.0.0.UPF
     MD5 check sum: 79b3eb63147daf0b665d9f1bcc691206
     Pseudo is Ultrasoft + core correction, Zval = 13.0
     Generated using "atomic" code by A. Dal Corso v.6.2.2
     Using radial grid of 1181 points,  6 beta functions with:
                l(1) =   0
                l(2) =   0
                l(3) =   1
                l(4) =   1
                l(5) =   2
                l(6) =   2
     Q(r) pseudized with 0 coefficients

     vdW kernel table read from file rVV10_kernel_table
     MD5 check sum: b8e2538accc0c0b3206b45ba4daaba6c

     atomic species   valence    mass     pseudopotential
        H              1.00     1.00794     H ( 1.00)
        C              4.00    12.01070     C ( 1.00)
        V             13.00    50.94150     V ( 1.00)

     Starting magnetic structure
     atomic species   magnetization
        H            0.500
        C            0.300
        V            0.800

     No symmetry found

                                    s                        frac. trans.

      isym =  1     identity

 cryst.   s( 1) = (     1          0          0      )
                  (     0          1          0      )
                  (     0          0          1      )

 cart.    s( 1) = (  1.0000000  0.0000000  0.0000000 )
                  (  0.0000000  1.0000000  0.0000000 )
                  (  0.0000000  0.0000000  1.0000000 )

     point group C_1 (1)
     there are  1 classes
     the character table:

       E
A      1.00

     the symmetry operations in each class and the name of the first element:

     E        1
          identity

   Cartesian axes

     site n.     atom                  positions (alat units)
         1           H   tau(   1) = (   0.1694937   0.4618802   0.1622522  )
         2           H   tau(   2) = (   0.2305063   0.4618802   0.1622522  )
         3           C   tau(   3) = (   0.0000000   0.0000000   0.0000000  )
         4           C   tau(   4) = (   0.0000000   0.1154701   0.0000000  )
         5           C   tau(   5) = (  -0.1000000   0.1732051   0.0000000  )
         6           C   tau(   6) = (  -0.1000000   0.2886751   0.0000000  )
         7           C   tau(   7) = (  -0.2000000   0.3464102   0.0000000  )
         8           C   tau(   8) = (  -0.2000000   0.4618802   0.0000000  )
         9           C   tau(   9) = (  -0.3000000   0.5196152   0.0000000  )
        10           C   tau(  10) = (  -0.3000000   0.6350853   0.0000000  )
        11           C   tau(  11) = (  -0.4000000   0.6928203   0.0000000  )
        12           C   tau(  12) = (  -0.4000000   0.8082904   0.0000000  )
        13           C   tau(  13) = (   0.2000000   0.0000000   0.0000000  )
        14           C   tau(  14) = (   0.2000000   0.1154701   0.0000000  )
        15           C   tau(  15) = (   0.1000000   0.1732051   0.0000000  )
        16           C   tau(  16) = (   0.1000000   0.2886751   0.0000000  )
        17           C   tau(  17) = (   0.0000000   0.3464102   0.0000000  )
        18           C   tau(  18) = (   0.0000000   0.4618802   0.0000000  )
        19           C   tau(  19) = (  -0.1000000   0.5196152   0.0000000  )
        20           C   tau(  20) = (  -0.1000000   0.6350853   0.0000000  )
        21           C   tau(  21) = (  -0.2000000   0.6928203   0.0000000  )
        22           C   tau(  22) = (  -0.2000000   0.8082904   0.0000000  )
        23           C   tau(  23) = (   0.4000000   0.0000000   0.0000000  )
        24           C   tau(  24) = (   0.4000000   0.1154701   0.0000000  )
        25           C   tau(  25) = (   0.3000000   0.1732051   0.0000000  )
        26           C   tau(  26) = (   0.3000000   0.2886751   0.0000000  )
        27           C   tau(  27) = (   0.2000000   0.3464102   0.0000000  )
        28           V   tau(  28) = (   0.2000000   0.4618802   0.0000000  )
        29           C   tau(  29) = (   0.1000000   0.5196152   0.0000000  )
        30           C   tau(  30) = (   0.1000000   0.6350853   0.0000000  )
        31           C   tau(  31) = (   0.0000000   0.6928203   0.0000000  )
        32           C   tau(  32) = (   0.0000000   0.8082904   0.0000000  )
        33           C   tau(  33) = (   0.6000000   0.0000000   0.0000000  )
        34           C   tau(  34) = (   0.6000000   0.1154701   0.0000000  )
        35           C   tau(  35) = (   0.5000000   0.1732051   0.0000000  )
        36           C   tau(  36) = (   0.5000000   0.2886751   0.0000000  )
        37           C   tau(  37) = (   0.4000000   0.3464102   0.0000000  )
        38           C   tau(  38) = (   0.4000000   0.4618802   0.0000000  )
        39           C   tau(  39) = (   0.3000000   0.5196152   0.0000000  )
        40           C   tau(  40) = (   0.3000000   0.6350853   0.0000000  )
        41           C   tau(  41) = (   0.2000000   0.6928203   0.0000000  )
        42           C   tau(  42) = (   0.2000000   0.8082904   0.0000000  )
        43           C   tau(  43) = (   0.8000000   0.0000000   0.0000000  )
        44           C   tau(  44) = (   0.8000000   0.1154701   0.0000000  )
        45           C   tau(  45) = (   0.7000000   0.1732051   0.0000000  )
        46           C   tau(  46) = (   0.7000000   0.2886751   0.0000000  )
        47           C   tau(  47) = (   0.6000000   0.3464102   0.0000000  )
        48           C   tau(  48) = (   0.6000000   0.4618802   0.0000000  )
        49           C   tau(  49) = (   0.5000000   0.5196152   0.0000000  )
        50           C   tau(  50) = (   0.5000000   0.6350853   0.0000000  )
        51           C   tau(  51) = (   0.4000000   0.6928203   0.0000000  )
        52           C   tau(  52) = (   0.4000000   0.8082904   0.0000000  )

   Crystallographic axes

     site n.     atom                  positions (cryst. coord.)
         1           H   tau(   1) = (  0.4361603  0.5333333  0.2000000  )
         2           H   tau(   2) = (  0.4971730  0.5333333  0.2000000  )
         3           C   tau(   3) = (  0.0000000  0.0000000  0.0000000  )
         4           C   tau(   4) = (  0.0666667  0.1333333  0.0000000  )
         5           C   tau(   5) = (  0.0000000  0.2000000  0.0000000  )
         6           C   tau(   6) = (  0.0666667  0.3333333  0.0000000  )
         7           C   tau(   7) = (  0.0000000  0.4000000  0.0000000  )
         8           C   tau(   8) = (  0.0666667  0.5333333  0.0000000  )
         9           C   tau(   9) = (  0.0000000  0.6000000  0.0000000  )
        10           C   tau(  10) = (  0.0666667  0.7333333  0.0000000  )
        11           C   tau(  11) = (  0.0000000  0.8000000  0.0000000  )
        12           C   tau(  12) = (  0.0666667  0.9333333  0.0000000  )
        13           C   tau(  13) = (  0.2000000  0.0000000  0.0000000  )
        14           C   tau(  14) = (  0.2666667  0.1333333  0.0000000  )
        15           C   tau(  15) = (  0.2000000  0.2000000  0.0000000  )
        16           C   tau(  16) = (  0.2666667  0.3333333  0.0000000  )
        17           C   tau(  17) = (  0.2000000  0.4000000  0.0000000  )
        18           C   tau(  18) = (  0.2666667  0.5333333  0.0000000  )
        19           C   tau(  19) = (  0.2000000  0.6000000  0.0000000  )
        20           C   tau(  20) = (  0.2666667  0.7333333  0.0000000  )
        21           C   tau(  21) = (  0.2000000  0.8000000  0.0000000  )
        22           C   tau(  22) = (  0.2666667  0.9333333  0.0000000  )
        23           C   tau(  23) = (  0.4000000  0.0000000  0.0000000  )
        24           C   tau(  24) = (  0.4666667  0.1333333  0.0000000  )
        25           C   tau(  25) = (  0.4000000  0.2000000  0.0000000  )
        26           C   tau(  26) = (  0.4666667  0.3333333  0.0000000  )
        27           C   tau(  27) = (  0.4000000  0.4000000  0.0000000  )
        28           V   tau(  28) = (  0.4666667  0.5333333  0.0000000  )
        29           C   tau(  29) = (  0.4000000  0.6000000  0.0000000  )
        30           C   tau(  30) = (  0.4666667  0.7333333  0.0000000  )
        31           C   tau(  31) = (  0.4000000  0.8000000  0.0000000  )
        32           C   tau(  32) = (  0.4666667  0.9333333  0.0000000  )
        33           C   tau(  33) = (  0.6000000  0.0000000  0.0000000  )
        34           C   tau(  34) = (  0.6666667  0.1333333  0.0000000  )
        35           C   tau(  35) = (  0.6000000  0.2000000  0.0000000  )
        36           C   tau(  36) = (  0.6666667  0.3333333  0.0000000  )
        37           C   tau(  37) = (  0.6000000  0.4000000  0.0000000  )
        38           C   tau(  38) = (  0.6666667  0.5333333  0.0000000  )
        39           C   tau(  39) = (  0.6000000  0.6000000  0.0000000  )
        40           C   tau(  40) = (  0.6666667  0.7333333  0.0000000  )
        41           C   tau(  41) = (  0.6000000  0.8000000  0.0000000  )
        42           C   tau(  42) = (  0.6666667  0.9333333  0.0000000  )
        43           C   tau(  43) = (  0.8000000  0.0000000  0.0000000  )
        44           C   tau(  44) = (  0.8666667  0.1333333  0.0000000  )
        45           C   tau(  45) = (  0.8000000  0.2000000  0.0000000  )
        46           C   tau(  46) = (  0.8666667  0.3333333  0.0000000  )
        47           C   tau(  47) = (  0.8000000  0.4000000  0.0000000  )
        48           C   tau(  48) = (  0.8666667  0.5333333  0.0000000  )
        49           C   tau(  49) = (  0.8000000  0.6000000  0.0000000  )
        50           C   tau(  50) = (  0.8666667  0.7333333  0.0000000  )
        51           C   tau(  51) = (  0.8000000  0.8000000  0.0000000  )
        52           C   tau(  52) = (  0.8666667  0.9333333  0.0000000  )

     number of k points=     1  Marzari-Vanderbilt smearing, width (Ry)=  0.0010
                       cart. coord. in units 2pi/alat
        k(    1) = (   0.0000000   0.0000000   0.0000000), wk =   1.0000000

                       cryst. coord.
        k(    1) = (   0.0000000   0.0000000   0.0000000), wk =   1.0000000

     Check: negative core charge=   -0.000002

     Initial potential from superposition of free atoms

     starting charge  210.80465, renormalised to  211.00000

     negative rho (up, down):  1.438E-04 1.951E-02

Carrying out rVV10 run using the following parameters:
Nqs =      20    Nr_points =    1024   r_max =   100.000
b_value =  6.30000    beta =  0.00901
     q_mesh =  0.00010000  0.00030000  0.00058939  0.00100810
               0.00161396  0.00249058  0.00375900  0.00559430
               0.00824984  0.01209221  0.01765183  0.02569619
               0.03733578  0.05417739  0.07854596  0.11380545
               0.16482331  0.23864234  0.34545298  0.50000000

Gradients computed in Reciprocal space

     Starting wfcs are  208 randomized atomic wfcs

     Self-consistent Calculation

     iteration #  1     ecut=    70.00 Ry     beta= 0.70
     Davidson diagonalization with overlap
     ethr =  1.00E-02,  avg # of iterations =  4.5

[...]

     total energy              =    -749.51498371 Ry
     Harris-Foulkes estimate   =    -757.26128700 Ry
     estimated scf accuracy    <      15.86043806 Ry

     total magnetization       =     7.00 Bohr mag/cell
     absolute magnetization    =     7.60 Bohr mag/cell

[...]

     total energy              =    -757.34378887 Ry
     Harris-Foulkes estimate   =    -757.34378819 Ry
     estimated scf accuracy    <       0.00001753 Ry

[...]

     iteration # 22     ecut=    70.00 Ry     beta= 0.70
     Davidson diagonalization with overlap
     ethr =  5.47E-09,  avg # of iterations =  1.5

     negative rho (up, down):  3.258E-02 2.586E-03

     Magnetic moment per site:
     atom:    1    charge:    0.2127    magn:    0.0003    constr:    0.0000
     atom:    2    charge:    0.2127    magn:    0.0003    constr:    0.0000
     atom:    3    charge:    1.7171    magn:   -0.0080    constr:    0.0000
     atom:    4    charge:    1.7166    magn:    0.0132    constr:    0.0000
     atom:    5    charge:    1.7181    magn:   -0.0041    constr:    0.0000
     atom:    6    charge:    1.7141    magn:    0.0022    constr:    0.0000
     atom:    7    charge:    1.7188    magn:   -0.0030    constr:    0.0000
     atom:    8    charge:    1.7147    magn:    0.0025    constr:    0.0000
     atom:    9    charge:    1.7191    magn:   -0.0041    constr:    0.0000
     atom:   10    charge:    1.7099    magn:    0.0024    constr:    0.0000
     atom:   11    charge:    1.7188    magn:   -0.0088    constr:    0.0000
     atom:   12    charge:    1.7166    magn:    0.0453    constr:    0.0000
     atom:   13    charge:    1.7182    magn:   -0.0090    constr:    0.0000
     atom:   14    charge:    1.7120    magn:    0.0019    constr:    0.0000
     atom:   15    charge:    1.7178    magn:   -0.0044    constr:    0.0000
     atom:   16    charge:    1.7092    magn:    0.0103    constr:    0.0000
     atom:   17    charge:    1.7280    magn:   -0.0025    constr:    0.0000
     atom:   18    charge:    1.7100    magn:    0.0202    constr:    0.0000
     atom:   19    charge:    1.7170    magn:   -0.0070    constr:    0.0000
     atom:   20    charge:    1.7158    magn:    0.0337    constr:    0.0000
     atom:   21    charge:    1.7188    magn:   -0.0088    constr:    0.0000
     atom:   22    charge:    1.7165    magn:    0.0450    constr:    0.0000
     atom:   23    charge:    1.7171    magn:   -0.0080    constr:    0.0000
     atom:   24    charge:    1.7166    magn:    0.0132    constr:    0.0000
     atom:   25    charge:    1.7178    magn:   -0.0043    constr:    0.0000
     atom:   26    charge:    1.7091    magn:    0.0100    constr:    0.0000
     atom:   27    charge:    1.9148    magn:   -0.0051    constr:    0.0000
     atom:   28    charge:    7.8576    magn:    0.0947    constr:    0.0000
     atom:   29    charge:    1.9127    magn:    0.0002    constr:    0.0000
     atom:   30    charge:    1.7153    magn:    0.0604    constr:    0.0000
     atom:   31    charge:    1.7160    magn:   -0.0122    constr:    0.0000
     atom:   32    charge:    1.7157    magn:    0.0124    constr:    0.0000
     atom:   33    charge:    1.7182    magn:   -0.0051    constr:    0.0000
     atom:   34    charge:    1.7141    magn:    0.0093    constr:    0.0000
     atom:   35    charge:    1.7181    magn:   -0.0041    constr:    0.0000
     atom:   36    charge:    1.7141    magn:    0.0022    constr:    0.0000
     atom:   37    charge:    1.7281    magn:   -0.0025    constr:    0.0000
     atom:   38    charge:    1.7098    magn:    0.0198    constr:    0.0000
     atom:   39    charge:    1.9126    magn:    0.0002    constr:    0.0000
     atom:   40    charge:    1.7153    magn:    0.0603    constr:    0.0000
     atom:   41    charge:    1.7253    magn:   -0.0103    constr:    0.0000
     atom:   42    charge:    1.7141    magn:    0.0032    constr:    0.0000
     atom:   43    charge:    1.7182    magn:   -0.0051    constr:    0.0000
     atom:   44    charge:    1.7141    magn:    0.0094    constr:    0.0000
     atom:   45    charge:    1.7248    magn:   -0.0028    constr:    0.0000
     atom:   46    charge:    1.7130    magn:    0.0018    constr:    0.0000
     atom:   47    charge:    1.7188    magn:   -0.0030    constr:    0.0000
     atom:   48    charge:    1.7148    magn:    0.0025    constr:    0.0000
     atom:   49    charge:    1.7171    magn:   -0.0069    constr:    0.0000
     atom:   50    charge:    1.7158    magn:    0.0335    constr:    0.0000
     atom:   51    charge:    1.7160    magn:   -0.0122    constr:    0.0000
     atom:   52    charge:    1.7158    magn:    0.0125    constr:    0.0000

     End of self-consistent calculation

 ------ SPIN UP ------------

          k = 0.0000 0.0000 0.0000 ( 87777 PWs)   bands (ev):

   -62.7523 -37.8876 -37.8147 -36.5054 -19.6159 -18.8100 -18.7339 -18.7037
   -18.6719 -18.6350 -18.2142 -16.9252 -16.9249 -16.8972 -16.7934 -16.7601
   -16.4952 -16.0599 -16.0589 -15.9655 -15.8117 -15.8100 -15.0631 -13.8883
   -13.8783 -13.8541 -13.8360 -13.8268 -13.1133 -12.8993 -12.8926 -12.8755
   -12.4877 -12.4808 -12.0947 -11.6277 -11.6175 -11.4979 -11.1172 -11.1157
   -10.1533  -9.3203  -9.3085  -9.2330  -9.1677  -9.1619  -9.0718  -9.0449
    -9.0428  -9.0266  -8.9971  -8.4449  -8.4374  -7.8783  -7.8620  -7.8335
    -7.7376  -7.6533  -7.2435  -7.2223  -6.9578  -6.9536  -6.8679  -6.6877
    -6.6742  -6.6708  -6.5753  -6.5667  -6.5230  -6.4252  -6.4038  -6.3801
    -6.3534  -6.3466  -6.3086  -6.1541  -5.2468  -5.2315  -5.1686  -5.1456
    -4.9230  -4.9202  -4.8109  -4.7219  -4.6051  -4.5948  -4.5827  -4.1920
    -3.9716  -3.9689  -3.7449  -3.7355  -3.6376  -3.5694  -3.4775  -3.4728
    -2.7898  -2.2633  -2.2367  -2.1890  -2.1582  -1.7277  -1.6670  -1.6549
    -0.4343  -0.2460  -0.2145   1.0632   1.0940   1.1058   1.7033   2.0599
     2.0762   2.2162   2.5166   2.8947   2.9219   2.9982   3.1274   3.4822
     3.6650   3.7455   3.7565   3.8062   3.9387   4.0194   4.0306

     occupation numbers
     1.0000   1.0000   1.0000   1.0000   1.0000   1.0000   1.0000   1.0000
     1.0000   1.0000   1.0000   1.0000   1.0000   1.0000   1.0000   1.0000
     1.0000   1.0000   1.0000   1.0000   1.0000   1.0000   1.0000   1.0000
     1.0000   1.0000   1.0000   1.0000   1.0000   1.0000   1.0000   1.0000
     1.0000   1.0000   1.0000   1.0000   1.0000   1.0000   1.0000   1.0000
     1.0000   1.0000   1.0000   1.0000   1.0000   1.0000   1.0000   1.0000
     1.0000   1.0000   1.0000   1.0000   1.0000   1.0000   1.0000   1.0000
     1.0000   1.0000   1.0000   1.0000   1.0000   1.0000   1.0000   1.0000
     1.0000   1.0000   1.0000   1.0000   1.0000   1.0000   1.0000   1.0000
     1.0000   1.0000   1.0000   1.0000   1.0000   1.0000   1.0000   1.0000
     1.0000   1.0000   1.0000   1.0000   1.0000   1.0000   1.0000   1.0000
     1.0000   1.0000   1.0000   1.0000   1.0000   1.0000   1.0000   1.0000
     1.0000   1.0000   1.0000   1.0000   1.0000   1.0000   1.0000   1.0000
     1.0000   0.9942   0.0058   0.0000   0.0000   0.0000   0.0000   0.0000
     0.0000   0.0000   0.0000   0.0000   0.0000   0.0000   0.0000   0.0000
     0.0000   0.0000   0.0000   0.0000   0.0000   0.0000   0.0000

 ------ SPIN DOWN ----------

          k = 0.0000 0.0000 0.0000 ( 87777 PWs)   bands (ev):

   -62.5717 -37.8241 -37.5798 -36.2582 -19.5956 -18.8010 -18.7018 -18.6838
   -18.6591 -18.6164 -18.1799 -16.9140 -16.9127 -16.8695 -16.7737 -16.7250
   -16.4797 -16.0386 -16.0261 -15.9474 -15.7890 -15.7884 -15.0481 -13.8672
   -13.8602 -13.8311 -13.8246 -13.7734 -13.1162 -12.8912 -12.8784 -12.8602
   -12.4816 -12.4707 -12.0767 -11.6059 -11.6025 -11.4851 -11.1092 -11.0987
   -10.1385  -9.3078  -9.2877  -9.2208  -9.1559  -9.1433  -9.0635  -9.0350
    -9.0244  -9.0117  -8.9759  -8.4402  -8.4283  -7.8681  -7.8510  -7.8247
    -7.6925  -7.6446  -7.2342  -7.2141  -6.9071  -6.8663  -6.8482  -6.6537
    -6.6307  -6.6272  -6.5640  -6.5586  -6.5140  -6.4161  -6.3936  -6.3755
    -6.3484  -6.3329  -6.2997  -6.0713  -5.2400  -5.2189  -5.1076  -5.0534
    -4.9141  -4.9096  -4.8049  -4.7152  -4.5748  -4.5571  -4.5096  -4.1540
    -3.9415  -3.9027  -3.6718  -3.6614  -3.5829  -3.5427  -3.4719  -3.4641
    -2.7534  -2.1959  -2.1753  -2.1401  -2.0832  -1.6698  -1.6422  -1.6122
    -0.4342  -0.1123   0.0925   1.1017   1.1247   1.1606   1.7740   2.1110
     2.1596   2.2619   2.5324   2.9644   2.9830   3.0468   3.1562   3.4895
     3.6798   3.7460   3.7612   3.8127   3.9752   4.0729   4.1187

     occupation numbers
     1.0000   1.0000   1.0000   1.0000   1.0000   1.0000   1.0000   1.0000
     1.0000   1.0000   1.0000   1.0000   1.0000   1.0000   1.0000   1.0000
     1.0000   1.0000   1.0000   1.0000   1.0000   1.0000   1.0000   1.0000
     1.0000   1.0000   1.0000   1.0000   1.0000   1.0000   1.0000   1.0000
     1.0000   1.0000   1.0000   1.0000   1.0000   1.0000   1.0000   1.0000
     1.0000   1.0000   1.0000   1.0000   1.0000   1.0000   1.0000   1.0000
     1.0000   1.0000   1.0000   1.0000   1.0000   1.0000   1.0000   1.0000
     1.0000   1.0000   1.0000   1.0000   1.0000   1.0000   1.0000   1.0000
     1.0000   1.0000   1.0000   1.0000   1.0000   1.0000   1.0000   1.0000
     1.0000   1.0000   1.0000   1.0000   1.0000   1.0000   1.0000   1.0000
     1.0000   1.0000   1.0000   1.0000   1.0000   1.0000   1.0000   1.0000
     1.0000   1.0000   1.0000   1.0000   1.0000   1.0000   1.0000   1.0000
     1.0000   1.0000   1.0000   1.0000   1.0000   1.0000   1.0000   1.0000
     1.0000   0.0000   0.0000   0.0000   0.0000   0.0000   0.0000   0.0000
     0.0000   0.0000   0.0000   0.0000   0.0000   0.0000   0.0000   0.0000
     0.0000   0.0000   0.0000   0.0000   0.0000   0.0000   0.0000

     the Fermi energy is    -0.2337 ev

!    total energy              =    -757.34378959 Ry
     Harris-Foulkes estimate   =    -757.34378978 Ry
     estimated scf accuracy    <       0.00000086 Ry

     The total energy is the sum of the following terms:

     one-electron contribution =   -2612.16569213 Ry
     hartree contribution      =    1353.00762954 Ry
     xc contribution           =    -252.72522577 Ry
     ewald contribution        =     754.53943197 Ry
     smearing contrib. (-TS)   =       0.00006680 Ry

     total magnetization       =     1.00 Bohr mag/cell
     absolute magnetization    =     1.57 Bohr mag/cell

     convergence has been achieved in  22 iterations

     Writing output data file vanadio-top-distance-2.0.save/

     General routines

     Parallel routines

   This run was terminated on:   0:58:34   1Sep2022

   JOB DONE.