     Program PWSCF v.6.4.1 starts on  1Sep2022 at 12:11:12

     R & G space division:  proc/nbgrp/npool/nimage =       6
     Reading input from distance-2.0.in

     Current dimensions of program PWSCF are:
     Max number of different atomic species (ntypx) = 10
     Max number of k-points (npk) =  40000
     Max angular momentum in pseudopotentials (lmaxx) =  3

     IMPORTANT: XC functional enforced from input :
     Exchange-correlation      = RVV10 ( 1  4 13  4 3 0)
     Any further DFT definition will be discarded
     Please, verify this is what you really want

               file H.pbe-rrkjus.UPF: wavefunction(s)  1S renormalized
               file V.pbe-spnl-rrkjus_psl.1.0.0.UPF: wavefunction(s)  3P 3D renormalized

     Subspace diagonalization in iterative solution of the eigenvalue problem:
     a serial algorithm will be used

     bravais-lattice index     =            4
     lattice parameter (alat)  =      23.2937  a.u.
     unit-cell volume          =    8879.8548 (a.u.)^3
     number of atoms/cell      =           52
     number of atomic types    =            3
     number of electrons       =       211.00
     number of Kohn-Sham states=          127
     kinetic-energy cutoff     =      70.0000  Ry
     charge density cutoff     =     490.0000  Ry
     convergence threshold     =      1.0E-06
     mixing beta               =       0.7000
     number of iterations used =            8  plain     mixing
     Exchange-correlation      = RVV10 ( 1  4 13  4 3 0)

     celldm(1)=  23.293684  celldm(2)=   0.000000  celldm(3)=   0.811261
     celldm(4)=   0.000000  celldm(5)=   0.000000  celldm(6)=   0.000000

     crystal axes: (cart. coord. in units of alat)
               a(1) = (   1.000000   0.000000   0.000000 )
               a(2) = (  -0.500000   0.866025   0.000000 )
               a(3) = (   0.000000   0.000000   0.811261 )

     reciprocal axes: (cart. coord. in units 2 pi/alat)
               b(1) = (  1.000000  0.577350 -0.000000 )
               b(2) = (  0.000000  1.154701  0.000000 )
               b(3) = (  0.000000 -0.000000  1.232649 )

     PseudoPot. # 1 for H  read from file:
     /home/cristian/Escritorio/Proyecto_Grafeno/pseudopotenciales/H.pbe-rrkjus.UPF
     MD5 check sum: 7cc9d459525c9a0585f487a71c3c9563
     Pseudo is Ultrasoft, Zval =  1.0
     Generated by new atomic code, or converted to UPF format
     Using radial grid of 1061 points,  2 beta functions with:
                l(1) =   0
                l(2) =   0
     Q(r) pseudized with 0 coefficients

     PseudoPot. # 2 for C  read from file:
     /home/cristian/Escritorio/Proyecto_Grafeno/pseudopotenciales/C.pbe-n-rrkjus_psl.1.0.0.UPF
     MD5 check sum: 1fdd950c42eb37d8afe3dd2f8d12311e
     Pseudo is Ultrasoft + core correction, Zval =  4.0
     Generated using "atomic" code by A. Dal Corso v.6.3MaX
     Using radial grid of 1073 points,  4 beta functions with:
                l(1) =   0
                l(2) =   0
                l(3) =   1
                l(4) =   1
     Q(r) pseudized with 0 coefficients

     PseudoPot. # 3 for V  read from file:
     /home/cristian/Escritorio/Proyecto_Grafeno/pseudopotenciales/V.pbe-spnl-rrkjus_psl.1.0.0.UPF
     MD5 check sum: 79b3eb63147daf0b665d9f1bcc691206
     Pseudo is Ultrasoft + core correction, Zval = 13.0
     Generated using "atomic" code by A. Dal Corso v.6.2.2
     Using radial grid of 1181 points,  6 beta functions with:
                l(1) =   0
                l(2) =   0
                l(3) =   1
                l(4) =   1
                l(5) =   2
                l(6) =   2
     Q(r) pseudized with 0 coefficients

     vdW kernel table read from file rVV10_kernel_table
     MD5 check sum: b8e2538accc0c0b3206b45ba4daaba6c

     atomic species   valence    mass     pseudopotential
        H              1.00     1.00794     H ( 1.00)
        C              4.00    12.01070     C ( 1.00)
        V             13.00    50.94150     V ( 1.00)

     Starting magnetic structure
     atomic species   magnetization
        H            0.500
        C            0.300
        V            0.800

     No symmetry found

                                    s                        frac. trans.

      isym =  1     identity

 cryst.   s( 1) = (     1          0          0      )
                  (     0          1          0      )
                  (     0          0          1      )

 cart.    s( 1) = (  1.0000000  0.0000000  0.0000000 )
                  (  0.0000000  1.0000000  0.0000000 )
                  (  0.0000000  0.0000000  1.0000000 )

     point group C_1 (1)
     there are  1 classes
     the character table:

       E
A      1.00

     the symmetry operations in each class and the name of the first element:

     E        1
          identity

   Cartesian axes

     site n.     atom                  positions (alat units)
         1           H   tau(   1) = (   0.2194937   0.4907477   0.1622522  )
         2           H   tau(   2) = (   0.2805063   0.4907477   0.1622522  )
         3           C   tau(   3) = (   0.0000000   0.0000000   0.0000000  )
         4           C   tau(   4) = (   0.0000000   0.1154701   0.0000000  )
         5           C   tau(   5) = (  -0.1000000   0.1732051   0.0000000  )
         6           C   tau(   6) = (  -0.1000000   0.2886751   0.0000000  )
         7           C   tau(   7) = (  -0.2000000   0.3464102   0.0000000  )
         8           C   tau(   8) = (  -0.2000000   0.4618802   0.0000000  )
         9           C   tau(   9) = (  -0.3000000   0.5196152   0.0000000  )
        10           C   tau(  10) = (  -0.3000000   0.6350853   0.0000000  )
        11           C   tau(  11) = (  -0.4000000   0.6928203   0.0000000  )
        12           C   tau(  12) = (  -0.4000000   0.8082904   0.0000000  )
        13           C   tau(  13) = (   0.2000000   0.0000000   0.0000000  )
        14           C   tau(  14) = (   0.2000000   0.1154701   0.0000000  )
        15           C   tau(  15) = (   0.1000000   0.1732051   0.0000000  )
        16           C   tau(  16) = (   0.1000000   0.2886751   0.0000000  )
        17           C   tau(  17) = (   0.0000000   0.3464102   0.0000000  )
        18           C   tau(  18) = (   0.0000000   0.4618802   0.0000000  )
        19           C   tau(  19) = (  -0.1000000   0.5196152   0.0000000  )
        20           C   tau(  20) = (  -0.1000000   0.6350853   0.0000000  )
        21           C   tau(  21) = (  -0.2000000   0.6928203   0.0000000  )
        22           C   tau(  22) = (  -0.2000000   0.8082904   0.0000000  )
        23           C   tau(  23) = (   0.4000000   0.0000000   0.0000000  )
        24           C   tau(  24) = (   0.4000000   0.1154701   0.0000000  )
        25           C   tau(  25) = (   0.3000000   0.1732051   0.0000000  )
        26           C   tau(  26) = (   0.3000000   0.2886751   0.0000000  )
        27           C   tau(  27) = (   0.2000000   0.3464102   0.0000000  )
        28           V   tau(  28) = (   0.2000000   0.4618802   0.0000000  )
        29           C   tau(  29) = (   0.1000000   0.5196152   0.0000000  )
        30           C   tau(  30) = (   0.1000000   0.6350853   0.0000000  )
        31           C   tau(  31) = (   0.0000000   0.6928203   0.0000000  )
        32           C   tau(  32) = (   0.0000000   0.8082904   0.0000000  )
        33           C   tau(  33) = (   0.6000000   0.0000000   0.0000000  )
        34           C   tau(  34) = (   0.6000000   0.1154701   0.0000000  )
        35           C   tau(  35) = (   0.5000000   0.1732051   0.0000000  )
        36           C   tau(  36) = (   0.5000000   0.2886751   0.0000000  )
        37           C   tau(  37) = (   0.4000000   0.3464102   0.0000000  )
        38           C   tau(  38) = (   0.4000000   0.4618802   0.0000000  )
        39           C   tau(  39) = (   0.3000000   0.5196152   0.0000000  )
        40           C   tau(  40) = (   0.3000000   0.6350853   0.0000000  )
        41           C   tau(  41) = (   0.2000000   0.6928203   0.0000000  )
        42           C   tau(  42) = (   0.2000000   0.8082904   0.0000000  )
        43           C   tau(  43) = (   0.8000000   0.0000000   0.0000000  )
        44           C   tau(  44) = (   0.8000000   0.1154701   0.0000000  )
        45           C   tau(  45) = (   0.7000000   0.1732051   0.0000000  )
        46           C   tau(  46) = (   0.7000000   0.2886751   0.0000000  )
        47           C   tau(  47) = (   0.6000000   0.3464102   0.0000000  )
        48           C   tau(  48) = (   0.6000000   0.4618802   0.0000000  )
        49           C   tau(  49) = (   0.5000000   0.5196152   0.0000000  )
        50           C   tau(  50) = (   0.5000000   0.6350853   0.0000000  )
        51           C   tau(  51) = (   0.4000000   0.6928203   0.0000000  )
        52           C   tau(  52) = (   0.4000000   0.8082904   0.0000000  )

   Crystallographic axes

     site n.     atom                  positions (cryst. coord.)
         1           H   tau(   1) = (  0.5028270  0.5666667  0.2000000  )
         2           H   tau(   2) = (  0.5638397  0.5666667  0.2000000  )
         3           C   tau(   3) = (  0.0000000  0.0000000  0.0000000  )
         4           C   tau(   4) = (  0.0666667  0.1333333  0.0000000  )
         5           C   tau(   5) = (  0.0000000  0.2000000  0.0000000  )
         6           C   tau(   6) = (  0.0666667  0.3333333  0.0000000  )
         7           C   tau(   7) = (  0.0000000  0.4000000  0.0000000  )
         8           C   tau(   8) = (  0.0666667  0.5333333  0.0000000  )
         9           C   tau(   9) = (  0.0000000  0.6000000  0.0000000  )
        10           C   tau(  10) = (  0.0666667  0.7333333  0.0000000  )
        11           C   tau(  11) = (  0.0000000  0.8000000  0.0000000  )
        12           C   tau(  12) = (  0.0666667  0.9333333  0.0000000  )
        13           C   tau(  13) = (  0.2000000  0.0000000  0.0000000  )
        14           C   tau(  14) = (  0.2666667  0.1333333  0.0000000  )
        15           C   tau(  15) = (  0.2000000  0.2000000  0.0000000  )
        16           C   tau(  16) = (  0.2666667  0.3333333  0.0000000  )
        17           C   tau(  17) = (  0.2000000  0.4000000  0.0000000  )
        18           C   tau(  18) = (  0.2666667  0.5333333  0.0000000  )
        19           C   tau(  19) = (  0.2000000  0.6000000  0.0000000  )
        20           C   tau(  20) = (  0.2666667  0.7333333  0.0000000  )
        21           C   tau(  21) = (  0.2000000  0.8000000  0.0000000  )
        22           C   tau(  22) = (  0.2666667  0.9333333  0.0000000  )
        23           C   tau(  23) = (  0.4000000  0.0000000  0.0000000  )
        24           C   tau(  24) = (  0.4666667  0.1333333  0.0000000  )
        25           C   tau(  25) = (  0.4000000  0.2000000  0.0000000  )
        26           C   tau(  26) = (  0.4666667  0.3333333  0.0000000  )
        27           C   tau(  27) = (  0.4000000  0.4000000  0.0000000  )
        28           V   tau(  28) = (  0.4666667  0.5333333  0.0000000  )
        29           C   tau(  29) = (  0.4000000  0.6000000  0.0000000  )
        30           C   tau(  30) = (  0.4666667  0.7333333  0.0000000  )
        31           C   tau(  31) = (  0.4000000  0.8000000  0.0000000  )
        32           C   tau(  32) = (  0.4666667  0.9333333  0.0000000  )
        33           C   tau(  33) = (  0.6000000  0.0000000  0.0000000  )
        34           C   tau(  34) = (  0.6666667  0.1333333  0.0000000  )
        35           C   tau(  35) = (  0.6000000  0.2000000  0.0000000  )
        36           C   tau(  36) = (  0.6666667  0.3333333  0.0000000  )
        37           C   tau(  37) = (  0.6000000  0.4000000  0.0000000  )
        38           C   tau(  38) = (  0.6666667  0.5333333  0.0000000  )
        39           C   tau(  39) = (  0.6000000  0.6000000  0.0000000  )
        40           C   tau(  40) = (  0.6666667  0.7333333  0.0000000  )
        41           C   tau(  41) = (  0.6000000  0.8000000  0.0000000  )
        42           C   tau(  42) = (  0.6666667  0.9333333  0.0000000  )
        43           C   tau(  43) = (  0.8000000  0.0000000  0.0000000  )
        44           C   tau(  44) = (  0.8666667  0.1333333  0.0000000  )
        45           C   tau(  45) = (  0.8000000  0.2000000  0.0000000  )
        46           C   tau(  46) = (  0.8666667  0.3333333  0.0000000  )
        47           C   tau(  47) = (  0.8000000  0.4000000  0.0000000  )
        48           C   tau(  48) = (  0.8666667  0.5333333  0.0000000  )
        49           C   tau(  49) = (  0.8000000  0.6000000  0.0000000  )
        50           C   tau(  50) = (  0.8666667  0.7333333  0.0000000  )
        51           C   tau(  51) = (  0.8000000  0.8000000  0.0000000  )
        52           C   tau(  52) = (  0.8666667  0.9333333  0.0000000  )

     number of k points=     1  Marzari-Vanderbilt smearing, width (Ry)=  0.0010
                       cart. coord. in units 2pi/alat
        k(    1) = (   0.0000000   0.0000000   0.0000000), wk =   1.0000000

                       cryst. coord.
        k(    1) = (   0.0000000   0.0000000   0.0000000), wk =   1.0000000

     Check: negative core charge=   -0.000002

     Initial potential from superposition of free atoms

     starting charge  210.80465, renormalised to  211.00000

     negative rho (up, down):  1.449E-04 1.952E-02

Carrying out rVV10 run using the following parameters:
Nqs =      20    Nr_points =    1024   r_max =   100.000
b_value =  6.30000    beta =  0.00901
     q_mesh =  0.00010000  0.00030000  0.00058939  0.00100810
               0.00161396  0.00249058  0.00375900  0.00559430
               0.00824984  0.01209221  0.01765183  0.02569619
               0.03733578  0.05417739  0.07854596  0.11380545
               0.16482331  0.23864234  0.34545298  0.50000000

Gradients computed in Reciprocal space

     Starting wfcs are  208 randomized atomic wfcs

     Self-consistent Calculation

     iteration #  1     ecut=    70.00 Ry     beta= 0.70
     Davidson diagonalization with overlap
     ethr =  1.00E-02,  avg # of iterations =  3.0

[...]

     total energy              =    -749.76994328 Ry
     Harris-Foulkes estimate   =    -757.19935354 Ry
     estimated scf accuracy    <      15.49222980 Ry

     total magnetization       =     7.00 Bohr mag/cell
     absolute magnetization    =     7.60 Bohr mag/cell

[...]

     total energy              =    -757.31873520 Ry
     Harris-Foulkes estimate   =    -757.31873558 Ry
     estimated scf accuracy    <       0.00000134 Ry

[...]

     iteration # 29     ecut=    70.00 Ry     beta= 0.70
     Davidson diagonalization with overlap
     ethr =  6.36E-10,  avg # of iterations =  3.0

     negative rho (up, down):  3.309E-02 2.186E-03

     Magnetic moment per site:
     atom:    1    charge:    0.2194    magn:   -0.0001    constr:    0.0000
     atom:    2    charge:    0.2052    magn:   -0.0001    constr:    0.0000
     atom:    3    charge:    1.7175    magn:   -0.0072    constr:    0.0000
     atom:    4    charge:    1.7157    magn:    0.0105    constr:    0.0000
     atom:    5    charge:    1.7183    magn:   -0.0043    constr:    0.0000
     atom:    6    charge:    1.7141    magn:    0.0027    constr:    0.0000
     atom:    7    charge:    1.7183    magn:   -0.0043    constr:    0.0000
     atom:    8    charge:    1.7156    magn:    0.0098    constr:    0.0000
     atom:    9    charge:    1.7176    magn:   -0.0069    constr:    0.0000
     atom:   10    charge:    1.7149    magn:    0.0331    constr:    0.0000
     atom:   11    charge:    1.7184    magn:   -0.0089    constr:    0.0000
     atom:   12    charge:    1.7151    magn:    0.0355    constr:    0.0000
     atom:   13    charge:    1.7187    magn:   -0.0088    constr:    0.0000
     atom:   14    charge:    1.7147    magn:    0.0247    constr:    0.0000
     atom:   15    charge:    1.7167    magn:   -0.0088    constr:    0.0000
     atom:   16    charge:    1.7116    magn:    0.0371    constr:    0.0000
     atom:   17    charge:    1.7267    magn:   -0.0064    constr:    0.0000
     atom:   18    charge:    1.7118    magn:    0.0377    constr:    0.0000
     atom:   19    charge:    1.7166    magn:   -0.0090    constr:    0.0000
     atom:   20    charge:    1.7149    magn:    0.0266    constr:    0.0000
     atom:   21    charge:    1.7187    magn:   -0.0088    constr:    0.0000
     atom:   22    charge:    1.7132    magn:    0.0237    constr:    0.0000
     atom:   23    charge:    1.7181    magn:   -0.0061    constr:    0.0000
     atom:   24    charge:    1.7154    magn:    0.0076    constr:    0.0000
     atom:   25    charge:    1.7170    magn:   -0.0074    constr:    0.0000
     atom:   26    charge:    1.7108    magn:    0.0260    constr:    0.0000
     atom:   27    charge:    1.9139    magn:   -0.0002    constr:    0.0000
     atom:   28    charge:    7.8593    magn:    0.1007    constr:    0.0000
     atom:   29    charge:    1.9136    magn:   -0.0001    constr:    0.0000
     atom:   30    charge:    1.7111    magn:    0.0288    constr:    0.0000
     atom:   31    charge:    1.7169    magn:   -0.0079    constr:    0.0000
     atom:   32    charge:    1.7153    magn:    0.0075    constr:    0.0000
     atom:   33    charge:    1.7185    magn:   -0.0040    constr:    0.0000
     atom:   34    charge:    1.7135    magn:    0.0056    constr:    0.0000
     atom:   35    charge:    1.7185    magn:   -0.0039    constr:    0.0000
     atom:   36    charge:    1.7142    magn:    0.0024    constr:    0.0000
     atom:   37    charge:    1.7273    magn:   -0.0041    constr:    0.0000
     atom:   38    charge:    1.7126    magn:    0.0228    constr:    0.0000
     atom:   39    charge:    1.9167    magn:   -0.0016    constr:    0.0000
     atom:   40    charge:    1.7123    magn:    0.0253    constr:    0.0000
     atom:   41    charge:    1.7270    magn:   -0.0047    constr:    0.0000
     atom:   42    charge:    1.7142    magn:    0.0025    constr:    0.0000
     atom:   43    charge:    1.7182    magn:   -0.0042    constr:    0.0000
     atom:   44    charge:    1.7139    magn:    0.0076    constr:    0.0000
     atom:   45    charge:    1.7247    magn:   -0.0030    constr:    0.0000
     atom:   46    charge:    1.7139    magn:    0.0072    constr:    0.0000
     atom:   47    charge:    1.7182    magn:   -0.0041    constr:    0.0000
     atom:   48    charge:    1.7160    magn:    0.0100    constr:    0.0000
     atom:   49    charge:    1.7170    magn:   -0.0066    constr:    0.0000
     atom:   50    charge:    1.7141    magn:    0.0175    constr:    0.0000
     atom:   51    charge:    1.7170    magn:   -0.0069    constr:    0.0000
     atom:   52    charge:    1.7161    magn:    0.0104    constr:    0.0000

     End of self-consistent calculation

 ------ SPIN UP ------------

          k = 0.0000 0.0000 0.0000 ( 87777 PWs)   bands (ev):

   -62.7882 -37.8923 -37.8741 -36.5456 -19.6225 -18.7933 -18.7655 -18.7093
   -18.6705 -18.6553 -18.2280 -16.9276 -16.9240 -16.9183 -16.7931 -16.7791
   -16.5045 -16.0713 -16.0669 -15.9749 -15.8271 -15.8164 -15.0757 -13.8875
   -13.8809 -13.8691 -13.8472 -13.8467 -13.1223 -12.9055 -12.9031 -12.8860
   -12.4995 -12.4899 -12.1059 -11.6344 -11.6287 -11.5069 -11.1390 -11.1226
   -10.1665  -9.3351  -9.3226  -9.2425  -9.1730  -9.1674  -9.0794  -9.0552
    -9.0532  -9.0385  -8.9559  -8.4474  -8.4316  -7.8819  -7.8764  -7.8438
    -7.7337  -7.6619  -7.2440  -7.2350  -6.9467  -6.9051  -6.8618  -6.6916
    -6.6830  -6.6749  -6.5793  -6.5726  -6.5299  -6.4265  -6.4147  -6.3817
    -6.3696  -6.3684  -6.3193  -6.1284  -5.2461  -5.2432  -5.1416  -5.0718
    -4.9309  -4.9301  -4.8208  -4.7313  -4.6131  -4.5989  -4.5979  -4.1935
    -3.9729  -3.9640  -3.7569  -3.7440  -3.6463  -3.5933  -3.4850  -3.4833
    -2.7913  -2.2574  -2.2439  -2.1994  -2.1814  -1.7384  -1.6730  -1.6664
    -0.4465  -0.2361  -0.2312   1.0537   1.0845   1.0942   1.5558   1.9052
     2.0592   2.0606   2.4806   2.8886   2.9115   2.9827   3.2488   3.4975
     3.7052   3.7403   3.7563   3.8033   3.9242   4.0032   4.0141

     occupation numbers
     1.0000   1.0000   1.0000   1.0000   1.0000   1.0000   1.0000   1.0000
     1.0000   1.0000   1.0000   1.0000   1.0000   1.0000   1.0000   1.0000
     1.0000   1.0000   1.0000   1.0000   1.0000   1.0000   1.0000   1.0000
     1.0000   1.0000   1.0000   1.0000   1.0000   1.0000   1.0000   1.0000
     1.0000   1.0000   1.0000   1.0000   1.0000   1.0000   1.0000   1.0000
     1.0000   1.0000   1.0000   1.0000   1.0000   1.0000   1.0000   1.0000
     1.0000   1.0000   1.0000   1.0000   1.0000   1.0000   1.0000   1.0000
     1.0000   1.0000   1.0000   1.0000   1.0000   1.0000   1.0000   1.0000
     1.0000   1.0000   1.0000   1.0000   1.0000   1.0000   1.0000   1.0000
     1.0000   1.0000   1.0000   1.0000   1.0000   1.0000   1.0000   1.0000
     1.0000   1.0000   1.0000   1.0000   1.0000   1.0000   1.0000   1.0000
     1.0000   1.0000   1.0000   1.0000   1.0000   1.0000   1.0000   1.0000
     1.0000   1.0000   1.0000   1.0000   1.0000   1.0000   1.0000   1.0000
     1.0000   0.6292   0.3708   0.0000   0.0000   0.0000   0.0000   0.0000
     0.0000   0.0000   0.0000   0.0000   0.0000   0.0000   0.0000   0.0000
     0.0000   0.0000   0.0000   0.0000   0.0000   0.0000   0.0000

 ------ SPIN DOWN ----------

          k = 0.0000 0.0000 0.0000 ( 87777 PWs)   bands (ev):

   -62.5934 -37.7542 -37.6906 -36.2796 -19.6009 -18.7744 -18.7415 -18.6891
   -18.6545 -18.6382 -18.1959 -16.9121 -16.9066 -16.8977 -16.7666 -16.7492
   -16.4902 -16.0432 -16.0410 -15.9590 -15.8062 -15.7949 -15.0611 -13.8551
   -13.8516 -13.8427 -13.8397 -13.8169 -13.1253 -12.8956 -12.8917 -12.8704
   -12.4915 -12.4814 -12.0876 -11.6157 -11.6117 -11.4937 -11.1276 -11.1091
   -10.1517  -9.3192  -9.3046  -9.2297  -9.1570  -9.1493  -9.0713  -9.0405
    -9.0398  -9.0286  -8.9398  -8.4401  -8.4248  -7.8707  -7.8647  -7.8366
    -7.6848  -7.6534  -7.2350  -7.2262  -6.8679  -6.8621  -6.8129  -6.6572
    -6.6485  -6.6299  -6.5678  -6.5617  -6.5203  -6.4173  -6.4049  -6.3765
    -6.3633  -6.3606  -6.3110  -6.0530  -5.2383  -5.2341  -5.0487  -4.9982
    -4.9209  -4.9204  -4.8150  -4.7252  -4.5727  -4.5501  -4.5434  -4.1578
    -3.9204  -3.9141  -3.6817  -3.6713  -3.5999  -3.5641  -3.4780  -3.4771
    -2.7547  -2.1954  -2.1718  -2.1365  -2.1130  -1.6635  -1.6516  -1.6373
    -0.4437  -0.0374   0.0196   1.0976   1.1144   1.1401   1.6275   1.9675
     2.1217   2.1379   2.4860   2.9568   2.9823   3.0233   3.2716   3.5069
     3.7192   3.7433   3.7580   3.8121   3.9514   4.0663   4.0906

     occupation numbers
     1.0000   1.0000   1.0000   1.0000   1.0000   1.0000   1.0000   1.0000
     1.0000   1.0000   1.0000   1.0000   1.0000   1.0000   1.0000   1.0000
     1.0000   1.0000   1.0000   1.0000   1.0000   1.0000   1.0000   1.0000
     1.0000   1.0000   1.0000   1.0000   1.0000   1.0000   1.0000   1.0000
     1.0000   1.0000   1.0000   1.0000   1.0000   1.0000   1.0000   1.0000
     1.0000   1.0000   1.0000   1.0000   1.0000   1.0000   1.0000   1.0000
     1.0000   1.0000   1.0000   1.0000   1.0000   1.0000   1.0000   1.0000
     1.0000   1.0000   1.0000   1.0000   1.0000   1.0000   1.0000   1.0000
     1.0000   1.0000   1.0000   1.0000   1.0000   1.0000   1.0000   1.0000
     1.0000   1.0000   1.0000   1.0000   1.0000   1.0000   1.0000   1.0000
     1.0000   1.0000   1.0000   1.0000   1.0000   1.0000   1.0000   1.0000
     1.0000   1.0000   1.0000   1.0000   1.0000   1.0000   1.0000   1.0000
     1.0000   1.0000   1.0000   1.0000   1.0000   1.0000   1.0000   1.0000
     1.0000   0.0000   0.0000   0.0000   0.0000   0.0000   0.0000   0.0000
     0.0000   0.0000   0.0000   0.0000   0.0000   0.0000   0.0000   0.0000
     0.0000   0.0000   0.0000   0.0000   0.0000   0.0000   0.0000

     the Fermi energy is    -0.2318 ev

!    total energy              =    -757.31873568 Ry
     Harris-Foulkes estimate   =    -757.31873560 Ry
     estimated scf accuracy    <       0.00000013 Ry

     The total energy is the sum of the following terms:

     one-electron contribution =   -2611.05134945 Ry
     hartree contribution      =    1352.40273465 Ry
     xc contribution           =    -252.72519522 Ry
     ewald contribution        =     754.05537969 Ry
     smearing contrib. (-TS)   =      -0.00030534 Ry

     total magnetization       =     1.00 Bohr mag/cell
     absolute magnetization    =     1.54 Bohr mag/cell

     convergence has been achieved in  29 iterations

     Writing output data file vanadio-bridge-distance-2.0.save/

     General routines

     Parallel routines

   This run was terminated on:  13: 4:56   1Sep2022

   JOB DONE.