     Program PWSCF v.6.4.1 starts on  1Sep2022 at 13: 4:56

     R & G space division:  proc/nbgrp/npool/nimage =       6
     Reading input from distance-1.8.in

     Current dimensions of program PWSCF are:
     Max number of different atomic species (ntypx) = 10
     Max number of k-points (npk) =  40000
     Max angular momentum in pseudopotentials (lmaxx) =  3

     IMPORTANT: XC functional enforced from input :
     Exchange-correlation      = RVV10 ( 1  4 13  4 3 0)
     Any further DFT definition will be discarded
     Please, verify this is what you really want

               file H.pbe-rrkjus.UPF: wavefunction(s)  1S renormalized
               file V.pbe-spnl-rrkjus_psl.1.0.0.UPF: wavefunction(s)  3P 3D renormalized

     Subspace diagonalization in iterative solution of the eigenvalue problem:
     a serial algorithm will be used

     bravais-lattice index     =            4
     lattice parameter (alat)  =      23.2937  a.u.
     unit-cell volume          =    8879.8548 (a.u.)^3
     number of atoms/cell      =           52
     number of atomic types    =            3
     number of electrons       =       211.00
     number of Kohn-Sham states=          127
     kinetic-energy cutoff     =      70.0000  Ry
     charge density cutoff     =     490.0000  Ry
     convergence threshold     =      1.0E-06
     mixing beta               =       0.7000
     number of iterations used =            8  plain     mixing
     Exchange-correlation      = RVV10 ( 1  4 13  4 3 0)

     celldm(1)=  23.293684  celldm(2)=   0.000000  celldm(3)=   0.811261
     celldm(4)=   0.000000  celldm(5)=   0.000000  celldm(6)=   0.000000

     crystal axes: (cart. coord. in units of alat)
               a(1) = (   1.000000   0.000000   0.000000 )
               a(2) = (  -0.500000   0.866025   0.000000 )
               a(3) = (   0.000000   0.000000   0.811261 )

     reciprocal axes: (cart. coord. in units 2 pi/alat)
               b(1) = (  1.000000  0.577350 -0.000000 )
               b(2) = (  0.000000  1.154701  0.000000 )
               b(3) = (  0.000000 -0.000000  1.232649 )

     PseudoPot. # 1 for H  read from file:
     /home/cristian/Escritorio/Proyecto_Grafeno/pseudopotenciales/H.pbe-rrkjus.UPF
     MD5 check sum: 7cc9d459525c9a0585f487a71c3c9563
     Pseudo is Ultrasoft, Zval =  1.0
     Generated by new atomic code, or converted to UPF format
     Using radial grid of 1061 points,  2 beta functions with:
                l(1) =   0
                l(2) =   0
     Q(r) pseudized with 0 coefficients

     PseudoPot. # 2 for C  read from file:
     /home/cristian/Escritorio/Proyecto_Grafeno/pseudopotenciales/C.pbe-n-rrkjus_psl.1.0.0.UPF
     MD5 check sum: 1fdd950c42eb37d8afe3dd2f8d12311e
     Pseudo is Ultrasoft + core correction, Zval =  4.0
     Generated using "atomic" code by A. Dal Corso v.6.3MaX
     Using radial grid of 1073 points,  4 beta functions with:
                l(1) =   0
                l(2) =   0
                l(3) =   1
                l(4) =   1
     Q(r) pseudized with 0 coefficients

     PseudoPot. # 3 for V  read from file:
     /home/cristian/Escritorio/Proyecto_Grafeno/pseudopotenciales/V.pbe-spnl-rrkjus_psl.1.0.0.UPF
     MD5 check sum: 79b3eb63147daf0b665d9f1bcc691206
     Pseudo is Ultrasoft + core correction, Zval = 13.0
     Generated using "atomic" code by A. Dal Corso v.6.2.2
     Using radial grid of 1181 points,  6 beta functions with:
                l(1) =   0
                l(2) =   0
                l(3) =   1
                l(4) =   1
                l(5) =   2
                l(6) =   2
     Q(r) pseudized with 0 coefficients

     vdW kernel table read from file rVV10_kernel_table
     MD5 check sum: b8e2538accc0c0b3206b45ba4daaba6c

     atomic species   valence    mass     pseudopotential
        H              1.00     1.00794     H ( 1.00)
        C              4.00    12.01070     C ( 1.00)
        V             13.00    50.94150     V ( 1.00)

     Starting magnetic structure
     atomic species   magnetization
        H            0.500
        C            0.300
        V            0.800

     No symmetry found

                                    s                        frac. trans.

      isym =  1     identity

 cryst.   s( 1) = (     1          0          0      )
                  (     0          1          0      )
                  (     0          0          1      )

 cart.    s( 1) = (  1.0000000  0.0000000  0.0000000 )
                  (  0.0000000  1.0000000  0.0000000 )
                  (  0.0000000  0.0000000  1.0000000 )

     point group C_1 (1)
     there are  1 classes
     the character table:

       E
A      1.00

     the symmetry operations in each class and the name of the first element:

     E        1
          identity

   Cartesian axes

     site n.     atom                  positions (alat units)
         1           H   tau(   1) = (   0.2194937   0.4907477   0.1460270  )
         2           H   tau(   2) = (   0.2805063   0.4907477   0.1460270  )
         3           C   tau(   3) = (   0.0000000   0.0000000   0.0000000  )
         4           C   tau(   4) = (   0.0000000   0.1154701   0.0000000  )
         5           C   tau(   5) = (  -0.1000000   0.1732051   0.0000000  )
         6           C   tau(   6) = (  -0.1000000   0.2886751   0.0000000  )
         7           C   tau(   7) = (  -0.2000000   0.3464102   0.0000000  )
         8           C   tau(   8) = (  -0.2000000   0.4618802   0.0000000  )
         9           C   tau(   9) = (  -0.3000000   0.5196152   0.0000000  )
        10           C   tau(  10) = (  -0.3000000   0.6350853   0.0000000  )
        11           C   tau(  11) = (  -0.4000000   0.6928203   0.0000000  )
        12           C   tau(  12) = (  -0.4000000   0.8082904   0.0000000  )
        13           C   tau(  13) = (   0.2000000   0.0000000   0.0000000  )
        14           C   tau(  14) = (   0.2000000   0.1154701   0.0000000  )
        15           C   tau(  15) = (   0.1000000   0.1732051   0.0000000  )
        16           C   tau(  16) = (   0.1000000   0.2886751   0.0000000  )
        17           C   tau(  17) = (   0.0000000   0.3464102   0.0000000  )
        18           C   tau(  18) = (   0.0000000   0.4618802   0.0000000  )
        19           C   tau(  19) = (  -0.1000000   0.5196152   0.0000000  )
        20           C   tau(  20) = (  -0.1000000   0.6350853   0.0000000  )
        21           C   tau(  21) = (  -0.2000000   0.6928203   0.0000000  )
        22           C   tau(  22) = (  -0.2000000   0.8082904   0.0000000  )
        23           C   tau(  23) = (   0.4000000   0.0000000   0.0000000  )
        24           C   tau(  24) = (   0.4000000   0.1154701   0.0000000  )
        25           C   tau(  25) = (   0.3000000   0.1732051   0.0000000  )
        26           C   tau(  26) = (   0.3000000   0.2886751   0.0000000  )
        27           C   tau(  27) = (   0.2000000   0.3464102   0.0000000  )
        28           V   tau(  28) = (   0.2000000   0.4618802   0.0000000  )
        29           C   tau(  29) = (   0.1000000   0.5196152   0.0000000  )
        30           C   tau(  30) = (   0.1000000   0.6350853   0.0000000  )
        31           C   tau(  31) = (   0.0000000   0.6928203   0.0000000  )
        32           C   tau(  32) = (   0.0000000   0.8082904   0.0000000  )
        33           C   tau(  33) = (   0.6000000   0.0000000   0.0000000  )
        34           C   tau(  34) = (   0.6000000   0.1154701   0.0000000  )
        35           C   tau(  35) = (   0.5000000   0.1732051   0.0000000  )
        36           C   tau(  36) = (   0.5000000   0.2886751   0.0000000  )
        37           C   tau(  37) = (   0.4000000   0.3464102   0.0000000  )
        38           C   tau(  38) = (   0.4000000   0.4618802   0.0000000  )
        39           C   tau(  39) = (   0.3000000   0.5196152   0.0000000  )
        40           C   tau(  40) = (   0.3000000   0.6350853   0.0000000  )
        41           C   tau(  41) = (   0.2000000   0.6928203   0.0000000  )
        42           C   tau(  42) = (   0.2000000   0.8082904   0.0000000  )
        43           C   tau(  43) = (   0.8000000   0.0000000   0.0000000  )
        44           C   tau(  44) = (   0.8000000   0.1154701   0.0000000  )
        45           C   tau(  45) = (   0.7000000   0.1732051   0.0000000  )
        46           C   tau(  46) = (   0.7000000   0.2886751   0.0000000  )
        47           C   tau(  47) = (   0.6000000   0.3464102   0.0000000  )
        48           C   tau(  48) = (   0.6000000   0.4618802   0.0000000  )
        49           C   tau(  49) = (   0.5000000   0.5196152   0.0000000  )
        50           C   tau(  50) = (   0.5000000   0.6350853   0.0000000  )
        51           C   tau(  51) = (   0.4000000   0.6928203   0.0000000  )
        52           C   tau(  52) = (   0.4000000   0.8082904   0.0000000  )

   Crystallographic axes

     site n.     atom                  positions (cryst. coord.)
         1           H   tau(   1) = (  0.5028270  0.5666667  0.1800000  )
         2           H   tau(   2) = (  0.5638397  0.5666667  0.1800000  )
         3           C   tau(   3) = (  0.0000000  0.0000000  0.0000000  )
         4           C   tau(   4) = (  0.0666667  0.1333333  0.0000000  )
         5           C   tau(   5) = (  0.0000000  0.2000000  0.0000000  )
         6           C   tau(   6) = (  0.0666667  0.3333333  0.0000000  )
         7           C   tau(   7) = (  0.0000000  0.4000000  0.0000000  )
         8           C   tau(   8) = (  0.0666667  0.5333333  0.0000000  )
         9           C   tau(   9) = (  0.0000000  0.6000000  0.0000000  )
        10           C   tau(  10) = (  0.0666667  0.7333333  0.0000000  )
        11           C   tau(  11) = (  0.0000000  0.8000000  0.0000000  )
        12           C   tau(  12) = (  0.0666667  0.9333333  0.0000000  )
        13           C   tau(  13) = (  0.2000000  0.0000000  0.0000000  )
        14           C   tau(  14) = (  0.2666667  0.1333333  0.0000000  )
        15           C   tau(  15) = (  0.2000000  0.2000000  0.0000000  )
        16           C   tau(  16) = (  0.2666667  0.3333333  0.0000000  )
        17           C   tau(  17) = (  0.2000000  0.4000000  0.0000000  )
        18           C   tau(  18) = (  0.2666667  0.5333333  0.0000000  )
        19           C   tau(  19) = (  0.2000000  0.6000000  0.0000000  )
        20           C   tau(  20) = (  0.2666667  0.7333333  0.0000000  )
        21           C   tau(  21) = (  0.2000000  0.8000000  0.0000000  )
        22           C   tau(  22) = (  0.2666667  0.9333333  0.0000000  )
        23           C   tau(  23) = (  0.4000000  0.0000000  0.0000000  )
        24           C   tau(  24) = (  0.4666667  0.1333333  0.0000000  )
        25           C   tau(  25) = (  0.4000000  0.2000000  0.0000000  )
        26           C   tau(  26) = (  0.4666667  0.3333333  0.0000000  )
        27           C   tau(  27) = (  0.4000000  0.4000000  0.0000000  )
        28           V   tau(  28) = (  0.4666667  0.5333333  0.0000000  )
        29           C   tau(  29) = (  0.4000000  0.6000000  0.0000000  )
        30           C   tau(  30) = (  0.4666667  0.7333333  0.0000000  )
        31           C   tau(  31) = (  0.4000000  0.8000000  0.0000000  )
        32           C   tau(  32) = (  0.4666667  0.9333333  0.0000000  )
        33           C   tau(  33) = (  0.6000000  0.0000000  0.0000000  )
        34           C   tau(  34) = (  0.6666667  0.1333333  0.0000000  )
        35           C   tau(  35) = (  0.6000000  0.2000000  0.0000000  )
        36           C   tau(  36) = (  0.6666667  0.3333333  0.0000000  )
        37           C   tau(  37) = (  0.6000000  0.4000000  0.0000000  )
        38           C   tau(  38) = (  0.6666667  0.5333333  0.0000000  )
        39           C   tau(  39) = (  0.6000000  0.6000000  0.0000000  )
        40           C   tau(  40) = (  0.6666667  0.7333333  0.0000000  )
        41           C   tau(  41) = (  0.6000000  0.8000000  0.0000000  )
        42           C   tau(  42) = (  0.6666667  0.9333333  0.0000000  )
        43           C   tau(  43) = (  0.8000000  0.0000000  0.0000000  )
        44           C   tau(  44) = (  0.8666667  0.1333333  0.0000000  )
        45           C   tau(  45) = (  0.8000000  0.2000000  0.0000000  )
        46           C   tau(  46) = (  0.8666667  0.3333333  0.0000000  )
        47           C   tau(  47) = (  0.8000000  0.4000000  0.0000000  )
        48           C   tau(  48) = (  0.8666667  0.5333333  0.0000000  )
        49           C   tau(  49) = (  0.8000000  0.6000000  0.0000000  )
        50           C   tau(  50) = (  0.8666667  0.7333333  0.0000000  )
        51           C   tau(  51) = (  0.8000000  0.8000000  0.0000000  )
        52           C   tau(  52) = (  0.8666667  0.9333333  0.0000000  )

     number of k points=     1  Marzari-Vanderbilt smearing, width (Ry)=  0.0010
                       cart. coord. in units 2pi/alat
        k(    1) = (   0.0000000   0.0000000   0.0000000), wk =   1.0000000

                       cryst. coord.
        k(    1) = (   0.0000000   0.0000000   0.0000000), wk =   1.0000000

     Check: negative core charge=   -0.000002

     Initial potential from superposition of free atoms

     starting charge  210.80465, renormalised to  211.00000

     negative rho (up, down):  1.536E-04 2.084E-02

Carrying out rVV10 run using the following parameters:
Nqs =      20    Nr_points =    1024   r_max =   100.000
b_value =  6.30000    beta =  0.00901
     q_mesh =  0.00010000  0.00030000  0.00058939  0.00100810
               0.00161396  0.00249058  0.00375900  0.00559430
               0.00824984  0.01209221  0.01765183  0.02569619
               0.03733578  0.05417739  0.07854596  0.11380545
               0.16482331  0.23864234  0.34545298  0.50000000

Gradients computed in Reciprocal space

     Starting wfcs are  208 randomized atomic wfcs

     Self-consistent Calculation

     iteration #  1     ecut=    70.00 Ry     beta= 0.70
     Davidson diagonalization with overlap
     ethr =  1.00E-02,  avg # of iterations =  3.0

[...]

     total energy              =    -748.96101303 Ry
     Harris-Foulkes estimate   =    -757.33637270 Ry
     estimated scf accuracy    <      16.56101437 Ry

     total magnetization       =     7.00 Bohr mag/cell
     absolute magnetization    =     7.58 Bohr mag/cell

[...]

     total energy              =    -757.29975181 Ry
     Harris-Foulkes estimate   =    -757.29975188 Ry
     estimated scf accuracy    <       0.00000116 Ry

[...]

     iteration # 39     ecut=    70.00 Ry     beta= 0.70
     Davidson diagonalization with overlap
     ethr =  5.48E-10,  avg # of iterations =  1.5

     negative rho (up, down):  3.199E-02 2.525E-03

     Magnetic moment per site:
     atom:    1    charge:    0.2247    magn:   -0.0001    constr:    0.0000
     atom:    2    charge:    0.2039    magn:   -0.0000    constr:    0.0000
     atom:    3    charge:    1.7170    magn:   -0.0079    constr:    0.0000
     atom:    4    charge:    1.7161    magn:    0.0129    constr:    0.0000
     atom:    5    charge:    1.7181    magn:   -0.0045    constr:    0.0000
     atom:    6    charge:    1.7140    magn:    0.0028    constr:    0.0000
     atom:    7    charge:    1.7184    magn:   -0.0039    constr:    0.0000
     atom:    8    charge:    1.7153    magn:    0.0083    constr:    0.0000
     atom:    9    charge:    1.7178    magn:   -0.0063    constr:    0.0000
     atom:   10    charge:    1.7139    magn:    0.0273    constr:    0.0000
     atom:   11    charge:    1.7183    magn:   -0.0089    constr:    0.0000
     atom:   12    charge:    1.7167    magn:    0.0449    constr:    0.0000
     atom:   13    charge:    1.7186    magn:   -0.0087    constr:    0.0000
     atom:   14    charge:    1.7141    magn:    0.0208    constr:    0.0000
     atom:   15    charge:    1.7166    magn:   -0.0090    constr:    0.0000
     atom:   16    charge:    1.7118    magn:    0.0400    constr:    0.0000
     atom:   17    charge:    1.7264    magn:   -0.0069    constr:    0.0000
     atom:   18    charge:    1.7122    magn:    0.0436    constr:    0.0000
     atom:   19    charge:    1.7164    magn:   -0.0100    constr:    0.0000
     atom:   20    charge:    1.7157    magn:    0.0334    constr:    0.0000
     atom:   21    charge:    1.7189    magn:   -0.0086    constr:    0.0000
     atom:   22    charge:    1.7126    magn:    0.0198    constr:    0.0000
     atom:   23    charge:    1.7184    magn:   -0.0056    constr:    0.0000
     atom:   24    charge:    1.7154    magn:    0.0066    constr:    0.0000
     atom:   25    charge:    1.7173    magn:   -0.0059    constr:    0.0000
     atom:   26    charge:    1.7096    magn:    0.0160    constr:    0.0000
     atom:   27    charge:    1.9133    magn:   -0.0009    constr:    0.0000
     atom:   28    charge:    7.8593    magn:    0.0991    constr:    0.0000
     atom:   29    charge:    1.9122    magn:    0.0007    constr:    0.0000
     atom:   30    charge:    1.7122    magn:    0.0368    constr:    0.0000
     atom:   31    charge:    1.7167    magn:   -0.0091    constr:    0.0000
     atom:   32    charge:    1.7150    magn:    0.0065    constr:    0.0000
     atom:   33    charge:    1.7186    magn:   -0.0040    constr:    0.0000
     atom:   34    charge:    1.7134    magn:    0.0049    constr:    0.0000
     atom:   35    charge:    1.7185    magn:   -0.0035    constr:    0.0000
     atom:   36    charge:    1.7142    magn:    0.0021    constr:    0.0000
     atom:   37    charge:    1.7279    magn:   -0.0025    constr:    0.0000
     atom:   38    charge:    1.7126    magn:    0.0127    constr:    0.0000
     atom:   39    charge:    1.9167    magn:   -0.0035    constr:    0.0000
     atom:   40    charge:    1.7143    magn:    0.0298    constr:    0.0000
     atom:   41    charge:    1.7265    magn:   -0.0059    constr:    0.0000
     atom:   42    charge:    1.7142    magn:    0.0025    constr:    0.0000
     atom:   43    charge:    1.7179    magn:   -0.0046    constr:    0.0000
     atom:   44    charge:    1.7142    magn:    0.0093    constr:    0.0000
     atom:   45    charge:    1.7247    magn:   -0.0030    constr:    0.0000
     atom:   46    charge:    1.7137    magn:    0.0062    constr:    0.0000
     atom:   47    charge:    1.7182    magn:   -0.0037    constr:    0.0000
     atom:   48    charge:    1.7160    magn:    0.0086    constr:    0.0000
     atom:   49    charge:    1.7173    magn:   -0.0049    constr:    0.0000
     atom:   50    charge:    1.7139    magn:    0.0143    constr:    0.0000
     atom:   51    charge:    1.7168    magn:   -0.0072    constr:    0.0000
     atom:   52    charge:    1.7164    magn:    0.0125    constr:    0.0000

     End of self-consistent calculation

 ------ SPIN UP ------------

          k = 0.0000 0.0000 0.0000 ( 87777 PWs)   bands (ev):

   -62.7781 -37.9073 -37.8571 -36.5376 -19.6323 -18.8147 -18.7631 -18.7192
   -18.6841 -18.6586 -18.2417 -16.9431 -16.9306 -16.9237 -16.8108 -16.7830
   -16.5148 -16.0817 -16.0742 -15.9827 -15.8461 -15.8228 -15.0950 -13.9151
   -13.8920 -13.8756 -13.8535 -13.8493 -13.1379 -12.9169 -12.9105 -12.8936
   -12.5203 -12.4985 -12.1216 -11.6481 -11.6368 -11.5163 -11.1693 -11.1294
   -10.2302  -9.4981  -9.3376  -9.2785  -9.2512  -9.1761  -9.1733  -9.0879
    -9.0630  -9.0569  -9.0455  -8.4545  -8.4425  -7.8952  -7.8831  -7.8519
    -7.7438  -7.6712  -7.2561  -7.2400  -6.9507  -6.9101  -6.8595  -6.7012
    -6.6869  -6.6793  -6.5937  -6.5807  -6.5399  -6.4397  -6.4176  -6.3938
    -6.3802  -6.3676  -6.3268  -6.1102  -5.2567  -5.2497  -5.1471  -5.0443
    -4.9402  -4.9385  -4.8295  -4.7389  -4.6255  -4.6061  -4.6044  -4.1908
    -3.9805  -3.9671  -3.7691  -3.7488  -3.6533  -3.6032  -3.4944  -3.4905
    -2.7714  -2.2784  -2.2493  -2.2154  -2.1789  -1.7487  -1.6827  -1.6711
    -0.4366  -0.2530  -0.2426   1.0378   1.0757   1.0893   1.6680   2.0079
     2.0489   2.0972   2.4636   2.8742   2.9058   2.9744   3.2945   3.5093
     3.7027   3.7398   3.7562   3.8045   3.9266   3.9933   4.0067

     occupation numbers
     1.0000   1.0000   1.0000   1.0000   1.0000   1.0000   1.0000   1.0000
     1.0000   1.0000   1.0000   1.0000   1.0000   1.0000   1.0000   1.0000
     1.0000   1.0000   1.0000   1.0000   1.0000   1.0000   1.0000   1.0000
     1.0000   1.0000   1.0000   1.0000   1.0000   1.0000   1.0000   1.0000
     1.0000   1.0000   1.0000   1.0000   1.0000   1.0000   1.0000   1.0000
     1.0000   1.0000   1.0000   1.0000   1.0000   1.0000   1.0000   1.0000
     1.0000   1.0000   1.0000   1.0000   1.0000   1.0000   1.0000   1.0000
     1.0000   1.0000   1.0000   1.0000   1.0000   1.0000   1.0000   1.0000
     1.0000   1.0000   1.0000   1.0000   1.0000   1.0000   1.0000   1.0000
     1.0000   1.0000   1.0000   1.0000   1.0000   1.0000   1.0000   1.0000
     1.0000   1.0000   1.0000   1.0000   1.0000   1.0000   1.0000   1.0000
     1.0000   1.0000   1.0000   1.0000   1.0000   1.0000   1.0000   1.0000
     1.0000   1.0000   1.0000   1.0000   1.0000   1.0000   1.0000   1.0000
     1.0000   0.7642   0.2358   0.0000   0.0000   0.0000   0.0000   0.0000
     0.0000   0.0000   0.0000   0.0000   0.0000   0.0000   0.0000   0.0000
     0.0000   0.0000   0.0000   0.0000   0.0000   0.0000   0.0000

 ------ SPIN DOWN ----------

          k = 0.0000 0.0000 0.0000 ( 87777 PWs)   bands (ev):

   -62.5865 -37.7948 -37.6527 -36.2766 -19.6111 -18.7985 -18.7371 -18.6993
   -18.6690 -18.6409 -18.2088 -16.9312 -16.9116 -16.9022 -16.7859 -16.7519
   -16.5001 -16.0538 -16.0483 -15.9662 -15.8250 -15.8010 -15.0805 -13.8900
   -13.8646 -13.8539 -13.8393 -13.8127 -13.1407 -12.9074 -12.8985 -12.8782
   -12.5122 -12.4898 -12.1034 -11.6286 -11.6202 -11.5032 -11.1584 -11.1153
   -10.2147  -9.4806  -9.3187  -9.2634  -9.2386  -9.1589  -9.1565  -9.0799
    -9.0471  -9.0446  -9.0343  -8.4468  -8.4360  -7.8844  -7.8711  -7.8446
    -7.6946  -7.6627  -7.2470  -7.2314  -6.8744  -6.8690  -6.8104  -6.6638
    -6.6500  -6.6365  -6.5824  -6.5706  -6.5305  -6.4307  -6.4073  -6.3891
    -6.3730  -6.3592  -6.3181  -6.0355  -5.2493  -5.2398  -5.0455  -4.9831
    -4.9305  -4.9284  -4.8236  -4.7327  -4.5892  -4.5562  -4.5472  -4.1566
    -3.9278  -3.9188  -3.6932  -3.6768  -3.6052  -3.5756  -3.4875  -3.4840
    -2.7348  -2.2179  -2.1771  -2.1565  -2.1083  -1.6792  -1.6606  -1.6366
    -0.4348  -0.0839   0.0332   1.0804   1.1059   1.1380   1.7387   2.0633
     2.1284   2.1556   2.4690   2.9432   2.9755   3.0145   3.3209   3.5187
     3.7129   3.7430   3.7581   3.8106   3.9556   4.0540   4.0870

     occupation numbers
     1.0000   1.0000   1.0000   1.0000   1.0000   1.0000   1.0000   1.0000
     1.0000   1.0000   1.0000   1.0000   1.0000   1.0000   1.0000   1.0000
     1.0000   1.0000   1.0000   1.0000   1.0000   1.0000   1.0000   1.0000
     1.0000   1.0000   1.0000   1.0000   1.0000   1.0000   1.0000   1.0000
     1.0000   1.0000   1.0000   1.0000   1.0000   1.0000   1.0000   1.0000
     1.0000   1.0000   1.0000   1.0000   1.0000   1.0000   1.0000   1.0000
     1.0000   1.0000   1.0000   1.0000   1.0000   1.0000   1.0000   1.0000
     1.0000   1.0000   1.0000   1.0000   1.0000   1.0000   1.0000   1.0000
     1.0000   1.0000   1.0000   1.0000   1.0000   1.0000   1.0000   1.0000
     1.0000   1.0000   1.0000   1.0000   1.0000   1.0000   1.0000   1.0000
     1.0000   1.0000   1.0000   1.0000   1.0000   1.0000   1.0000   1.0000
     1.0000   1.0000   1.0000   1.0000   1.0000   1.0000   1.0000   1.0000
     1.0000   1.0000   1.0000   1.0000   1.0000   1.0000   1.0000   1.0000
     1.0000   0.0000   0.0000   0.0000   0.0000   0.0000   0.0000   0.0000
     0.0000   0.0000   0.0000   0.0000   0.0000   0.0000   0.0000   0.0000
     0.0000   0.0000   0.0000   0.0000   0.0000   0.0000   0.0000

     the Fermi energy is    -0.2463 ev

!    total energy              =    -757.29975149 Ry
     Harris-Foulkes estimate   =    -757.29975190 Ry
     estimated scf accuracy    <       0.00000072 Ry

     The total energy is the sum of the following terms:

     one-electron contribution =   -2617.45788955 Ry
     hartree contribution      =    1355.52422041 Ry
     xc contribution           =    -252.75193613 Ry
     ewald contribution        =     757.38608404 Ry
     smearing contrib. (-TS)   =      -0.00023025 Ry

     total magnetization       =     1.00 Bohr mag/cell
     absolute magnetization    =     1.54 Bohr mag/cell

     convergence has been achieved in  39 iterations

     Writing output data file vanadio-bridge-distance-1.8.save/

     General routines

     Parallel routines

   This run was terminated on:  14:16: 2   1Sep2022

   JOB DONE.