     Program PWSCF v.6.4.1 starts on 22Aug2022 at 20: 8:41

     R & G space division:  proc/nbgrp/npool/nimage =       6
     Reading input from distance-1.8.in

     Current dimensions of program PWSCF are:
     Max number of different atomic species (ntypx) = 10
     Max number of k-points (npk) =  40000
     Max angular momentum in pseudopotentials (lmaxx) =  3

     IMPORTANT: XC functional enforced from input :
     Exchange-correlation      = RVV10 ( 1  4 13  4 3 0)
     Any further DFT definition will be discarded
     Please, verify this is what you really want

               file H.pbe-rrkjus.UPF: wavefunction(s)  1S renormalized
               file V.pbe-spnl-rrkjus_psl.1.0.0.UPF: wavefunction(s)  3P 3D renormalized

     Subspace diagonalization in iterative solution of the eigenvalue problem:
     a serial algorithm will be used

     bravais-lattice index     =            4
     lattice parameter (alat)  =      23.2937  a.u.
     unit-cell volume          =    8879.8548 (a.u.)^3
     number of atoms/cell      =           52
     number of atomic types    =            3
     number of electrons       =       211.00
     number of Kohn-Sham states=          127
     kinetic-energy cutoff     =      70.0000  Ry
     charge density cutoff     =     490.0000  Ry
     convergence threshold     =      1.0E-06
     mixing beta               =       0.7000
     number of iterations used =            8  plain     mixing
     Exchange-correlation      = RVV10 ( 1  4 13  4 3 0)

     celldm(1)=  23.293684  celldm(2)=   0.000000  celldm(3)=   0.811261
     celldm(4)=   0.000000  celldm(5)=   0.000000  celldm(6)=   0.000000

     crystal axes: (cart. coord. in units of alat)
               a(1) = (   1.000000   0.000000   0.000000 )
               a(2) = (  -0.500000   0.866025   0.000000 )
               a(3) = (   0.000000   0.000000   0.811261 )

     reciprocal axes: (cart. coord. in units 2 pi/alat)
               b(1) = (  1.000000  0.577350 -0.000000 )
               b(2) = (  0.000000  1.154701  0.000000 )
               b(3) = (  0.000000 -0.000000  1.232649 )

     PseudoPot. # 1 for H  read from file:
     /home/cristian/Escritorio/Proyecto_Grafeno/pseudopotenciales/H.pbe-rrkjus.UPF
     MD5 check sum: 7cc9d459525c9a0585f487a71c3c9563
     Pseudo is Ultrasoft, Zval =  1.0
     Generated by new atomic code, or converted to UPF format
     Using radial grid of 1061 points,  2 beta functions with:
                l(1) =   0
                l(2) =   0
     Q(r) pseudized with 0 coefficients

     PseudoPot. # 2 for C  read from file:
     /home/cristian/Escritorio/Proyecto_Grafeno/pseudopotenciales/C.pbe-n-rrkjus_psl.1.0.0.UPF
     MD5 check sum: 1fdd950c42eb37d8afe3dd2f8d12311e
     Pseudo is Ultrasoft + core correction, Zval =  4.0
     Generated using "atomic" code by A. Dal Corso v.6.3MaX
     Using radial grid of 1073 points,  4 beta functions with:
                l(1) =   0
                l(2) =   0
                l(3) =   1
                l(4) =   1
     Q(r) pseudized with 0 coefficients

     PseudoPot. # 3 for V  read from file:
     /home/cristian/Escritorio/Proyecto_Grafeno/pseudopotenciales/V.pbe-spnl-rrkjus_psl.1.0.0.UPF
     MD5 check sum: 79b3eb63147daf0b665d9f1bcc691206
     Pseudo is Ultrasoft + core correction, Zval = 13.0
     Generated using "atomic" code by A. Dal Corso v.6.2.2
     Using radial grid of 1181 points,  6 beta functions with:
                l(1) =   0
                l(2) =   0
                l(3) =   1
                l(4) =   1
                l(5) =   2
                l(6) =   2
     Q(r) pseudized with 0 coefficients

     vdW kernel table read from file rVV10_kernel_table
     MD5 check sum: b8e2538accc0c0b3206b45ba4daaba6c

     atomic species   valence    mass     pseudopotential
        H              1.00     1.00794     H ( 1.00)
        C              4.00    12.01070     C ( 1.00)
        V             13.00    50.94150     V ( 1.00)

     Starting magnetic structure
     atomic species   magnetization
        H            0.500
        C            0.300
        V            0.800

     No symmetry found

                                    s                        frac. trans.

      isym =  1     identity

 cryst.   s( 1) = (     1          0          0      )
                  (     0          1          0      )
                  (     0          0          1      )

 cart.    s( 1) = (  1.0000000  0.0000000  0.0000000 )
                  (  0.0000000  1.0000000  0.0000000 )
                  (  0.0000000  0.0000000  1.0000000 )

     point group C_1 (1)
     there are  1 classes
     the character table:

       E
A      1.00

     the symmetry operations in each class and the name of the first element:

     E        1
          identity

   Cartesian axes

     site n.     atom                  positions (alat units)
         1           H   tau(   1) = (   0.2500000   0.4907477   0.1460270  )
         2           H   tau(   2) = (   0.2500000   0.4907477   0.2070397  )
         3           C   tau(   3) = (   0.0000000   0.0000000   0.0000000  )
         4           C   tau(   4) = (   0.0000000   0.1154701   0.0000000  )
         5           C   tau(   5) = (  -0.1000000   0.1732051   0.0000000  )
         6           C   tau(   6) = (  -0.1000000   0.2886751   0.0000000  )
         7           C   tau(   7) = (  -0.2000000   0.3464102   0.0000000  )
         8           C   tau(   8) = (  -0.2000000   0.4618802   0.0000000  )
         9           C   tau(   9) = (  -0.3000000   0.5196152   0.0000000  )
        10           C   tau(  10) = (  -0.3000000   0.6350853   0.0000000  )
        11           C   tau(  11) = (  -0.4000000   0.6928203   0.0000000  )
        12           C   tau(  12) = (  -0.4000000   0.8082904   0.0000000  )
        13           C   tau(  13) = (   0.2000000   0.0000000   0.0000000  )
        14           C   tau(  14) = (   0.2000000   0.1154701   0.0000000  )
        15           C   tau(  15) = (   0.1000000   0.1732051   0.0000000  )
        16           C   tau(  16) = (   0.1000000   0.2886751   0.0000000  )
        17           C   tau(  17) = (   0.0000000   0.3464102   0.0000000  )
        18           C   tau(  18) = (   0.0000000   0.4618802   0.0000000  )
        19           C   tau(  19) = (  -0.1000000   0.5196152   0.0000000  )
        20           C   tau(  20) = (  -0.1000000   0.6350853   0.0000000  )
        21           C   tau(  21) = (  -0.2000000   0.6928203   0.0000000  )
        22           C   tau(  22) = (  -0.2000000   0.8082904   0.0000000  )
        23           C   tau(  23) = (   0.4000000   0.0000000   0.0000000  )
        24           C   tau(  24) = (   0.4000000   0.1154701   0.0000000  )
        25           C   tau(  25) = (   0.3000000   0.1732051   0.0000000  )
        26           C   tau(  26) = (   0.3000000   0.2886751   0.0000000  )
        27           C   tau(  27) = (   0.2000000   0.3464102   0.0000000  )
        28           V   tau(  28) = (   0.2000000   0.4618802   0.0000000  )
        29           C   tau(  29) = (   0.1000000   0.5196152   0.0000000  )
        30           C   tau(  30) = (   0.1000000   0.6350853   0.0000000  )
        31           C   tau(  31) = (   0.0000000   0.6928203   0.0000000  )
        32           C   tau(  32) = (   0.0000000   0.8082904   0.0000000  )
        33           C   tau(  33) = (   0.6000000   0.0000000   0.0000000  )
        34           C   tau(  34) = (   0.6000000   0.1154701   0.0000000  )
        35           C   tau(  35) = (   0.5000000   0.1732051   0.0000000  )
        36           C   tau(  36) = (   0.5000000   0.2886751   0.0000000  )
        37           C   tau(  37) = (   0.4000000   0.3464102   0.0000000  )
        38           C   tau(  38) = (   0.4000000   0.4618802   0.0000000  )
        39           C   tau(  39) = (   0.3000000   0.5196152   0.0000000  )
        40           C   tau(  40) = (   0.3000000   0.6350853   0.0000000  )
        41           C   tau(  41) = (   0.2000000   0.6928203   0.0000000  )
        42           C   tau(  42) = (   0.2000000   0.8082904   0.0000000  )
        43           C   tau(  43) = (   0.8000000   0.0000000   0.0000000  )
        44           C   tau(  44) = (   0.8000000   0.1154701   0.0000000  )
        45           C   tau(  45) = (   0.7000000   0.1732051   0.0000000  )
        46           C   tau(  46) = (   0.7000000   0.2886751   0.0000000  )
        47           C   tau(  47) = (   0.6000000   0.3464102   0.0000000  )
        48           C   tau(  48) = (   0.6000000   0.4618802   0.0000000  )
        49           C   tau(  49) = (   0.5000000   0.5196152   0.0000000  )
        50           C   tau(  50) = (   0.5000000   0.6350853   0.0000000  )
        51           C   tau(  51) = (   0.4000000   0.6928203   0.0000000  )
        52           C   tau(  52) = (   0.4000000   0.8082904   0.0000000  )

   Crystallographic axes

     site n.     atom                  positions (cryst. coord.)
         1           H   tau(   1) = (  0.5333333  0.5666667  0.1800000  )
         2           H   tau(   2) = (  0.5333333  0.5666667  0.2552072  )
         3           C   tau(   3) = (  0.0000000  0.0000000  0.0000000  )
         4           C   tau(   4) = (  0.0666667  0.1333333  0.0000000  )
         5           C   tau(   5) = (  0.0000000  0.2000000  0.0000000  )
         6           C   tau(   6) = (  0.0666667  0.3333333  0.0000000  )
         7           C   tau(   7) = (  0.0000000  0.4000000  0.0000000  )
         8           C   tau(   8) = (  0.0666667  0.5333333  0.0000000  )
         9           C   tau(   9) = (  0.0000000  0.6000000  0.0000000  )
        10           C   tau(  10) = (  0.0666667  0.7333333  0.0000000  )
        11           C   tau(  11) = (  0.0000000  0.8000000  0.0000000  )
        12           C   tau(  12) = (  0.0666667  0.9333333  0.0000000  )
        13           C   tau(  13) = (  0.2000000  0.0000000  0.0000000  )
        14           C   tau(  14) = (  0.2666667  0.1333333  0.0000000  )
        15           C   tau(  15) = (  0.2000000  0.2000000  0.0000000  )
        16           C   tau(  16) = (  0.2666667  0.3333333  0.0000000  )
        17           C   tau(  17) = (  0.2000000  0.4000000  0.0000000  )
        18           C   tau(  18) = (  0.2666667  0.5333333  0.0000000  )
        19           C   tau(  19) = (  0.2000000  0.6000000  0.0000000  )
        20           C   tau(  20) = (  0.2666667  0.7333333  0.0000000  )
        21           C   tau(  21) = (  0.2000000  0.8000000  0.0000000  )
        22           C   tau(  22) = (  0.2666667  0.9333333  0.0000000  )
        23           C   tau(  23) = (  0.4000000  0.0000000  0.0000000  )
        24           C   tau(  24) = (  0.4666667  0.1333333  0.0000000  )
        25           C   tau(  25) = (  0.4000000  0.2000000  0.0000000  )
        26           C   tau(  26) = (  0.4666667  0.3333333  0.0000000  )
        27           C   tau(  27) = (  0.4000000  0.4000000  0.0000000  )
        28           V   tau(  28) = (  0.4666667  0.5333333  0.0000000  )
        29           C   tau(  29) = (  0.4000000  0.6000000  0.0000000  )
        30           C   tau(  30) = (  0.4666667  0.7333333  0.0000000  )
        31           C   tau(  31) = (  0.4000000  0.8000000  0.0000000  )
        32           C   tau(  32) = (  0.4666667  0.9333333  0.0000000  )
        33           C   tau(  33) = (  0.6000000  0.0000000  0.0000000  )
        34           C   tau(  34) = (  0.6666667  0.1333333  0.0000000  )
        35           C   tau(  35) = (  0.6000000  0.2000000  0.0000000  )
        36           C   tau(  36) = (  0.6666667  0.3333333  0.0000000  )
        37           C   tau(  37) = (  0.6000000  0.4000000  0.0000000  )
        38           C   tau(  38) = (  0.6666667  0.5333333  0.0000000  )
        39           C   tau(  39) = (  0.6000000  0.6000000  0.0000000  )
        40           C   tau(  40) = (  0.6666667  0.7333333  0.0000000  )
        41           C   tau(  41) = (  0.6000000  0.8000000  0.0000000  )
        42           C   tau(  42) = (  0.6666667  0.9333333  0.0000000  )
        43           C   tau(  43) = (  0.8000000  0.0000000  0.0000000  )
        44           C   tau(  44) = (  0.8666667  0.1333333  0.0000000  )
        45           C   tau(  45) = (  0.8000000  0.2000000  0.0000000  )
        46           C   tau(  46) = (  0.8666667  0.3333333  0.0000000  )
        47           C   tau(  47) = (  0.8000000  0.4000000  0.0000000  )
        48           C   tau(  48) = (  0.8666667  0.5333333  0.0000000  )
        49           C   tau(  49) = (  0.8000000  0.6000000  0.0000000  )
        50           C   tau(  50) = (  0.8666667  0.7333333  0.0000000  )
        51           C   tau(  51) = (  0.8000000  0.8000000  0.0000000  )
        52           C   tau(  52) = (  0.8666667  0.9333333  0.0000000  )

     number of k points=     1  Marzari-Vanderbilt smearing, width (Ry)=  0.0010
                       cart. coord. in units 2pi/alat
        k(    1) = (   0.0000000   0.0000000   0.0000000), wk =   1.0000000

                       cryst. coord.
        k(    1) = (   0.0000000   0.0000000   0.0000000), wk =   1.0000000

     Check: negative core charge=   -0.000002

     Initial potential from superposition of free atoms

     starting charge  210.80465, renormalised to  211.00000

     negative rho (up, down):  1.377E-04 1.870E-02

Carrying out rVV10 run using the following parameters:
Nqs =      20    Nr_points =    1024   r_max =   100.000
b_value =  6.30000    beta =  0.00901
     q_mesh =  0.00010000  0.00030000  0.00058939  0.00100810
               0.00161396  0.00249058  0.00375900  0.00559430
               0.00824984  0.01209221  0.01765183  0.02569619
               0.03733578  0.05417739  0.07854596  0.11380545
               0.16482331  0.23864234  0.34545298  0.50000000

Gradients computed in Reciprocal space

     Starting wfcs are  208 randomized atomic wfcs

     Self-consistent Calculation

     iteration #  1     ecut=    70.00 Ry     beta= 0.70
     Davidson diagonalization with overlap
     ethr =  1.00E-02,  avg # of iterations =  3.0

[...]

     total energy              =    -751.97998673 Ry
     Harris-Foulkes estimate   =    -757.18911591 Ry
     estimated scf accuracy    <      13.25021521 Ry

     total magnetization       =     5.00 Bohr mag/cell
     absolute magnetization    =     6.04 Bohr mag/cell

[...]

     total energy              =    -757.31723467 Ry
     Harris-Foulkes estimate   =    -757.31723493 Ry
     estimated scf accuracy    <       0.00000201 Ry

[...]

     iteration # 28     ecut=    70.00 Ry     beta= 0.70
     Davidson diagonalization with overlap
     ethr =  7.81E-10,  avg # of iterations =  3.5

     negative rho (up, down):  3.342E-02 2.734E-03

     Magnetic moment per site:
     atom:    1    charge:    0.2205    magn:   -0.0000    constr:    0.0000
     atom:    2    charge:    0.2063    magn:    0.0004    constr:    0.0000
     atom:    3    charge:    1.7181    magn:   -0.0060    constr:    0.0000
     atom:    4    charge:    1.7156    magn:    0.0074    constr:    0.0000
     atom:    5    charge:    1.7184    magn:   -0.0034    constr:    0.0000
     atom:    6    charge:    1.7141    magn:    0.0022    constr:    0.0000
     atom:    7    charge:    1.7184    magn:   -0.0034    constr:    0.0000
     atom:    8    charge:    1.7156    magn:    0.0074    constr:    0.0000
     atom:    9    charge:    1.7181    magn:   -0.0060    constr:    0.0000
     atom:   10    charge:    1.7128    magn:    0.0211    constr:    0.0000
     atom:   11    charge:    1.7189    magn:   -0.0090    constr:    0.0000
     atom:   12    charge:    1.7128    magn:    0.0211    constr:    0.0000
     atom:   13    charge:    1.7185    magn:   -0.0091    constr:    0.0000
     atom:   14    charge:    1.7135    magn:    0.0159    constr:    0.0000
     atom:   15    charge:    1.7176    magn:   -0.0048    constr:    0.0000
     atom:   16    charge:    1.7082    magn:    0.0086    constr:    0.0000
     atom:   17    charge:    1.7282    magn:   -0.0014    constr:    0.0000
     atom:   18    charge:    1.7082    magn:    0.0086    constr:    0.0000
     atom:   19    charge:    1.7175    magn:   -0.0048    constr:    0.0000
     atom:   20    charge:    1.7135    magn:    0.0159    constr:    0.0000
     atom:   21    charge:    1.7185    magn:   -0.0091    constr:    0.0000
     atom:   22    charge:    1.7175    magn:    0.0509    constr:    0.0000
     atom:   23    charge:    1.7168    magn:   -0.0087    constr:    0.0000
     atom:   24    charge:    1.7164    magn:    0.0143    constr:    0.0000
     atom:   25    charge:    1.7169    magn:   -0.0086    constr:    0.0000
     atom:   26    charge:    1.7122    magn:    0.0375    constr:    0.0000
     atom:   27    charge:    1.9145    magn:   -0.0021    constr:    0.0000
     atom:   28    charge:    7.8613    magn:    0.0992    constr:    0.0000
     atom:   29    charge:    1.9145    magn:   -0.0021    constr:    0.0000
     atom:   30    charge:    1.7122    magn:    0.0376    constr:    0.0000
     atom:   31    charge:    1.7169    magn:   -0.0086    constr:    0.0000
     atom:   32    charge:    1.7164    magn:    0.0143    constr:    0.0000
     atom:   33    charge:    1.7180    magn:   -0.0051    constr:    0.0000
     atom:   34    charge:    1.7143    magn:    0.0104    constr:    0.0000
     atom:   35    charge:    1.7180    magn:   -0.0051    constr:    0.0000
     atom:   36    charge:    1.7141    magn:    0.0030    constr:    0.0000
     atom:   37    charge:    1.7262    magn:   -0.0073    constr:    0.0000
     atom:   38    charge:    1.7138    magn:    0.0432    constr:    0.0000
     atom:   39    charge:    1.9161    magn:    0.0016    constr:    0.0000
     atom:   40    charge:    1.7138    magn:    0.0432    constr:    0.0000
     atom:   41    charge:    1.7262    magn:   -0.0074    constr:    0.0000
     atom:   42    charge:    1.7141    magn:    0.0030    constr:    0.0000
     atom:   43    charge:    1.7185    magn:   -0.0043    constr:    0.0000
     atom:   44    charge:    1.7135    magn:    0.0052    constr:    0.0000
     atom:   45    charge:    1.7246    magn:   -0.0031    constr:    0.0000
     atom:   46    charge:    1.7135    magn:    0.0052    constr:    0.0000
     atom:   47    charge:    1.7185    magn:   -0.0043    constr:    0.0000
     atom:   48    charge:    1.7150    magn:    0.0068    constr:    0.0000
     atom:   49    charge:    1.7161    magn:   -0.0104    constr:    0.0000
     atom:   50    charge:    1.7165    magn:    0.0380    constr:    0.0000
     atom:   51    charge:    1.7161    magn:   -0.0104    constr:    0.0000
     atom:   52    charge:    1.7151    magn:    0.0068    constr:    0.0000

     End of self-consistent calculation

 ------ SPIN UP ------------

          k = 0.0000 0.0000 0.0000 ( 87777 PWs)   bands (ev):

   -62.8094 -37.9264 -37.8769 -36.5805 -19.6320 -18.8138 -18.7629 -18.7203
   -18.6815 -18.6604 -18.2357 -16.9455 -16.9266 -16.9244 -16.8065 -16.7840
   -16.5138 -16.0800 -16.0751 -15.9840 -15.8316 -15.8290 -15.0838 -13.9001
   -13.8901 -13.8778 -13.8572 -13.8513 -13.1321 -12.9182 -12.9082 -12.8941
   -12.5041 -12.5037 -12.1133 -11.6450 -11.6378 -11.5159 -11.1412 -11.1355
   -10.1650  -9.3374  -9.3346  -9.2517  -9.1820  -9.1785  -9.0893  -9.0651
    -9.0583  -9.0476  -8.5962  -8.4617  -8.3846  -7.8938  -7.8845  -7.8525
    -7.7385  -7.6717  -7.2537  -7.2441  -6.9661  -6.9016  -6.8632  -6.6993
    -6.6963  -6.6772  -6.5913  -6.5855  -6.5404  -6.4407  -6.4185  -6.3900
    -6.3886  -6.3655  -6.3273  -6.1458  -5.2627  -5.2460  -5.1539  -5.0741
    -4.9428  -4.9389  -4.8294  -4.7403  -4.6190  -4.6052  -4.6019  -4.2118
    -3.9827  -3.9723  -3.7582  -3.7526  -3.6541  -3.6126  -3.4955  -3.4917
    -2.8272  -2.2730  -2.2504  -2.2178  -2.1971  -1.7427  -1.6822  -1.6728
    -0.4907  -0.2545  -0.2399   1.0524   1.0793   1.0875   1.2444   1.8044
     2.0501   2.0544   2.4658   2.8955   2.9011   2.9794   3.4962   3.5073
     3.5147   3.7348   3.7539   3.7887   3.9139   4.0043   4.0079

     occupation numbers
     1.0000   1.0000   1.0000   1.0000   1.0000   1.0000   1.0000   1.0000
     1.0000   1.0000   1.0000   1.0000   1.0000   1.0000   1.0000   1.0000
     1.0000   1.0000   1.0000   1.0000   1.0000   1.0000   1.0000   1.0000
     1.0000   1.0000   1.0000   1.0000   1.0000   1.0000   1.0000   1.0000
     1.0000   1.0000   1.0000   1.0000   1.0000   1.0000   1.0000   1.0000
     1.0000   1.0000   1.0000   1.0000   1.0000   1.0000   1.0000   1.0000
     1.0000   1.0000   1.0000   1.0000   1.0000   1.0000   1.0000   1.0000
     1.0000   1.0000   1.0000   1.0000   1.0000   1.0000   1.0000   1.0000
     1.0000   1.0000   1.0000   1.0000   1.0000   1.0000   1.0000   1.0000
     1.0000   1.0000   1.0000   1.0000   1.0000   1.0000   1.0000   1.0000
     1.0000   1.0000   1.0000   1.0000   1.0000   1.0000   1.0000   1.0000
     1.0000   1.0000   1.0000   1.0000   1.0000   1.0000   1.0000   1.0000
     1.0000   1.0000   1.0000   1.0000   1.0000   1.0000   1.0000   1.0000
     1.0000   0.8449   0.1551   0.0000   0.0000   0.0000   0.0000   0.0000
     0.0000   0.0000   0.0000   0.0000   0.0000   0.0000   0.0000   0.0000
     0.0000   0.0000   0.0000   0.0000   0.0000   0.0000   0.0000

 ------ SPIN DOWN ----------

          k = 0.0000 0.0000 0.0000 ( 87777 PWs)   bands (ev):

   -62.6192 -37.8303 -37.6589 -36.3204 -19.6110 -18.7995 -18.7355 -18.7003
   -18.6676 -18.6418 -18.2027 -16.9359 -16.9047 -16.9040 -16.7827 -16.7518
   -16.4992 -16.0525 -16.0491 -15.9667 -15.8095 -15.8081 -15.0690 -13.8806
   -13.8608 -13.8585 -13.8317 -13.8191 -13.1355 -12.9088 -12.8957 -12.8788
   -12.4971 -12.4944 -12.0949 -11.6244 -11.6224 -11.5029 -11.1260 -11.1255
   -10.1502  -9.3232  -9.3149  -9.2392  -9.1676  -9.1606  -9.0814  -9.0491
    -9.0453  -9.0361  -8.5718  -8.4565  -8.3658  -7.8835  -7.8722  -7.8448
    -7.6951  -7.6633  -7.2442  -7.2359  -6.9021  -6.8710  -6.8060  -6.6699
    -6.6516  -6.6383  -6.5797  -6.5761  -6.5311  -6.4319  -6.4082  -6.3862
    -6.3797  -6.3574  -6.3185  -6.0617  -5.2559  -5.2361  -5.0991  -4.9685
    -4.9336  -4.9284  -4.8235  -4.7341  -4.5881  -4.5542  -4.5422  -4.1709
    -3.9473  -3.9090  -3.6829  -3.6827  -3.6029  -3.5841  -3.4899  -3.4836
    -2.7900  -2.2014  -2.1917  -2.1618  -2.1233  -1.6748  -1.6649  -1.6339
    -0.4887  -0.0987   0.0533   1.0990   1.1023   1.1379   1.3179   1.8733
     2.1006   2.1386   2.4703   2.9652   2.9693   3.0239   3.5024   3.5144
     3.5383   3.7352   3.7566   3.7948   3.9468   4.0595   4.0918

     occupation numbers
     1.0000   1.0000   1.0000   1.0000   1.0000   1.0000   1.0000   1.0000
     1.0000   1.0000   1.0000   1.0000   1.0000   1.0000   1.0000   1.0000
     1.0000   1.0000   1.0000   1.0000   1.0000   1.0000   1.0000   1.0000
     1.0000   1.0000   1.0000   1.0000   1.0000   1.0000   1.0000   1.0000
     1.0000   1.0000   1.0000   1.0000   1.0000   1.0000   1.0000   1.0000
     1.0000   1.0000   1.0000   1.0000   1.0000   1.0000   1.0000   1.0000
     1.0000   1.0000   1.0000   1.0000   1.0000   1.0000   1.0000   1.0000
     1.0000   1.0000   1.0000   1.0000   1.0000   1.0000   1.0000   1.0000
     1.0000   1.0000   1.0000   1.0000   1.0000   1.0000   1.0000   1.0000
     1.0000   1.0000   1.0000   1.0000   1.0000   1.0000   1.0000   1.0000
     1.0000   1.0000   1.0000   1.0000   1.0000   1.0000   1.0000   1.0000
     1.0000   1.0000   1.0000   1.0000   1.0000   1.0000   1.0000   1.0000
     1.0000   1.0000   1.0000   1.0000   1.0000   1.0000   1.0000   1.0000
     1.0000   0.0000   0.0000   0.0000   0.0000   0.0000   0.0000   0.0000
     0.0000   0.0000   0.0000   0.0000   0.0000   0.0000   0.0000   0.0000
     0.0000   0.0000   0.0000   0.0000   0.0000   0.0000   0.0000

     the Fermi energy is    -0.2461 ev

!    total energy              =    -757.31723623 Ry
     Harris-Foulkes estimate   =    -757.31723610 Ry
     estimated scf accuracy    <       0.00000022 Ry

     The total energy is the sum of the following terms:

     one-electron contribution =   -2606.74731213 Ry
     hartree contribution      =    1350.19868576 Ry
     xc contribution           =    -252.72421115 Ry
     ewald contribution        =     751.95575786 Ry
     smearing contrib. (-TS)   =      -0.00015656 Ry

     total magnetization       =     1.00 Bohr mag/cell
     absolute magnetization    =     1.56 Bohr mag/cell

     convergence has been achieved in  28 iterations

     Writing output data file distance-1.8.save/

     General routines

     Parallel routines

   This run was terminated on:  21: 2:25  22Aug2022

   JOB DONE.