     Program PWSCF v.6.4.1 starts on 22Aug2022 at 19:17:49

     R & G space division:  proc/nbgrp/npool/nimage =       6
     Reading input from distance-2.0.in

     Current dimensions of program PWSCF are:
     Max number of different atomic species (ntypx) = 10
     Max number of k-points (npk) =  40000
     Max angular momentum in pseudopotentials (lmaxx) =  3

     IMPORTANT: XC functional enforced from input :
     Exchange-correlation      = RVV10 ( 1  4 13  4 3 0)
     Any further DFT definition will be discarded
     Please, verify this is what you really want

               file H.pbe-rrkjus.UPF: wavefunction(s)  1S renormalized
               file V.pbe-spnl-rrkjus_psl.1.0.0.UPF: wavefunction(s)  3P 3D renormalized

     Subspace diagonalization in iterative solution of the eigenvalue problem:
     a serial algorithm will be used

     bravais-lattice index     =            4
     lattice parameter (alat)  =      23.2937  a.u.
     unit-cell volume          =    8879.8548 (a.u.)^3
     number of atoms/cell      =           52
     number of atomic types    =            3
     number of electrons       =       211.00
     number of Kohn-Sham states=          127
     kinetic-energy cutoff     =      70.0000  Ry
     charge density cutoff     =     490.0000  Ry
     convergence threshold     =      1.0E-06
     mixing beta               =       0.7000
     number of iterations used =            8  plain     mixing
     Exchange-correlation      = RVV10 ( 1  4 13  4 3 0)

     celldm(1)=  23.293684  celldm(2)=   0.000000  celldm(3)=   0.811261
     celldm(4)=   0.000000  celldm(5)=   0.000000  celldm(6)=   0.000000

     crystal axes: (cart. coord. in units of alat)
               a(1) = (   1.000000   0.000000   0.000000 )
               a(2) = (  -0.500000   0.866025   0.000000 )
               a(3) = (   0.000000   0.000000   0.811261 )

     reciprocal axes: (cart. coord. in units 2 pi/alat)
               b(1) = (  1.000000  0.577350 -0.000000 )
               b(2) = (  0.000000  1.154701  0.000000 )
               b(3) = (  0.000000 -0.000000  1.232649 )

     PseudoPot. # 1 for H  read from file:
     /home/cristian/Escritorio/Proyecto_Grafeno/pseudopotenciales/H.pbe-rrkjus.UPF
     MD5 check sum: 7cc9d459525c9a0585f487a71c3c9563
     Pseudo is Ultrasoft, Zval =  1.0
     Generated by new atomic code, or converted to UPF format
     Using radial grid of 1061 points,  2 beta functions with:
                l(1) =   0
                l(2) =   0
     Q(r) pseudized with 0 coefficients

     PseudoPot. # 2 for C  read from file:
     /home/cristian/Escritorio/Proyecto_Grafeno/pseudopotenciales/C.pbe-n-rrkjus_psl.1.0.0.UPF
     MD5 check sum: 1fdd950c42eb37d8afe3dd2f8d12311e
     Pseudo is Ultrasoft + core correction, Zval =  4.0
     Generated using "atomic" code by A. Dal Corso v.6.3MaX
     Using radial grid of 1073 points,  4 beta functions with:
                l(1) =   0
                l(2) =   0
                l(3) =   1
                l(4) =   1
     Q(r) pseudized with 0 coefficients

     PseudoPot. # 3 for V  read from file:
     /home/cristian/Escritorio/Proyecto_Grafeno/pseudopotenciales/V.pbe-spnl-rrkjus_psl.1.0.0.UPF
     MD5 check sum: 79b3eb63147daf0b665d9f1bcc691206
     Pseudo is Ultrasoft + core correction, Zval = 13.0
     Generated using "atomic" code by A. Dal Corso v.6.2.2
     Using radial grid of 1181 points,  6 beta functions with:
                l(1) =   0
                l(2) =   0
                l(3) =   1
                l(4) =   1
                l(5) =   2
                l(6) =   2
     Q(r) pseudized with 0 coefficients

     vdW kernel table read from file rVV10_kernel_table
     MD5 check sum: b8e2538accc0c0b3206b45ba4daaba6c

     atomic species   valence    mass     pseudopotential
        H              1.00     1.00794     H ( 1.00)
        C              4.00    12.01070     C ( 1.00)
        V             13.00    50.94150     V ( 1.00)

     Starting magnetic structure
     atomic species   magnetization
        H            0.500
        C            0.300
        V            0.800

     No symmetry found

                                    s                        frac. trans.

      isym =  1     identity

 cryst.   s( 1) = (     1          0          0      )
                  (     0          1          0      )
                  (     0          0          1      )

 cart.    s( 1) = (  1.0000000  0.0000000  0.0000000 )
                  (  0.0000000  1.0000000  0.0000000 )
                  (  0.0000000  0.0000000  1.0000000 )

     point group C_1 (1)
     there are  1 classes
     the character table:

       E
A      1.00

     the symmetry operations in each class and the name of the first element:

     E        1
          identity

   Cartesian axes

     site n.     atom                  positions (alat units)
         1           H   tau(   1) = (   0.2500000   0.4907477   0.1622522  )
         2           H   tau(   2) = (   0.2500000   0.4907477   0.2232649  )
         3           C   tau(   3) = (   0.0000000   0.0000000   0.0000000  )
         4           C   tau(   4) = (   0.0000000   0.1154701   0.0000000  )
         5           C   tau(   5) = (  -0.1000000   0.1732051   0.0000000  )
         6           C   tau(   6) = (  -0.1000000   0.2886751   0.0000000  )
         7           C   tau(   7) = (  -0.2000000   0.3464102   0.0000000  )
         8           C   tau(   8) = (  -0.2000000   0.4618802   0.0000000  )
         9           C   tau(   9) = (  -0.3000000   0.5196152   0.0000000  )
        10           C   tau(  10) = (  -0.3000000   0.6350853   0.0000000  )
        11           C   tau(  11) = (  -0.4000000   0.6928203   0.0000000  )
        12           C   tau(  12) = (  -0.4000000   0.8082904   0.0000000  )
        13           C   tau(  13) = (   0.2000000   0.0000000   0.0000000  )
        14           C   tau(  14) = (   0.2000000   0.1154701   0.0000000  )
        15           C   tau(  15) = (   0.1000000   0.1732051   0.0000000  )
        16           C   tau(  16) = (   0.1000000   0.2886751   0.0000000  )
        17           C   tau(  17) = (   0.0000000   0.3464102   0.0000000  )
        18           C   tau(  18) = (   0.0000000   0.4618802   0.0000000  )
        19           C   tau(  19) = (  -0.1000000   0.5196152   0.0000000  )
        20           C   tau(  20) = (  -0.1000000   0.6350853   0.0000000  )
        21           C   tau(  21) = (  -0.2000000   0.6928203   0.0000000  )
        22           C   tau(  22) = (  -0.2000000   0.8082904   0.0000000  )
        23           C   tau(  23) = (   0.4000000   0.0000000   0.0000000  )
        24           C   tau(  24) = (   0.4000000   0.1154701   0.0000000  )
        25           C   tau(  25) = (   0.3000000   0.1732051   0.0000000  )
        26           C   tau(  26) = (   0.3000000   0.2886751   0.0000000  )
        27           C   tau(  27) = (   0.2000000   0.3464102   0.0000000  )
        28           V   tau(  28) = (   0.2000000   0.4618802   0.0000000  )
        29           C   tau(  29) = (   0.1000000   0.5196152   0.0000000  )
        30           C   tau(  30) = (   0.1000000   0.6350853   0.0000000  )
        31           C   tau(  31) = (   0.0000000   0.6928203   0.0000000  )
        32           C   tau(  32) = (   0.0000000   0.8082904   0.0000000  )
        33           C   tau(  33) = (   0.6000000   0.0000000   0.0000000  )
        34           C   tau(  34) = (   0.6000000   0.1154701   0.0000000  )
        35           C   tau(  35) = (   0.5000000   0.1732051   0.0000000  )
        36           C   tau(  36) = (   0.5000000   0.2886751   0.0000000  )
        37           C   tau(  37) = (   0.4000000   0.3464102   0.0000000  )
        38           C   tau(  38) = (   0.4000000   0.4618802   0.0000000  )
        39           C   tau(  39) = (   0.3000000   0.5196152   0.0000000  )
        40           C   tau(  40) = (   0.3000000   0.6350853   0.0000000  )
        41           C   tau(  41) = (   0.2000000   0.6928203   0.0000000  )
        42           C   tau(  42) = (   0.2000000   0.8082904   0.0000000  )
        43           C   tau(  43) = (   0.8000000   0.0000000   0.0000000  )
        44           C   tau(  44) = (   0.8000000   0.1154701   0.0000000  )
        45           C   tau(  45) = (   0.7000000   0.1732051   0.0000000  )
        46           C   tau(  46) = (   0.7000000   0.2886751   0.0000000  )
        47           C   tau(  47) = (   0.6000000   0.3464102   0.0000000  )
        48           C   tau(  48) = (   0.6000000   0.4618802   0.0000000  )
        49           C   tau(  49) = (   0.5000000   0.5196152   0.0000000  )
        50           C   tau(  50) = (   0.5000000   0.6350853   0.0000000  )
        51           C   tau(  51) = (   0.4000000   0.6928203   0.0000000  )
        52           C   tau(  52) = (   0.4000000   0.8082904   0.0000000  )

   Crystallographic axes

     site n.     atom                  positions (cryst. coord.)
         1           H   tau(   1) = (  0.5333333  0.5666667  0.2000000  )
         2           H   tau(   2) = (  0.5333333  0.5666667  0.2752072  )
         3           C   tau(   3) = (  0.0000000  0.0000000  0.0000000  )
         4           C   tau(   4) = (  0.0666667  0.1333333  0.0000000  )
         5           C   tau(   5) = (  0.0000000  0.2000000  0.0000000  )
         6           C   tau(   6) = (  0.0666667  0.3333333  0.0000000  )
         7           C   tau(   7) = (  0.0000000  0.4000000  0.0000000  )
         8           C   tau(   8) = (  0.0666667  0.5333333  0.0000000  )
         9           C   tau(   9) = (  0.0000000  0.6000000  0.0000000  )
        10           C   tau(  10) = (  0.0666667  0.7333333  0.0000000  )
        11           C   tau(  11) = (  0.0000000  0.8000000  0.0000000  )
        12           C   tau(  12) = (  0.0666667  0.9333333  0.0000000  )
        13           C   tau(  13) = (  0.2000000  0.0000000  0.0000000  )
        14           C   tau(  14) = (  0.2666667  0.1333333  0.0000000  )
        15           C   tau(  15) = (  0.2000000  0.2000000  0.0000000  )
        16           C   tau(  16) = (  0.2666667  0.3333333  0.0000000  )
        17           C   tau(  17) = (  0.2000000  0.4000000  0.0000000  )
        18           C   tau(  18) = (  0.2666667  0.5333333  0.0000000  )
        19           C   tau(  19) = (  0.2000000  0.6000000  0.0000000  )
        20           C   tau(  20) = (  0.2666667  0.7333333  0.0000000  )
        21           C   tau(  21) = (  0.2000000  0.8000000  0.0000000  )
        22           C   tau(  22) = (  0.2666667  0.9333333  0.0000000  )
        23           C   tau(  23) = (  0.4000000  0.0000000  0.0000000  )
        24           C   tau(  24) = (  0.4666667  0.1333333  0.0000000  )
        25           C   tau(  25) = (  0.4000000  0.2000000  0.0000000  )
        26           C   tau(  26) = (  0.4666667  0.3333333  0.0000000  )
        27           C   tau(  27) = (  0.4000000  0.4000000  0.0000000  )
        28           V   tau(  28) = (  0.4666667  0.5333333  0.0000000  )
        29           C   tau(  29) = (  0.4000000  0.6000000  0.0000000  )
        30           C   tau(  30) = (  0.4666667  0.7333333  0.0000000  )
        31           C   tau(  31) = (  0.4000000  0.8000000  0.0000000  )
        32           C   tau(  32) = (  0.4666667  0.9333333  0.0000000  )
        33           C   tau(  33) = (  0.6000000  0.0000000  0.0000000  )
        34           C   tau(  34) = (  0.6666667  0.1333333  0.0000000  )
        35           C   tau(  35) = (  0.6000000  0.2000000  0.0000000  )
        36           C   tau(  36) = (  0.6666667  0.3333333  0.0000000  )
        37           C   tau(  37) = (  0.6000000  0.4000000  0.0000000  )
        38           C   tau(  38) = (  0.6666667  0.5333333  0.0000000  )
        39           C   tau(  39) = (  0.6000000  0.6000000  0.0000000  )
        40           C   tau(  40) = (  0.6666667  0.7333333  0.0000000  )
        41           C   tau(  41) = (  0.6000000  0.8000000  0.0000000  )
        42           C   tau(  42) = (  0.6666667  0.9333333  0.0000000  )
        43           C   tau(  43) = (  0.8000000  0.0000000  0.0000000  )
        44           C   tau(  44) = (  0.8666667  0.1333333  0.0000000  )
        45           C   tau(  45) = (  0.8000000  0.2000000  0.0000000  )
        46           C   tau(  46) = (  0.8666667  0.3333333  0.0000000  )
        47           C   tau(  47) = (  0.8000000  0.4000000  0.0000000  )
        48           C   tau(  48) = (  0.8666667  0.5333333  0.0000000  )
        49           C   tau(  49) = (  0.8000000  0.6000000  0.0000000  )
        50           C   tau(  50) = (  0.8666667  0.7333333  0.0000000  )
        51           C   tau(  51) = (  0.8000000  0.8000000  0.0000000  )
        52           C   tau(  52) = (  0.8666667  0.9333333  0.0000000  )

     number of k points=     1  Marzari-Vanderbilt smearing, width (Ry)=  0.0010
                       cart. coord. in units 2pi/alat
        k(    1) = (   0.0000000   0.0000000   0.0000000), wk =   1.0000000

                       cryst. coord.
        k(    1) = (   0.0000000   0.0000000   0.0000000), wk =   1.0000000

     Check: negative core charge=   -0.000002

     Initial potential from superposition of free atoms

     starting charge  210.80465, renormalised to  211.00000

     negative rho (up, down):  1.322E-04 1.777E-02

Carrying out rVV10 run using the following parameters:
Nqs =      20    Nr_points =    1024   r_max =   100.000
b_value =  6.30000    beta =  0.00901
     q_mesh =  0.00010000  0.00030000  0.00058939  0.00100810
               0.00161396  0.00249058  0.00375900  0.00559430
               0.00824984  0.01209221  0.01765183  0.02569619
               0.03733578  0.05417739  0.07854596  0.11380545
               0.16482331  0.23864234  0.34545298  0.50000000

Gradients computed in Reciprocal space

     Starting wfcs are  208 randomized atomic wfcs

     Self-consistent Calculation

     iteration #  1     ecut=    70.00 Ry     beta= 0.70
     Davidson diagonalization with overlap
     ethr =  1.00E-02,  avg # of iterations =  2.5

[...]

     total energy              =    -752.42245358 Ry
     Harris-Foulkes estimate   =    -757.10314993 Ry
     estimated scf accuracy    <      12.64574298 Ry

     total magnetization       =     5.00 Bohr mag/cell
     absolute magnetization    =     6.05 Bohr mag/cell

[...]

     total energy              =    -757.32717756 Ry
     Harris-Foulkes estimate   =    -757.32718158 Ry
     estimated scf accuracy    <       0.00000965 Ry

[...]

     iteration # 27     ecut=    70.00 Ry     beta= 0.70
     Davidson diagonalization with overlap
     ethr =  4.57E-09,  avg # of iterations =  3.0

     negative rho (up, down):  3.378E-02 2.110E-03

     Magnetic moment per site:
     atom:    1    charge:    0.2169    magn:   -0.0000    constr:    0.0000
     atom:    2    charge:    0.2069    magn:    0.0001    constr:    0.0000
     atom:    3    charge:    1.7179    magn:   -0.0065    constr:    0.0000
     atom:    4    charge:    1.7156    magn:    0.0085    constr:    0.0000
     atom:    5    charge:    1.7183    magn:   -0.0038    constr:    0.0000
     atom:    6    charge:    1.7141    magn:    0.0024    constr:    0.0000
     atom:    7    charge:    1.7183    magn:   -0.0038    constr:    0.0000
     atom:    8    charge:    1.7157    magn:    0.0084    constr:    0.0000
     atom:    9    charge:    1.7179    magn:   -0.0065    constr:    0.0000
     atom:   10    charge:    1.7136    magn:    0.0261    constr:    0.0000
     atom:   11    charge:    1.7187    magn:   -0.0090    constr:    0.0000
     atom:   12    charge:    1.7136    magn:    0.0262    constr:    0.0000
     atom:   13    charge:    1.7185    magn:   -0.0090    constr:    0.0000
     atom:   14    charge:    1.7140    magn:    0.0196    constr:    0.0000
     atom:   15    charge:    1.7172    magn:   -0.0065    constr:    0.0000
     atom:   16    charge:    1.7096    magn:    0.0195    constr:    0.0000
     atom:   17    charge:    1.7276    magn:   -0.0034    constr:    0.0000
     atom:   18    charge:    1.7096    magn:    0.0195    constr:    0.0000
     atom:   19    charge:    1.7173    magn:   -0.0065    constr:    0.0000
     atom:   20    charge:    1.7140    magn:    0.0196    constr:    0.0000
     atom:   21    charge:    1.7186    magn:   -0.0090    constr:    0.0000
     atom:   22    charge:    1.7160    magn:    0.0408    constr:    0.0000
     atom:   23    charge:    1.7172    magn:   -0.0077    constr:    0.0000
     atom:   24    charge:    1.7160    magn:    0.0118    constr:    0.0000
     atom:   25    charge:    1.7169    magn:   -0.0083    constr:    0.0000
     atom:   26    charge:    1.7116    magn:    0.0334    constr:    0.0000
     atom:   27    charge:    1.9146    magn:   -0.0012    constr:    0.0000
     atom:   28    charge:    7.8610    magn:    0.1006    constr:    0.0000
     atom:   29    charge:    1.9146    magn:   -0.0012    constr:    0.0000
     atom:   30    charge:    1.7116    magn:    0.0336    constr:    0.0000
     atom:   31    charge:    1.7169    magn:   -0.0083    constr:    0.0000
     atom:   32    charge:    1.7160    magn:    0.0118    constr:    0.0000
     atom:   33    charge:    1.7182    magn:   -0.0046    constr:    0.0000
     atom:   34    charge:    1.7141    magn:    0.0086    constr:    0.0000
     atom:   35    charge:    1.7182    magn:   -0.0046    constr:    0.0000
     atom:   36    charge:    1.7141    magn:    0.0028    constr:    0.0000
     atom:   37    charge:    1.7265    magn:   -0.0062    constr:    0.0000
     atom:   38    charge:    1.7126    magn:    0.0363    constr:    0.0000
     atom:   39    charge:    1.9156    magn:    0.0006    constr:    0.0000
     atom:   40    charge:    1.7126    magn:    0.0364    constr:    0.0000
     atom:   41    charge:    1.7265    magn:   -0.0063    constr:    0.0000
     atom:   42    charge:    1.7141    magn:    0.0028    constr:    0.0000
     atom:   43    charge:    1.7184    magn:   -0.0043    constr:    0.0000
     atom:   44    charge:    1.7137    magn:    0.0060    constr:    0.0000
     atom:   45    charge:    1.7246    magn:   -0.0031    constr:    0.0000
     atom:   46    charge:    1.7137    magn:    0.0060    constr:    0.0000
     atom:   47    charge:    1.7184    magn:   -0.0043    constr:    0.0000
     atom:   48    charge:    1.7154    magn:    0.0081    constr:    0.0000
     atom:   49    charge:    1.7165    magn:   -0.0091    constr:    0.0000
     atom:   50    charge:    1.7155    magn:    0.0305    constr:    0.0000
     atom:   51    charge:    1.7164    magn:   -0.0091    constr:    0.0000
     atom:   52    charge:    1.7154    magn:    0.0081    constr:    0.0000

     End of self-consistent calculation

 ------ SPIN UP ------------

          k = 0.0000 0.0000 0.0000 ( 87777 PWs)   bands (ev):

   -62.8180 -37.9191 -37.8940 -36.5859 -19.6294 -18.7987 -18.7731 -18.7174
   -18.6752 -18.6644 -18.2340 -16.9369 -16.9272 -16.9260 -16.7988 -16.7877
   -16.5116 -16.0775 -16.0750 -15.9831 -15.8286 -15.8272 -15.0789 -13.8903
   -13.8868 -13.8780 -13.8567 -13.8541 -13.1287 -12.9136 -12.9089 -12.8931
   -12.5007 -12.5007 -12.1092 -11.6409 -11.6376 -11.5144 -11.1356 -11.1334
   -10.1526  -9.3327  -9.3304  -9.2500  -9.1775  -9.1754  -9.0871  -9.0632
    -9.0600  -9.0464  -8.4716  -8.4586  -8.1470  -7.8898  -7.8852  -7.8512
    -7.7078  -7.6702  -7.2492  -7.2452  -6.9598  -6.9046  -6.8721  -6.6958
    -6.6950  -6.6805  -6.5869  -6.5836  -6.5379  -6.4337  -6.4230  -6.3867
    -6.3836  -6.3727  -6.3273  -6.1755  -5.2573  -5.2492  -5.1507  -5.1054
    -4.9403  -4.9382  -4.8281  -4.7395  -4.6148  -4.6042  -4.6014  -4.2179
    -3.9801  -3.9761  -3.7550  -3.7530  -3.6533  -3.6129  -3.4933  -3.4916
    -2.8474  -2.2639  -2.2509  -2.2131  -2.2030  -1.7412  -1.6783  -1.6741
    -0.5056  -0.2435  -0.2371   1.0551   1.0837   1.0865   1.1198   1.7986
     2.0539   2.0560   2.4804   2.8998   2.9012   2.9808   3.4911   3.5019
     3.5189   3.7382   3.7531   3.7892   3.9091   4.0064   4.0080

     occupation numbers
     1.0000   1.0000   1.0000   1.0000   1.0000   1.0000   1.0000   1.0000
     1.0000   1.0000   1.0000   1.0000   1.0000   1.0000   1.0000   1.0000
     1.0000   1.0000   1.0000   1.0000   1.0000   1.0000   1.0000   1.0000
     1.0000   1.0000   1.0000   1.0000   1.0000   1.0000   1.0000   1.0000
     1.0000   1.0000   1.0000   1.0000   1.0000   1.0000   1.0000   1.0000
     1.0000   1.0000   1.0000   1.0000   1.0000   1.0000   1.0000   1.0000
     1.0000   1.0000   1.0000   1.0000   1.0000   1.0000   1.0000   1.0000
     1.0000   1.0000   1.0000   1.0000   1.0000   1.0000   1.0000   1.0000
     1.0000   1.0000   1.0000   1.0000   1.0000   1.0000   1.0000   1.0000
     1.0000   1.0000   1.0000   1.0000   1.0000   1.0000   1.0000   1.0000
     1.0000   1.0000   1.0000   1.0000   1.0000   1.0000   1.0000   1.0000
     1.0000   1.0000   1.0000   1.0000   1.0000   1.0000   1.0000   1.0000
     1.0000   1.0000   1.0000   1.0000   1.0000   1.0000   1.0000   1.0000
     1.0000   0.6698   0.3302   0.0000   0.0000   0.0000   0.0000   0.0000
     0.0000   0.0000   0.0000   0.0000   0.0000   0.0000   0.0000   0.0000
     0.0000   0.0000   0.0000   0.0000   0.0000   0.0000   0.0000

 ------ SPIN DOWN ----------

          k = 0.0000 0.0000 0.0000 ( 87777 PWs)   bands (ev):

   -62.6241 -37.7886 -37.7044 -36.3207 -19.6077 -18.7806 -18.7483 -18.6972
   -18.6597 -18.6468 -18.2017 -16.9230 -16.9075 -16.9062 -16.7726 -16.7573
   -16.4973 -16.0500 -16.0484 -15.9669 -15.8071 -15.8063 -15.0642 -13.8613
   -13.8552 -13.8545 -13.8393 -13.8293 -13.1321 -12.9037 -12.8974 -12.8776
   -12.4933 -12.4919 -12.0908 -11.6218 -11.6209 -11.5012 -11.1224 -11.1216
   -10.1380  -9.3171  -9.3121  -9.2371  -9.1613  -9.1573  -9.0790  -9.0481
    -9.0467  -9.0364  -8.4633  -8.4527  -8.1185  -7.8787  -7.8733  -7.8434
    -7.6667  -7.6618  -7.2400  -7.2366  -6.8881  -6.8698  -6.8144  -6.6652
    -6.6557  -6.6379  -6.5753  -6.5730  -6.5283  -6.4247  -6.4130  -6.3820
    -6.3760  -6.3655  -6.3189  -6.0966  -5.2497  -5.2401  -5.0800  -5.0095
    -4.9308  -4.9281  -4.8222  -4.7334  -4.5762  -4.5548  -4.5459  -4.1795
    -3.9361  -3.9185  -3.6809  -3.6794  -3.6058  -3.5836  -3.4872  -3.4844
    -2.8120  -2.1924  -2.1891  -2.1519  -2.1336  -1.6647  -1.6619  -1.6417
    -0.5022  -0.0510   0.0234   1.1048   1.1057   1.1345   1.1934   1.8682
     2.1146   2.1339   2.4847   2.9709   2.9714   3.0232   3.4978   3.5103
     3.5416   3.7396   3.7555   3.7954   3.9418   4.0852   4.1965

     occupation numbers
     1.0000   1.0000   1.0000   1.0000   1.0000   1.0000   1.0000   1.0000
     1.0000   1.0000   1.0000   1.0000   1.0000   1.0000   1.0000   1.0000
     1.0000   1.0000   1.0000   1.0000   1.0000   1.0000   1.0000   1.0000
     1.0000   1.0000   1.0000   1.0000   1.0000   1.0000   1.0000   1.0000
     1.0000   1.0000   1.0000   1.0000   1.0000   1.0000   1.0000   1.0000
     1.0000   1.0000   1.0000   1.0000   1.0000   1.0000   1.0000   1.0000
     1.0000   1.0000   1.0000   1.0000   1.0000   1.0000   1.0000   1.0000
     1.0000   1.0000   1.0000   1.0000   1.0000   1.0000   1.0000   1.0000
     1.0000   1.0000   1.0000   1.0000   1.0000   1.0000   1.0000   1.0000
     1.0000   1.0000   1.0000   1.0000   1.0000   1.0000   1.0000   1.0000
     1.0000   1.0000   1.0000   1.0000   1.0000   1.0000   1.0000   1.0000
     1.0000   1.0000   1.0000   1.0000   1.0000   1.0000   1.0000   1.0000
     1.0000   1.0000   1.0000   1.0000   1.0000   1.0000   1.0000   1.0000
     1.0000   0.0000   0.0000   0.0000   0.0000   0.0000   0.0000   0.0000
     0.0000   0.0000   0.0000   0.0000   0.0000   0.0000   0.0000   0.0000
     0.0000   0.0000   0.0000   0.0000   0.0000   0.0000   0.0000

     the Fermi energy is    -0.2386 ev

!    total energy              =    -757.32718289 Ry
     Harris-Foulkes estimate   =    -757.32718266 Ry
     estimated scf accuracy    <       0.00000025 Ry

     The total energy is the sum of the following terms:

     one-electron contribution =   -2601.15889950 Ry
     hartree contribution      =    1347.42479669 Ry
     xc contribution           =    -252.70377698 Ry
     ewald contribution        =     749.11098542 Ry
     smearing contrib. (-TS)   =      -0.00028852 Ry

     total magnetization       =     1.00 Bohr mag/cell
     absolute magnetization    =     1.55 Bohr mag/cell

     convergence has been achieved in  27 iterations

     Writing output data file distance-2.0.save/

     General routines

     Parallel routines

   This run was terminated on:  20: 8:41  22Aug2022

   JOB DONE.