     Program PWSCF v.6.4.1 starts on 19Feb2023 at 10:17:43

     R & G space division:  proc/nbgrp/npool/nimage =       6
     Reading input from mn-relax.in

     Current dimensions of program PWSCF are:
     Max number of different atomic species (ntypx) = 10
     Max number of k-points (npk) =  40000
     Max angular momentum in pseudopotentials (lmaxx) =  3

     IMPORTANT: XC functional enforced from input :
     Exchange-correlation      = RVV10 ( 1  4 13  4 3 0)
     Any further DFT definition will be discarded
     Please, verify this is what you really want

               file H.pbe-rrkjus.UPF: wavefunction(s)  1S renormalized
               file Mn.pbe-spn-rrkjus_psl.0.3.1.UPF: wavefunction(s)  3D renormalized

     Subspace diagonalization in iterative solution of the eigenvalue problem:
     a serial algorithm will be used

     bravais-lattice index     =            4
     lattice parameter (alat)  =      23.2937  a.u.
     unit-cell volume          =    8879.8548 (a.u.)^3
     number of atoms/cell      =           52
     number of atomic types    =            3
     number of electrons       =       213.00
     number of Kohn-Sham states=          128
     kinetic-energy cutoff     =      70.0000  Ry
     charge density cutoff     =     490.0000  Ry
     convergence threshold     =      1.0E-10
     mixing beta               =       0.7000
     number of iterations used =            8  plain     mixing
     Exchange-correlation      = RVV10 ( 1  4 13  4 3 0)
     nstep                     =           50

     celldm(1)=  23.293684  celldm(2)=   0.000000  celldm(3)=   0.811261
     celldm(4)=   0.000000  celldm(5)=   0.000000  celldm(6)=   0.000000

     crystal axes: (cart. coord. in units of alat)
               a(1) = (   1.000000   0.000000   0.000000 )
               a(2) = (  -0.500000   0.866025   0.000000 )
               a(3) = (   0.000000   0.000000   0.811261 )

     reciprocal axes: (cart. coord. in units 2 pi/alat)
               b(1) = (  1.000000  0.577350 -0.000000 )
               b(2) = (  0.000000  1.154701  0.000000 )
               b(3) = (  0.000000 -0.000000  1.232649 )

     PseudoPot. # 1 for H  read from file:
     /home/cristian/Escritorio/Proyecto_Grafeno/pseudopotenciales/H.pbe-rrkjus.UPF
     MD5 check sum: 7cc9d459525c9a0585f487a71c3c9563
     Pseudo is Ultrasoft, Zval =  1.0
     Generated by new atomic code, or converted to UPF format
     Using radial grid of 1061 points,  2 beta functions with:
                l(1) =   0
                l(2) =   0
     Q(r) pseudized with 0 coefficients

     PseudoPot. # 2 for C  read from file:
     /home/cristian/Escritorio/Proyecto_Grafeno/pseudopotenciales/C.pbe-n-rrkjus_psl.1.0.0.UPF
     MD5 check sum: 1fdd950c42eb37d8afe3dd2f8d12311e
     Pseudo is Ultrasoft + core correction, Zval =  4.0
     Generated using "atomic" code by A. Dal Corso v.6.3MaX
     Using radial grid of 1073 points,  4 beta functions with:
                l(1) =   0
                l(2) =   0
                l(3) =   1
                l(4) =   1
     Q(r) pseudized with 0 coefficients

     PseudoPot. # 3 for Mn read from file:
     /home/cristian/Escritorio/Proyecto_Grafeno/pseudopotenciales/Mn.pbe-spn-rrkjus_psl.0.3.1.UPF
     MD5 check sum: e1cac159bdd2ba70c18e85765a5d4279
     Pseudo is Ultrasoft + core correction, Zval = 15.0
     Generated using "atomic" code by A. Dal Corso v.6.2.2
     Using radial grid of 1187 points,  6 beta functions with:
                l(1) =   0
                l(2) =   0
                l(3) =   1
                l(4) =   1
                l(5) =   2
                l(6) =   2
     Q(r) pseudized with 0 coefficients

     vdW kernel table read from file rVV10_kernel_table
     MD5 check sum: b8e2538accc0c0b3206b45ba4daaba6c

     atomic species   valence    mass     pseudopotential
        H              1.00     1.00794     H ( 1.00)
        C              4.00    12.01070     C ( 1.00)
        Mn            15.00    54.93804     Mn( 1.00)

     Starting magnetic structure
     atomic species   magnetization
        H            0.500
        C            0.300
        Mn           0.800

     No symmetry found

                                    s                        frac. trans.

      isym =  1     identity

 cryst.   s( 1) = (     1          0          0      )
                  (     0          1          0      )
                  (     0          0          1      )

 cart.    s( 1) = (  1.0000000  0.0000000  0.0000000 )
                  (  0.0000000  1.0000000  0.0000000 )
                  (  0.0000000  0.0000000  1.0000000 )

     point group C_1 (1)
     there are  1 classes
     the character table:

       E
A      1.00

     the symmetry operations in each class and the name of the first element:

     E        1
          identity

   Cartesian axes

     site n.     atom                  positions (alat units)
         1           H   tau(   1) = (   0.2694937   0.4041452   0.2433783  )
         2           H   tau(   2) = (   0.3305063   0.4041452   0.2433783  )
         3           C   tau(   3) = (   0.0000000   0.0000000   0.0000000  )
         4           C   tau(   4) = (   0.0000000   0.1154701   0.0000000  )
         5           C   tau(   5) = (  -0.1000000   0.1732051   0.0000000  )
         6           C   tau(   6) = (  -0.1000000   0.2886751   0.0000000  )
         7           C   tau(   7) = (  -0.2000000   0.3464102   0.0000000  )
         8           C   tau(   8) = (  -0.2000000   0.4618802   0.0000000  )
         9           C   tau(   9) = (  -0.3000000   0.5196152   0.0000000  )
        10           C   tau(  10) = (  -0.3000000   0.6350853   0.0000000  )
        11           C   tau(  11) = (  -0.4000000   0.6928203   0.0000000  )
        12           C   tau(  12) = (  -0.4000000   0.8082904   0.0000000  )
        13           C   tau(  13) = (   0.2000000   0.0000000   0.0000000  )
        14           C   tau(  14) = (   0.2000000   0.1154701   0.0000000  )
        15           C   tau(  15) = (   0.1000000   0.1732051   0.0000000  )
        16           C   tau(  16) = (   0.1000000   0.2886751   0.0000000  )
        17           C   tau(  17) = (   0.0000000   0.3464102   0.0000000  )
        18           C   tau(  18) = (   0.0000000   0.4618802   0.0000000  )
        19           C   tau(  19) = (  -0.1000000   0.5196152   0.0000000  )
        20           C   tau(  20) = (  -0.1000000   0.6350853   0.0000000  )
        21           C   tau(  21) = (  -0.2000000   0.6928203   0.0000000  )
        22           C   tau(  22) = (  -0.2000000   0.8082904   0.0000000  )
        23           C   tau(  23) = (   0.4000000   0.0000000   0.0000000  )
        24           C   tau(  24) = (   0.4000000   0.1154701   0.0000000  )
        25           C   tau(  25) = (   0.3000000   0.1732051   0.0000000  )
        26           C   tau(  26) = (   0.3000000   0.2886751   0.0000000  )
        27           C   tau(  27) = (   0.2000000   0.3464102   0.0000000  )
        28           Mn  tau(  28) = (   0.2000000   0.4618802   0.0000000  )
        29           C   tau(  29) = (   0.1000000   0.5196152   0.0000000  )
        30           C   tau(  30) = (   0.1000000   0.6350853   0.0000000  )
        31           C   tau(  31) = (   0.0000000   0.6928203   0.0000000  )
        32           C   tau(  32) = (   0.0000000   0.8082904   0.0000000  )
        33           C   tau(  33) = (   0.6000000   0.0000000   0.0000000  )
        34           C   tau(  34) = (   0.6000000   0.1154701   0.0000000  )
        35           C   tau(  35) = (   0.5000000   0.1732051   0.0000000  )
        36           C   tau(  36) = (   0.5000000   0.2886751   0.0000000  )
        37           C   tau(  37) = (   0.4000000   0.3464102   0.0000000  )
        38           C   tau(  38) = (   0.4000000   0.4618802   0.0000000  )
        39           C   tau(  39) = (   0.3000000   0.5196152   0.0000000  )
        40           C   tau(  40) = (   0.3000000   0.6350853   0.0000000  )
        41           C   tau(  41) = (   0.2000000   0.6928203   0.0000000  )
        42           C   tau(  42) = (   0.2000000   0.8082904   0.0000000  )
        43           C   tau(  43) = (   0.8000000   0.0000000   0.0000000  )
        44           C   tau(  44) = (   0.8000000   0.1154701   0.0000000  )
        45           C   tau(  45) = (   0.7000000   0.1732051   0.0000000  )
        46           C   tau(  46) = (   0.7000000   0.2886751   0.0000000  )
        47           C   tau(  47) = (   0.6000000   0.3464102   0.0000000  )
        48           C   tau(  48) = (   0.6000000   0.4618802   0.0000000  )
        49           C   tau(  49) = (   0.5000000   0.5196152   0.0000000  )
        50           C   tau(  50) = (   0.5000000   0.6350853   0.0000000  )
        51           C   tau(  51) = (   0.4000000   0.6928203   0.0000000  )
        52           C   tau(  52) = (   0.4000000   0.8082904   0.0000000  )

   Crystallographic axes

     site n.     atom                  positions (cryst. coord.)
         1           H   tau(   1) = (  0.5028270  0.4666667  0.3000000  )
         2           H   tau(   2) = (  0.5638397  0.4666667  0.3000000  )
         3           C   tau(   3) = (  0.0000000  0.0000000  0.0000000  )
         4           C   tau(   4) = (  0.0666667  0.1333333  0.0000000  )
         5           C   tau(   5) = (  0.0000000  0.2000000  0.0000000  )
         6           C   tau(   6) = (  0.0666667  0.3333333  0.0000000  )
         7           C   tau(   7) = (  0.0000000  0.4000000  0.0000000  )
         8           C   tau(   8) = (  0.0666667  0.5333333  0.0000000  )
         9           C   tau(   9) = (  0.0000000  0.6000000  0.0000000  )
        10           C   tau(  10) = (  0.0666667  0.7333333  0.0000000  )
        11           C   tau(  11) = (  0.0000000  0.8000000  0.0000000  )
        12           C   tau(  12) = (  0.0666667  0.9333333  0.0000000  )
        13           C   tau(  13) = (  0.2000000  0.0000000  0.0000000  )
        14           C   tau(  14) = (  0.2666667  0.1333333  0.0000000  )
        15           C   tau(  15) = (  0.2000000  0.2000000  0.0000000  )
        16           C   tau(  16) = (  0.2666667  0.3333333  0.0000000  )
        17           C   tau(  17) = (  0.2000000  0.4000000  0.0000000  )
        18           C   tau(  18) = (  0.2666667  0.5333333  0.0000000  )
        19           C   tau(  19) = (  0.2000000  0.6000000  0.0000000  )
        20           C   tau(  20) = (  0.2666667  0.7333333  0.0000000  )
        21           C   tau(  21) = (  0.2000000  0.8000000  0.0000000  )
        22           C   tau(  22) = (  0.2666667  0.9333333  0.0000000  )
        23           C   tau(  23) = (  0.4000000  0.0000000  0.0000000  )
        24           C   tau(  24) = (  0.4666667  0.1333333  0.0000000  )
        25           C   tau(  25) = (  0.4000000  0.2000000  0.0000000  )
        26           C   tau(  26) = (  0.4666667  0.3333333  0.0000000  )
        27           C   tau(  27) = (  0.4000000  0.4000000  0.0000000  )
        28           Mn  tau(  28) = (  0.4666667  0.5333333  0.0000000  )
[...]
     atom   34 type  2   force =    -0.16090092   -0.01410913    0.57276992
     atom   35 type  2   force =    -0.36023783    0.29187587    0.51637488
     atom   36 type  2   force =    -0.80215437    0.46025491    0.59616043
     atom   37 type  2   force =    -1.50755469    0.88380624    0.79101884
     atom   38 type  2   force =    -2.20256650    0.16061534    1.45934133
     atom   39 type  2   force =    -2.77289987   -1.98437180    2.98126402
     atom   40 type  2   force =    -0.70127412   -2.03216151    1.39012630
     atom   41 type  2   force =     0.06550187   -1.55906490    0.75452619
     atom   42 type  2   force =    -0.00924232   -0.78300468    0.75453844
     atom   43 type  2   force =    -0.00647795   -0.36159344    0.73397274
     atom   44 type  2   force =     0.09659231   -0.06435266    0.71661924
     atom   45 type  2   force =    -0.05659018    0.03076284    0.51821436
     atom   46 type  2   force =    -0.07611421    0.13825191    0.60634649
     atom   47 type  2   force =    -0.43266231    0.17308490    0.55979432
     atom   48 type  2   force =    -0.54013321    0.01386503    0.86094391
     atom   49 type  2   force =    -1.05862162   -0.29149716    1.16537633
     atom   50 type  2   force =    -0.65094098   -0.43880115    1.03631599
     atom   51 type  2   force =    -0.63027350   -0.79082348    1.21814452
     atom   52 type  2   force =    -0.17398352   -0.42753555    0.94729308
     The core correction contribution to forces
     atom    1 type  1   force =     0.00000000    0.00000000    0.00000000
     atom    2 type  1   force =     0.00000000    0.00000000    0.00000000
     atom    3 type  2   force =    -0.00008544    0.00005981    0.00008512
     atom    4 type  2   force =    -0.00005254    0.00000612    0.00015021
     atom    5 type  2   force =    -0.00017334   -0.00017347    0.00011738
     atom    6 type  2   force =     0.00010969    0.00014598    0.00005387
     atom    7 type  2   force =    -0.00018115   -0.00003678    0.00013298
     atom    8 type  2   force =    -0.00005295   -0.00006109    0.00004599
     atom    9 type  2   force =     0.00002793   -0.00006053    0.00011654
     atom   10 type  2   force =    -0.00001224   -0.00001875    0.00015908
     atom   11 type  2   force =    -0.00005161    0.00001221    0.00004685
     atom   12 type  2   force =    -0.00000284   -0.00000696    0.00015454
     atom   13 type  2   force =    -0.00004274    0.00004896    0.00005217
     atom   14 type  2   force =    -0.00000066   -0.00010667    0.00026659
     atom   15 type  2   force =    -0.00034005   -0.00007885   -0.00009012
     atom   16 type  2   force =     0.00029097   -0.00007188   -0.00063895
     atom   17 type  2   force =    -0.00030182   -0.00011908    0.00012933
     atom   18 type  2   force =     0.00004192    0.00038067   -0.00058398
     atom   19 type  2   force =    -0.00006952   -0.00030677   -0.00023446
     atom   20 type  2   force =    -0.00011848    0.00007964    0.00040261
     atom   21 type  2   force =     0.00006583   -0.00004344    0.00007374
     atom   22 type  2   force =     0.00000652    0.00001617    0.00015640
     atom   23 type  2   force =     0.00006687    0.00002085    0.00012606
     atom   24 type  2   force =     0.00005685   -0.00009000    0.00001757
     atom   25 type  2   force =     0.00024047   -0.00004216   -0.00020566
     atom   26 type  2   force =    -0.00048648   -0.00025267   -0.00064785
     atom   27 type  2   force =    -0.00003467    0.00295434    0.00076951
     atom   28 type  3   force =     0.00046552    0.00029197    0.02423961
     atom   29 type  2   force =     0.00307135   -0.00179050    0.00187712
     atom   30 type  2   force =    -0.00034671   -0.00024707   -0.00059567
     atom   31 type  2   force =     0.00021922    0.00021001   -0.00023067
     atom   32 type  2   force =     0.00001283    0.00007649    0.00003567
     atom   33 type  2   force =    -0.00003651    0.00019448    0.00014996
     atom   34 type  2   force =     0.00009558    0.00005370   -0.00005997
     atom   35 type  2   force =     0.00018598   -0.00018164    0.00019504
     atom   36 type  2   force =    -0.00006075    0.00000539   -0.00017270
     atom   37 type  2   force =     0.00014823   -0.00011831   -0.00030074
     atom   38 type  2   force =    -0.00006116    0.00052509   -0.00066162
     atom   39 type  2   force =    -0.00262869   -0.00148835    0.00065380
     atom   40 type  2   force =     0.00020038   -0.00023468   -0.00050060
     atom   41 type  2   force =    -0.00003324    0.00034602    0.00006917
     atom   42 type  2   force =    -0.00009307   -0.00015932    0.00007100
     atom   43 type  2   force =     0.00007682    0.00025113    0.00015199
     atom   44 type  2   force =    -0.00011975    0.00005568    0.00006923
     atom   45 type  2   force =    -0.00001240    0.00001337    0.00014294
     atom   46 type  2   force =    -0.00000732   -0.00014912   -0.00004386
     atom   47 type  2   force =     0.00026357   -0.00005645    0.00015448
     atom   48 type  2   force =     0.00009618   -0.00001473    0.00005687
     atom   49 type  2   force =     0.00020096   -0.00017839   -0.00010003
     atom   50 type  2   force =     0.00007465    0.00005797    0.00027931
     atom   51 type  2   force =    -0.00007430    0.00036374   -0.00007058
     atom   52 type  2   force =    -0.00003314    0.00004602    0.00020527
     The Hubbard contrib.    to forces
     atom    1 type  1   force =     0.00000000    0.00000000    0.00000000
     atom    2 type  1   force =     0.00000000    0.00000000    0.00000000
     atom    3 type  2   force =     0.00000000    0.00000000    0.00000000
     atom    4 type  2   force =     0.00000000    0.00000000    0.00000000
     atom    5 type  2   force =     0.00000000    0.00000000    0.00000000
     atom    6 type  2   force =     0.00000000    0.00000000    0.00000000
     atom    7 type  2   force =     0.00000000    0.00000000    0.00000000
     atom    8 type  2   force =     0.00000000    0.00000000    0.00000000
     atom    9 type  2   force =     0.00000000    0.00000000    0.00000000
     atom   10 type  2   force =     0.00000000    0.00000000    0.00000000
     atom   11 type  2   force =     0.00000000    0.00000000    0.00000000
     atom   12 type  2   force =     0.00000000    0.00000000    0.00000000
     atom   13 type  2   force =     0.00000000    0.00000000    0.00000000
     atom   14 type  2   force =     0.00000000    0.00000000    0.00000000
     atom   15 type  2   force =     0.00000000    0.00000000    0.00000000
     atom   16 type  2   force =     0.00000000    0.00000000    0.00000000
     atom   17 type  2   force =     0.00000000    0.00000000    0.00000000
     atom   18 type  2   force =     0.00000000    0.00000000    0.00000000
     atom   19 type  2   force =     0.00000000    0.00000000    0.00000000
     atom   20 type  2   force =     0.00000000    0.00000000    0.00000000
     atom   21 type  2   force =     0.00000000    0.00000000    0.00000000
     atom   22 type  2   force =     0.00000000    0.00000000    0.00000000
     atom   23 type  2   force =     0.00000000    0.00000000    0.00000000
     atom   24 type  2   force =     0.00000000    0.00000000    0.00000000
     atom   25 type  2   force =     0.00000000    0.00000000    0.00000000
     atom   26 type  2   force =     0.00000000    0.00000000    0.00000000
     atom   27 type  2   force =     0.00000000    0.00000000    0.00000000
     atom   28 type  3   force =     0.00000000    0.00000000    0.00000000
     atom   29 type  2   force =     0.00000000    0.00000000    0.00000000
     atom   30 type  2   force =     0.00000000    0.00000000    0.00000000
     atom   31 type  2   force =     0.00000000    0.00000000    0.00000000
     atom   32 type  2   force =     0.00000000    0.00000000    0.00000000
     atom   33 type  2   force =     0.00000000    0.00000000    0.00000000
     atom   34 type  2   force =     0.00000000    0.00000000    0.00000000
     atom   35 type  2   force =     0.00000000    0.00000000    0.00000000
     atom   36 type  2   force =     0.00000000    0.00000000    0.00000000
     atom   37 type  2   force =     0.00000000    0.00000000    0.00000000
     atom   38 type  2   force =     0.00000000    0.00000000    0.00000000
     atom   39 type  2   force =     0.00000000    0.00000000    0.00000000
     atom   40 type  2   force =     0.00000000    0.00000000    0.00000000
     atom   41 type  2   force =     0.00000000    0.00000000    0.00000000
     atom   42 type  2   force =     0.00000000    0.00000000    0.00000000
     atom   43 type  2   force =     0.00000000    0.00000000    0.00000000
     atom   44 type  2   force =     0.00000000    0.00000000    0.00000000
     atom   45 type  2   force =     0.00000000    0.00000000    0.00000000
     atom   46 type  2   force =     0.00000000    0.00000000    0.00000000
     atom   47 type  2   force =     0.00000000    0.00000000    0.00000000
     atom   48 type  2   force =     0.00000000    0.00000000    0.00000000
     atom   49 type  2   force =     0.00000000    0.00000000    0.00000000
     atom   50 type  2   force =     0.00000000    0.00000000    0.00000000
     atom   51 type  2   force =     0.00000000    0.00000000    0.00000000
     atom   52 type  2   force =     0.00000000    0.00000000    0.00000000
     The SCF correction term to forces
     atom    1 type  1   force =     0.00000002    0.00000001   -0.00000005
     atom    2 type  1   force =    -0.00000000    0.00000002   -0.00000004
     atom    3 type  2   force =     0.00000053   -0.00000051    0.00000006
     atom    4 type  2   force =     0.00000077   -0.00000049    0.00000003
     atom    5 type  2   force =     0.00000050   -0.00000040    0.00000001
     atom    6 type  2   force =     0.00000024    0.00000005    0.00000000
     atom    7 type  2   force =    -0.00000027    0.00000045    0.00000001
     atom    8 type  2   force =    -0.00000037    0.00000059   -0.00000001
     atom    9 type  2   force =    -0.00000056    0.00000050    0.00000005
     atom   10 type  2   force =    -0.00000047    0.00000018    0.00000004
     atom   11 type  2   force =    -0.00000011    0.00000003    0.00000004
     atom   12 type  2   force =     0.00000003   -0.00000022    0.00000006
     atom   13 type  2   force =    -0.00000019   -0.00000012    0.00000004
     atom   14 type  2   force =     0.00000000    0.00000003    0.00000003
     atom   15 type  2   force =     0.00000061   -0.00000027    0.00000001
     atom   16 type  2   force =     0.00000088   -0.00000024   -0.00000001
     atom   17 type  2   force =     0.00000065   -0.00000000    0.00000000
     atom   18 type  2   force =     0.00000010    0.00000004   -0.00000009
     atom   19 type  2   force =    -0.00000031    0.00000032   -0.00000008
     atom   20 type  2   force =    -0.00000041    0.00000010   -0.00000005
     atom   21 type  2   force =    -0.00000059    0.00000020    0.00000000
     atom   22 type  2   force =    -0.00000052    0.00000006    0.00000003
     atom   23 type  2   force =    -0.00000065    0.00000014    0.00000004
     atom   24 type  2   force =    -0.00000058    0.00000035    0.00000004
     atom   25 type  2   force =    -0.00000016    0.00000038    0.00000003
     atom   26 type  2   force =     0.00000007    0.00000040   -0.00000002
     atom   27 type  2   force =     0.00000086   -0.00000003   -0.00000009
     atom   28 type  3   force =     0.00000355   -0.00000095   -0.00000071
     atom   29 type  2   force =     0.00000062   -0.00000014   -0.00000006
     atom   30 type  2   force =     0.00000032   -0.00000014   -0.00000010
     atom   31 type  2   force =    -0.00000028   -0.00000003   -0.00000007
     atom   32 type  2   force =    -0.00000049   -0.00000006   -0.00000001
     atom   33 type  2   force =    -0.00000038   -0.00000000    0.00000001
     atom   34 type  2   force =    -0.00000034    0.00000031    0.00000005
     atom   35 type  2   force =    -0.00000070    0.00000036    0.00000005
     atom   36 type  2   force =    -0.00000074    0.00000058    0.00000004
     atom   37 type  2   force =    -0.00000057    0.00000059   -0.00000002
     atom   38 type  2   force =    -0.00000034    0.00000023   -0.00000005
     atom   39 type  2   force =     0.00000057   -0.00000034   -0.00000022
     atom   40 type  2   force =     0.00000076   -0.00000090   -0.00000006
     atom   41 type  2   force =     0.00000065   -0.00000085   -0.00000003
     atom   42 type  2   force =     0.00000026   -0.00000044   -0.00000000
     atom   43 type  2   force =     0.00000068   -0.00000042    0.00000001
     atom   44 type  2   force =     0.00000015   -0.00000015    0.00000003
     atom   45 type  2   force =    -0.00000025    0.00000013    0.00000007
     atom   46 type  2   force =    -0.00000048    0.00000027    0.00000005
     atom   47 type  2   force =    -0.00000067    0.00000064    0.00000004
     atom   48 type  2   force =    -0.00000066    0.00000053    0.00000003
     atom   49 type  2   force =    -0.00000053    0.00000003    0.00000002
     atom   50 type  2   force =    -0.00000021   -0.00000021    0.00000004
     atom   51 type  2   force =     0.00000033   -0.00000062    0.00000001
     atom   52 type  2   force =     0.00000073   -0.00000073    0.00000002

     Total force =     0.018899     Total SCF correction =     0.000006

     number of scf cycles    =  50
     number of bfgs steps    =  47

     energy   old            =    -826.7269541845 Ry
     energy   new            =    -826.7271705449 Ry

     CASE: energy  _new < energy  _old

     new trust radius        =       0.0117982320 bohr
     new conv_thr            =            2.2E-12 Ry

ATOMIC_POSITIONS (angstrom)
H        3.459798279   4.978469171   3.134828195
H        4.142425968   4.853405490   2.812274783
C       -0.005513621   0.003419399  -0.152569497
C       -0.009031470   1.423568578  -0.113600636
C       -1.239348334   2.135893073  -0.100379699
C       -1.238088667   3.561873379  -0.043507230
C       -2.473323397   4.272952161  -0.085800995
C       -2.474099809   5.693296522  -0.096044357
C       -3.701847010   6.407227160  -0.137302139
C       -3.702645180   7.830790395  -0.164248693
C       -4.934285598   8.543425115  -0.167071645
C       -4.935264088   9.966096056  -0.171698703
C        2.460558884   0.001277913  -0.158641669
C        2.459915257   1.421159052  -0.080234991
C        1.222204819   2.127535730  -0.042611227
C        1.218711327   3.542005358   0.130712282
C       -0.016188345   4.269709825   0.100435118
C       -0.028626450   5.700558625   0.170574981
C       -1.249370020   6.408813869  -0.015910906
C       -1.242376277   7.833687647  -0.060610951
C       -2.471156330   8.543573493  -0.150947451
C       -2.469915479   9.966159909  -0.161527666
C        4.926178804   0.002357076  -0.134104106
C        4.931181295   1.421835079  -0.091303723
C        3.699516070   2.124110388  -0.028860524
C        3.701253177   3.536936579   0.141461082
C        2.459807409   4.173013792   0.346161528
Mn       2.500194253   5.688304171   1.412256835
C        1.139541281   6.459817435   0.424124152
C        1.211757071   7.850119688   0.164485111
C       -0.011992184   8.553305364  -0.017838228
C       -0.004569782   9.971652386  -0.096589089
C        7.389091402   0.005870085  -0.085835991
C        7.392567044   1.426650064  -0.099817834
C        6.161177172   2.134400709  -0.070449555
C        6.161889406   3.558554437  -0.021147871
C        4.936207979   4.265968151   0.106198239
C        4.949862320   5.700474102   0.118745542
C        3.776747604   6.457714269   0.309374863
C        3.704488619   7.848182601   0.100497008
C        2.456976318   8.554260159   0.084003984
C        2.459080528   9.967423194  -0.051333687
C        9.857114209   0.005827391  -0.106550314
C        9.856516934   1.426258530  -0.120471385
C        8.623622673   2.138104291  -0.107563424
C        8.624197887   3.559725353  -0.102497302
C        7.395331201   4.271741190  -0.076160200
C        7.397807228   5.693518450  -0.100644360
C        6.172912859   6.408563081  -0.049550026
C        6.162258493   7.833584740  -0.101442015
C        4.931366549   8.552951339  -0.066849509
C        4.926141274   9.971774130  -0.124416103

     Writing output data file manganeso-sixhollow-3.0.save/
     NEW-OLD atomic charge density approx. for the potential

     Check: negative core charge=   -0.000002

     negative rho (up, down):  5.423E-04 8.656E-03

     Writing output data file manganeso-sixhollow-3.0.save/

     General routines

     Parallel routines

   This run was terminated on:  15:35:56  20Feb2023

   JOB DONE.