     Program PWSCF v.6.4.1 starts on 31Aug2023 at  0:50:30

     R & G space division:  proc/nbgrp/npool/nimage =       6
     Reading input from mn-relax-2.in

     Current dimensions of program PWSCF are:
     Max number of different atomic species (ntypx) = 10
     Max number of k-points (npk) =  40000
     Max angular momentum in pseudopotentials (lmaxx) =  3

     IMPORTANT: XC functional enforced from input :
     Exchange-correlation      = RVV10 ( 1  4 13  4 3 0)
     Any further DFT definition will be discarded
     Please, verify this is what you really want

               file H.pbe-rrkjus.UPF: wavefunction(s)  1S renormalized
               file Mn.pbe-spn-rrkjus_psl.0.3.1.UPF: wavefunction(s)  3D renormalized

     Subspace diagonalization in iterative solution of the eigenvalue problem:
     a serial algorithm will be used

     bravais-lattice index     =            4
     lattice parameter (alat)  =      23.2937  a.u.
     unit-cell volume          =    8879.8548 (a.u.)^3
     number of atoms/cell      =           52
     number of atomic types    =            3
     number of electrons       =       213.00
     number of Kohn-Sham states=          128
     kinetic-energy cutoff     =      70.0000  Ry
     charge density cutoff     =     490.0000  Ry
     convergence threshold     =      1.0E-10
     mixing beta               =       0.7000
     number of iterations used =            8  plain     mixing
     Exchange-correlation      = RVV10 ( 1  4 13  4 3 0)
     nstep                     =           50

     celldm(1)=  23.293684  celldm(2)=   0.000000  celldm(3)=   0.811261
     celldm(4)=   0.000000  celldm(5)=   0.000000  celldm(6)=   0.000000

     crystal axes: (cart. coord. in units of alat)
               a(1) = (   1.000000   0.000000   0.000000 )
               a(2) = (  -0.500000   0.866025   0.000000 )
               a(3) = (   0.000000   0.000000   0.811261 )

     reciprocal axes: (cart. coord. in units 2 pi/alat)
               b(1) = (  1.000000  0.577350 -0.000000 )
               b(2) = (  0.000000  1.154701  0.000000 )
               b(3) = (  0.000000 -0.000000  1.232649 )

     PseudoPot. # 1 for H  read from file:
     /home/cristian/Escritorio/Proyecto_Grafeno/pseudopotenciales/H.pbe-rrkjus.UPF
     MD5 check sum: 7cc9d459525c9a0585f487a71c3c9563
     Pseudo is Ultrasoft, Zval =  1.0
     Generated by new atomic code, or converted to UPF format
     Using radial grid of 1061 points,  2 beta functions with:
                l(1) =   0
                l(2) =   0
     Q(r) pseudized with 0 coefficients

     PseudoPot. # 2 for C  read from file:
     /home/cristian/Escritorio/Proyecto_Grafeno/pseudopotenciales/C.pbe-n-rrkjus_psl.1.0.0.UPF
     MD5 check sum: 1fdd950c42eb37d8afe3dd2f8d12311e
     Pseudo is Ultrasoft + core correction, Zval =  4.0
     Generated using "atomic" code by A. Dal Corso v.6.3MaX
     Using radial grid of 1073 points,  4 beta functions with:
                l(1) =   0
                l(2) =   0
                l(3) =   1
                l(4) =   1
     Q(r) pseudized with 0 coefficients

     PseudoPot. # 3 for Mn read from file:
     /home/cristian/Escritorio/Proyecto_Grafeno/pseudopotenciales/Mn.pbe-spn-rrkjus_psl.0.3.1.UPF
     MD5 check sum: e1cac159bdd2ba70c18e85765a5d4279
     Pseudo is Ultrasoft + core correction, Zval = 15.0
     Generated using "atomic" code by A. Dal Corso v.6.2.2
     Using radial grid of 1187 points,  6 beta functions with:
                l(1) =   0
                l(2) =   0
                l(3) =   1
                l(4) =   1
                l(5) =   2
                l(6) =   2
     Q(r) pseudized with 0 coefficients

     vdW kernel table read from file rVV10_kernel_table
     MD5 check sum: b8e2538accc0c0b3206b45ba4daaba6c

     atomic species   valence    mass     pseudopotential
        H              1.00     1.00794     H ( 1.00)
        C              4.00    12.01070     C ( 1.00)
        Mn            15.00    54.93804     Mn( 1.00)

     Starting magnetic structure
     atomic species   magnetization
        H            0.500
        C            0.300
        Mn           0.800

     No symmetry found

                                    s                        frac. trans.

      isym =  1     identity

 cryst.   s( 1) = (     1          0          0      )
                  (     0          1          0      )
                  (     0          0          1      )

 cart.    s( 1) = (  1.0000000  0.0000000  0.0000000 )
                  (  0.0000000  1.0000000  0.0000000 )
                  (  0.0000000  0.0000000  1.0000000 )

     point group C_1 (1)
     there are  1 classes
     the character table:

       E
A      1.00

     the symmetry operations in each class and the name of the first element:

     E        1
          identity

   Cartesian axes

     site n.     atom                  positions (alat units)
         1           H   tau(   1) = (   0.2806800   0.4038839   0.2543164  )
         2           H   tau(   2) = (   0.3360589   0.3937379   0.2281489  )
         3           C   tau(   3) = (  -0.0004473   0.0002774  -0.0123774  )
         4           C   tau(   4) = (  -0.0007327   0.1154886  -0.0092160  )
         5           C   tau(   5) = (  -0.1005435   0.1732767  -0.0081434  )
         6           C   tau(   6) = (  -0.1004413   0.2889610  -0.0035296  )
         7           C   tau(   7) = (  -0.2006511   0.3466480  -0.0069607  )
         8           C   tau(   8) = (  -0.2007141   0.4618750  -0.0077917  )
         9           C   tau(   9) = (  -0.3003165   0.5197935  -0.0111388  )
        10           C   tau(  10) = (  -0.3003812   0.6352816  -0.0133249  )
        11           C   tau(  11) = (  -0.4002994   0.6930949  -0.0135539  )
        12           C   tau(  12) = (  -0.4003788   0.8085107  -0.0139292  )
        13           C   tau(  13) = (   0.1996156   0.0001037  -0.0128700  )
        14           C   tau(  14) = (   0.1995634   0.1152931  -0.0065092  )
        15           C   tau(  15) = (   0.0991527   0.1725987  -0.0034569  )
        16           C   tau(  16) = (   0.0988693   0.2873491   0.0106042  )
        17           C   tau(  17) = (  -0.0013133   0.3463850   0.0081479  )
        18           C   tau(  18) = (  -0.0023224   0.4624642   0.0138381  )
        19           C   tau(  19) = (  -0.1013565   0.5199222  -0.0012908  )
        20           C   tau(  20) = (  -0.1007892   0.6355167  -0.0049171  )
        21           C   tau(  21) = (  -0.2004753   0.6931069  -0.0122458  )
        22           C   tau(  22) = (  -0.2003747   0.8085158  -0.0131041  )
        23           C   tau(  23) = (   0.3996418   0.0001912  -0.0108793  )
        24           C   tau(  24) = (   0.4000476   0.1153480  -0.0074071  )
        25           C   tau(  25) = (   0.3001274   0.1723208  -0.0023413  )
        26           C   tau(  26) = (   0.3002683   0.2869379   0.0114762  )
        27           C   tau(  27) = (   0.1995546   0.3385404   0.0280827  )
        28           Mn  tau(  28) = (   0.2028311   0.4614700   0.1145709  )
        29           C   tau(  29) = (   0.0924466   0.5240599   0.0344075  )
        30           C   tau(  30) = (   0.0983051   0.6368497   0.0133440  )
        31           C   tau(  31) = (  -0.0009729   0.6938964  -0.0014471  )
        32           C   tau(  32) = (  -0.0003707   0.8089614  -0.0078359  )
        33           C   tau(  33) = (   0.5994483   0.0004762  -0.0069635  )
        34           C   tau(  34) = (   0.5997303   0.1157386  -0.0080978  )
        35           C   tau(  35) = (   0.4998324   0.1731556  -0.0057153  )
        36           C   tau(  36) = (   0.4998902   0.2886917  -0.0017156  )
        37           C   tau(  37) = (   0.4004554   0.3460814   0.0086155  )
        38           C   tau(  38) = (   0.4015631   0.4624573   0.0096334  )
        39           C   tau(  39) = (   0.3063929   0.5238893   0.0250984  )
        40           C   tau(  40) = (   0.3005308   0.6366926   0.0081529  )
        41           C   tau(  41) = (   0.1993249   0.6939739   0.0068149  )
        42           C   tau(  42) = (   0.1994957   0.8086183  -0.0041645  )
        43           C   tau(  43) = (   0.7996694   0.0004728  -0.0086440  )
        44           C   tau(  44) = (   0.7996209   0.1157068  -0.0097734  )
        45           C   tau(  45) = (   0.6996010   0.1734561  -0.0087262  )
        46           C   tau(  46) = (   0.6996477   0.2887867  -0.0083152  )
        47           C   tau(  47) = (   0.5999545   0.3465498  -0.0061786  )
        48           C   tau(  48) = (   0.6001554   0.4618930  -0.0081649  )
        49           C   tau(  49) = (   0.5007844   0.5199018  -0.0040198  )
        50           C   tau(  50) = (   0.4999201   0.6355083  -0.0082296  )
        51           C   tau(  51) = (   0.4000626   0.6938677  -0.0054232  )
        52           C   tau(  52) = (   0.3996387   0.8089713  -0.0100934  )

   Crystallographic axes

     site n.     atom                  positions (cryst. coord.)
         1           H   tau(   1) = (  0.5138625  0.4663649  0.3134828  )
         2           H   tau(   2) = (  0.5633836  0.4546494  0.2812275  )
         3           C   tau(   3) = ( -0.0002871  0.0003203 -0.0152569  )
         4           C   tau(   4) = (  0.0659447  0.1333547 -0.0113601  )
         5           C   tau(   5) = ( -0.0005022  0.2000827 -0.0100380  )
         6           C   tau(   6) = (  0.0663904  0.3336634 -0.0043507  )
         7           C   tau(   7) = ( -0.0005138  0.4002746 -0.0085801  )
         8           C   tau(   8) = (  0.0659496  0.5333274 -0.0096044  )
         9           C   tau(   9) = ( -0.0002136  0.6002058 -0.0137302  )
        10           C   tau(  10) = (  0.0663988  0.7335600 -0.0164249  )
        11           C   tau(  11) = ( -0.0001409  0.8003171 -0.0167072  )
        12           C   tau(  12) = (  0.0664150  0.9335877 -0.0171699  )
        13           C   tau(  13) = (  0.1996754  0.0001197 -0.0158642  )
        14           C   tau(  14) = (  0.2661279  0.1331290 -0.0080235  )
        15           C   tau(  15) = (  0.1988026  0.1992998 -0.0042611  )
        16           C   tau(  16) = (  0.2647704  0.3318022  0.0130712  )
        17           C   tau(  17) = (  0.1986722  0.3999709  0.0100435  )
        18           C   tau(  18) = (  0.2646815  0.5340076  0.0170575  )
        19           C   tau(  19) = (  0.1988207  0.6003544 -0.0015911  )
        20           C   tau(  20) = (  0.2661266  0.7338314 -0.0060611  )
        21           C   tau(  21) = (  0.1996902  0.8003310 -0.0150947  )
        22           C   tau(  22) = (  0.2664222  0.9335937 -0.0161528  )
        23           C   tau(  23) = (  0.3997522  0.0002208 -0.0134104  )
        24           C   tau(  24) = (  0.4666438  0.1331923 -0.0091304  )
        25           C   tau(  25) = (  0.3996168  0.1989790 -0.0028861  )
        26           C   tau(  26) = (  0.4659320  0.3313274  0.0141461  )
        27           C   tau(  27) = (  0.3950110  0.3909128  0.0346162  )
        28           Mn  tau(  28) = (  0.4692609  0.5328597  0.1412257  )
[...]
     atom   31 type  2   force =     0.63522933   -0.68298634    0.84617094
     atom   32 type  2   force =     0.17141353   -0.31456755    0.91128409
     atom   33 type  2   force =     0.00576446   -0.32846453    0.69824117
     atom   34 type  2   force =    -0.13132934    0.00450487    0.70256473
     atom   35 type  2   force =    -0.35693263    0.28991798    0.68918246
     atom   36 type  2   force =    -0.78222430    0.45166824    0.69009781
     atom   37 type  2   force =    -1.47699716    0.85486310    0.66186667
     atom   38 type  2   force =    -2.17079050    0.14302619    1.23772675
     atom   39 type  2   force =    -2.88080828   -2.06079457    2.39748824
     atom   40 type  2   force =    -0.69863975   -2.00351219    1.14953613
     atom   41 type  2   force =     0.05272207   -1.53048276    0.57013409
     atom   42 type  2   force =    -0.00648409   -0.76485364    0.74256610
     atom   43 type  2   force =    -0.00938951   -0.35252040    0.79988311
     atom   44 type  2   force =     0.08169592   -0.04849035    0.75251711
     atom   45 type  2   force =    -0.05663282    0.03356418    0.53422085
     atom   46 type  2   force =    -0.07105755    0.11208860    0.69262288
     atom   47 type  2   force =    -0.42664878    0.16625741    0.71103409
     atom   48 type  2   force =    -0.51396811    0.01524692    0.99911964
     atom   49 type  2   force =    -1.02238030   -0.27643392    1.13564084
     atom   50 type  2   force =    -0.63230059   -0.42727260    1.03863008
     atom   51 type  2   force =    -0.59482909   -0.77313022    1.18659691
     atom   52 type  2   force =    -0.15877561   -0.39989134    1.07325560
     The core correction contribution to forces
     atom    1 type  1   force =     0.00000000    0.00000000    0.00000000
     atom    2 type  1   force =     0.00000000    0.00000000    0.00000000
     atom    3 type  2   force =    -0.00007079    0.00003616    0.00004703
     atom    4 type  2   force =    -0.00008604   -0.00000959    0.00021841
     atom    5 type  2   force =    -0.00016709   -0.00015283    0.00016327
     atom    6 type  2   force =     0.00015526    0.00017548    0.00006003
     atom    7 type  2   force =    -0.00015431   -0.00004003    0.00012867
     atom    8 type  2   force =    -0.00006698   -0.00007694    0.00007786
     atom    9 type  2   force =     0.00001470   -0.00004530    0.00003727
     atom   10 type  2   force =    -0.00001209   -0.00000343    0.00019791
     atom   11 type  2   force =    -0.00001065    0.00002712    0.00005360
     atom   12 type  2   force =    -0.00000008    0.00000134    0.00025696
     atom   13 type  2   force =    -0.00002823   -0.00000968    0.00002853
     atom   14 type  2   force =    -0.00002759   -0.00008391    0.00025440
     atom   15 type  2   force =    -0.00026380   -0.00011668   -0.00005307
     atom   16 type  2   force =     0.00028629   -0.00004366   -0.00067774
     atom   17 type  2   force =    -0.00039823   -0.00018289    0.00008695
     atom   18 type  2   force =     0.00005415    0.00035538   -0.00069408
     atom   19 type  2   force =    -0.00006321   -0.00023182   -0.00022084
     atom   20 type  2   force =    -0.00010047    0.00005539    0.00040805
     atom   21 type  2   force =     0.00001720   -0.00000712    0.00005579
     atom   22 type  2   force =    -0.00000372    0.00001249    0.00018523
     atom   23 type  2   force =     0.00004094    0.00000732    0.00007877
     atom   24 type  2   force =     0.00007098   -0.00009101    0.00007270
     atom   25 type  2   force =     0.00020123   -0.00008930   -0.00017246
     atom   26 type  2   force =    -0.00048189   -0.00020405   -0.00064712
     atom   27 type  2   force =    -0.00002289    0.00303700    0.00079768
     atom   28 type  3   force =    -0.00013400    0.00011375    0.02470867
     atom   29 type  2   force =     0.00312175   -0.00180299    0.00199623
     atom   30 type  2   force =    -0.00028805   -0.00022273   -0.00068526
     atom   31 type  2   force =     0.00017152    0.00016731   -0.00022407
     atom   32 type  2   force =     0.00003267    0.00010218    0.00006522
     atom   33 type  2   force =    -0.00003771    0.00014758    0.00014137
     atom   34 type  2   force =     0.00020441    0.00011507    0.00003548
     atom   35 type  2   force =     0.00015697   -0.00014483    0.00012393
     atom   36 type  2   force =    -0.00010060    0.00004424   -0.00010639
     atom   37 type  2   force =     0.00023859   -0.00015540   -0.00034338
     atom   38 type  2   force =    -0.00007954    0.00052566   -0.00069185
     atom   39 type  2   force =    -0.00267682   -0.00149640    0.00077262
     atom   40 type  2   force =     0.00018107   -0.00023612   -0.00067891
     atom   41 type  2   force =    -0.00003155    0.00042016    0.00011472
     atom   42 type  2   force =    -0.00008113   -0.00020532    0.00008161
     atom   43 type  2   force =     0.00005377    0.00021785    0.00020522
     atom   44 type  2   force =    -0.00019250    0.00010982    0.00009613
     atom   45 type  2   force =    -0.00003335    0.00002146    0.00026565
     atom   46 type  2   force =     0.00000358   -0.00023977    0.00003987
     atom   47 type  2   force =     0.00021174   -0.00006611    0.00011828
     atom   48 type  2   force =     0.00011931   -0.00001402    0.00012861
     atom   49 type  2   force =     0.00018768   -0.00012047   -0.00012247
     atom   50 type  2   force =     0.00006533    0.00006877    0.00028163
     atom   51 type  2   force =    -0.00003486    0.00028585   -0.00004608
     atom   52 type  2   force =    -0.00003476    0.00008551    0.00021632
     The Hubbard contrib.    to forces
     atom    1 type  1   force =     0.00000000    0.00000000    0.00000000
     atom    2 type  1   force =     0.00000000    0.00000000    0.00000000
     atom    3 type  2   force =     0.00000000    0.00000000    0.00000000
     atom    4 type  2   force =     0.00000000    0.00000000    0.00000000
     atom    5 type  2   force =     0.00000000    0.00000000    0.00000000
     atom    6 type  2   force =     0.00000000    0.00000000    0.00000000
     atom    7 type  2   force =     0.00000000    0.00000000    0.00000000
     atom    8 type  2   force =     0.00000000    0.00000000    0.00000000
     atom    9 type  2   force =     0.00000000    0.00000000    0.00000000
     atom   10 type  2   force =     0.00000000    0.00000000    0.00000000
     atom   11 type  2   force =     0.00000000    0.00000000    0.00000000
     atom   12 type  2   force =     0.00000000    0.00000000    0.00000000
     atom   13 type  2   force =     0.00000000    0.00000000    0.00000000
     atom   14 type  2   force =     0.00000000    0.00000000    0.00000000
     atom   15 type  2   force =     0.00000000    0.00000000    0.00000000
     atom   16 type  2   force =     0.00000000    0.00000000    0.00000000
     atom   17 type  2   force =     0.00000000    0.00000000    0.00000000
     atom   18 type  2   force =     0.00000000    0.00000000    0.00000000
     atom   19 type  2   force =     0.00000000    0.00000000    0.00000000
     atom   20 type  2   force =     0.00000000    0.00000000    0.00000000
     atom   21 type  2   force =     0.00000000    0.00000000    0.00000000
     atom   22 type  2   force =     0.00000000    0.00000000    0.00000000
     atom   23 type  2   force =     0.00000000    0.00000000    0.00000000
     atom   24 type  2   force =     0.00000000    0.00000000    0.00000000
     atom   25 type  2   force =     0.00000000    0.00000000    0.00000000
     atom   26 type  2   force =     0.00000000    0.00000000    0.00000000
     atom   27 type  2   force =     0.00000000    0.00000000    0.00000000
     atom   28 type  3   force =     0.00000000    0.00000000    0.00000000
     atom   29 type  2   force =     0.00000000    0.00000000    0.00000000
     atom   30 type  2   force =     0.00000000    0.00000000    0.00000000
     atom   31 type  2   force =     0.00000000    0.00000000    0.00000000
     atom   32 type  2   force =     0.00000000    0.00000000    0.00000000
     atom   33 type  2   force =     0.00000000    0.00000000    0.00000000
     atom   34 type  2   force =     0.00000000    0.00000000    0.00000000
     atom   35 type  2   force =     0.00000000    0.00000000    0.00000000
     atom   36 type  2   force =     0.00000000    0.00000000    0.00000000
     atom   37 type  2   force =     0.00000000    0.00000000    0.00000000
     atom   38 type  2   force =     0.00000000    0.00000000    0.00000000
     atom   39 type  2   force =     0.00000000    0.00000000    0.00000000
     atom   40 type  2   force =     0.00000000    0.00000000    0.00000000
     atom   41 type  2   force =     0.00000000    0.00000000    0.00000000
     atom   42 type  2   force =     0.00000000    0.00000000    0.00000000
     atom   43 type  2   force =     0.00000000    0.00000000    0.00000000
     atom   44 type  2   force =     0.00000000    0.00000000    0.00000000
     atom   45 type  2   force =     0.00000000    0.00000000    0.00000000
     atom   46 type  2   force =     0.00000000    0.00000000    0.00000000
     atom   47 type  2   force =     0.00000000    0.00000000    0.00000000
     atom   48 type  2   force =     0.00000000    0.00000000    0.00000000
     atom   49 type  2   force =     0.00000000    0.00000000    0.00000000
     atom   50 type  2   force =     0.00000000    0.00000000    0.00000000
     atom   51 type  2   force =     0.00000000    0.00000000    0.00000000
     atom   52 type  2   force =     0.00000000    0.00000000    0.00000000
     The SCF correction term to forces
     atom    1 type  1   force =     0.00000001   -0.00000000    0.00000003
     atom    2 type  1   force =     0.00000002   -0.00000000    0.00000002
     atom    3 type  2   force =    -0.00000008   -0.00000007   -0.00000000
     atom    4 type  2   force =    -0.00000006   -0.00000013   -0.00000001
     atom    5 type  2   force =    -0.00000004   -0.00000009   -0.00000002
     atom    6 type  2   force =    -0.00000011    0.00000006   -0.00000002
     atom    7 type  2   force =    -0.00000009    0.00000018   -0.00000001
     atom    8 type  2   force =    -0.00000003    0.00000015   -0.00000001
     atom    9 type  2   force =     0.00000005   -0.00000005    0.00000000
     atom   10 type  2   force =     0.00000006   -0.00000014   -0.00000000
     atom   11 type  2   force =    -0.00000002   -0.00000007   -0.00000001
     atom   12 type  2   force =    -0.00000008   -0.00000007   -0.00000000
     atom   13 type  2   force =     0.00000002   -0.00000012   -0.00000000
     atom   14 type  2   force =     0.00000002   -0.00000004   -0.00000000
     atom   15 type  2   force =    -0.00000005   -0.00000006   -0.00000001
     atom   16 type  2   force =     0.00000002   -0.00000002   -0.00000002
     atom   17 type  2   force =    -0.00000011    0.00000009   -0.00000003
     atom   18 type  2   force =    -0.00000020    0.00000021   -0.00000004
     atom   19 type  2   force =    -0.00000013    0.00000010   -0.00000002
     atom   20 type  2   force =     0.00000004   -0.00000002   -0.00000001
     atom   21 type  2   force =     0.00000012   -0.00000011   -0.00000000
     atom   22 type  2   force =     0.00000014   -0.00000012    0.00000000
     atom   23 type  2   force =     0.00000011   -0.00000014    0.00000000
     atom   24 type  2   force =     0.00000003   -0.00000012    0.00000000
     atom   25 type  2   force =     0.00000008   -0.00000001    0.00000000
     atom   26 type  2   force =     0.00000002   -0.00000006   -0.00000003
     atom   27 type  2   force =     0.00000003   -0.00000016   -0.00000012
     atom   28 type  3   force =    -0.00000044   -0.00000003    0.00000033
     atom   29 type  2   force =    -0.00000028    0.00000020   -0.00000011
     atom   30 type  2   force =    -0.00000023    0.00000015   -0.00000006
     atom   31 type  2   force =    -0.00000007    0.00000003   -0.00000002
     atom   32 type  2   force =    -0.00000003   -0.00000014   -0.00000000
     atom   33 type  2   force =    -0.00000009   -0.00000012   -0.00000001
     atom   34 type  2   force =    -0.00000001   -0.00000010   -0.00000001
     atom   35 type  2   force =     0.00000001   -0.00000009   -0.00000000
     atom   36 type  2   force =     0.00000007    0.00000006   -0.00000002
     atom   37 type  2   force =     0.00000005    0.00000001   -0.00000004
     atom   38 type  2   force =     0.00000022    0.00000004   -0.00000007
     atom   39 type  2   force =     0.00000020    0.00000010   -0.00000016
     atom   40 type  2   force =     0.00000008    0.00000019   -0.00000009
     atom   41 type  2   force =    -0.00000011    0.00000012   -0.00000006
     atom   42 type  2   force =    -0.00000005   -0.00000001   -0.00000003
     atom   43 type  2   force =     0.00000005   -0.00000005   -0.00000002
     atom   44 type  2   force =     0.00000001   -0.00000008   -0.00000001
     atom   45 type  2   force =     0.00000001    0.00000001   -0.00000001
     atom   46 type  2   force =     0.00000000    0.00000013   -0.00000001
     atom   47 type  2   force =     0.00000012    0.00000017   -0.00000001
     atom   48 type  2   force =     0.00000010    0.00000008   -0.00000001
     atom   49 type  2   force =     0.00000016    0.00000001   -0.00000003
     atom   50 type  2   force =     0.00000004   -0.00000002   -0.00000003
     atom   51 type  2   force =     0.00000008    0.00000010   -0.00000004
     atom   52 type  2   force =     0.00000002   -0.00000002   -0.00000002

     Total force =     0.004469     Total SCF correction =     0.000001

     bfgs converged in  15 scf cycles and  14 bfgs steps
     (criteria: energy <  1.0E-04 Ry, force <  1.0E-03 Ry/Bohr)

     End of BFGS Geometry Optimization

     Final energy   =    -826.7283591047 Ry
Begin final coordinates

ATOMIC_POSITIONS (angstrom)
H        3.516569749   4.986502659   3.216559921
H        4.107554978   4.852688192   2.749825826
C       -0.004437288   0.002410724  -0.173255114
C       -0.008462675   1.423329566  -0.127306070
C       -1.239715935   2.136172454  -0.108007333
C       -1.238063935   3.562018030  -0.044224419
C       -2.473323107   4.272784749  -0.092885526
C       -2.474129187   5.694344232  -0.103310428
C       -3.702072854   6.409028378  -0.151737899
C       -3.702583896   7.831362971  -0.170289240
C       -4.934524004   8.543474179  -0.174880772
C       -4.934915866   9.965787175  -0.184771973
C        2.460174264   0.001441946  -0.166302057
C        2.459848566   1.421453988  -0.089161883
C        1.222760607   2.128028126  -0.049540734
C        1.217648847   3.541842467   0.137940072
C       -0.017684758   4.268554018   0.109315082
C       -0.029036550   5.699085872   0.181308937
C       -1.248689658   6.408963494  -0.013396951
C       -1.242191626   7.833630052  -0.057520852
C       -2.470831802   8.543089083  -0.149856841
C       -2.470514541   9.965660639  -0.163429989
C        4.924637236   0.001343195  -0.144094858
C        4.929575073   1.421713039  -0.104758668
C        3.697793998   2.125332405  -0.035224776
C        3.701722391   3.537696569   0.149414183
C        2.459083225   4.170799484   0.366651495
Mn       2.488857598   5.680679955   1.440559512
C        1.137826177   6.459816659   0.446922493
C        1.213181305   7.850372596   0.179184911
C       -0.011600974   8.551679018  -0.013501456
C       -0.005537308   9.970376035  -0.101852011
C        7.389305244   0.005191575  -0.095581774
C        7.392426120   1.426963322  -0.116614946
C        6.160226244   2.135425872  -0.088963536
C        6.160114954   3.559864210  -0.032991515
C        4.936841831   4.266350994   0.116724827
C        4.950563794   5.700636988   0.144659056
C        3.781065636   6.460471637   0.362767089
C        3.704872427   7.849149643   0.129728377
C        2.457741067   8.555468212   0.102689647
C        2.459129404   9.965847906  -0.051666602
C        9.856453987   0.005145886  -0.114465174
C        9.855217322   1.426572073  -0.129996652
C        8.622892220   2.138089291  -0.119151263
C        8.623519028   3.559131519  -0.116217225
C        7.393904519   4.272074095  -0.092242728
C        7.396716961   5.694687435  -0.113102033
C        6.171359950   6.409747190  -0.045462958
C        6.161973015   7.833621692  -0.101802206
C        4.931346831   8.551541471  -0.061435332
C        4.926170949   9.970453185  -0.135247634
End final coordinates

     Writing output data file manganeso-sixhollow-3.0.save/

     General routines

     Parallel routines

   This run was terminated on:   9:25: 4  31Aug2023

   JOB DONE.