     Program PWSCF v.6.4.1 starts on 25Oct2022 at  7:26:55

     R & G space division:  proc/nbgrp/npool/nimage =       6
     Reading input from v-vcrelax.in

     Current dimensions of program PWSCF are:
     Max number of different atomic species (ntypx) = 10
     Max number of k-points (npk) =  40000
     Max angular momentum in pseudopotentials (lmaxx) =  3

     IMPORTANT: XC functional enforced from input :
     Exchange-correlation      = RVV10 ( 1  4 13  4 3 0)
     Any further DFT definition will be discarded
     Please, verify this is what you really want

               file H.pbe-rrkjus.UPF: wavefunction(s)  1S renormalized
               file V.pbe-spnl-rrkjus_psl.1.0.0.UPF: wavefunction(s)  3P 3D renormalized

     Subspace diagonalization in iterative solution of the eigenvalue problem:
     a serial algorithm will be used

     bravais-lattice index     =            4
     lattice parameter (alat)  =      23.2937  a.u.
     unit-cell volume          =    8879.8548 (a.u.)^3
     number of atoms/cell      =           52
     number of atomic types    =            3
     number of electrons       =       211.00
     number of Kohn-Sham states=          127
     kinetic-energy cutoff     =      70.0000  Ry
     charge density cutoff     =     490.0000  Ry
     convergence threshold     =      1.0E-10
     mixing beta               =       0.3000
     number of iterations used =            4  plain     mixing
     Exchange-correlation      = RVV10 ( 1  4 13  4 3 0)
     nstep                     =           50

     celldm(1)=  23.293684  celldm(2)=   0.000000  celldm(3)=   0.811261
     celldm(4)=   0.000000  celldm(5)=   0.000000  celldm(6)=   0.000000

     crystal axes: (cart. coord. in units of alat)
               a(1) = (   1.000000   0.000000   0.000000 )
               a(2) = (  -0.500000   0.866025   0.000000 )
               a(3) = (   0.000000   0.000000   0.811261 )

     reciprocal axes: (cart. coord. in units 2 pi/alat)
               b(1) = (  1.000000  0.577350 -0.000000 )
               b(2) = (  0.000000  1.154701  0.000000 )
               b(3) = (  0.000000 -0.000000  1.232649 )

     PseudoPot. # 1 for H  read from file:
     /home/cristian/Escritorio/Proyecto_Grafeno/pseudopotenciales/H.pbe-rrkjus.UPF
     MD5 check sum: 7cc9d459525c9a0585f487a71c3c9563
     Pseudo is Ultrasoft, Zval =  1.0
     Generated by new atomic code, or converted to UPF format
     Using radial grid of 1061 points,  2 beta functions with:
                l(1) =   0
                l(2) =   0
     Q(r) pseudized with 0 coefficients

     PseudoPot. # 2 for C  read from file:
     /home/cristian/Escritorio/Proyecto_Grafeno/pseudopotenciales/C.pbe-n-rrkjus_psl.1.0.0.UPF
     MD5 check sum: 1fdd950c42eb37d8afe3dd2f8d12311e
     Pseudo is Ultrasoft + core correction, Zval =  4.0
     Generated using "atomic" code by A. Dal Corso v.6.3MaX
     Using radial grid of 1073 points,  4 beta functions with:
                l(1) =   0
                l(2) =   0
                l(3) =   1
                l(4) =   1
     Q(r) pseudized with 0 coefficients

     PseudoPot. # 3 for V  read from file:
     /home/cristian/Escritorio/Proyecto_Grafeno/pseudopotenciales/V.pbe-spnl-rrkjus_psl.1.0.0.UPF
     MD5 check sum: 79b3eb63147daf0b665d9f1bcc691206
     Pseudo is Ultrasoft + core correction, Zval = 13.0
     Generated using "atomic" code by A. Dal Corso v.6.2.2
     Using radial grid of 1181 points,  6 beta functions with:
                l(1) =   0
                l(2) =   0
                l(3) =   1
                l(4) =   1
                l(5) =   2
                l(6) =   2
     Q(r) pseudized with 0 coefficients

     vdW kernel table read from file rVV10_kernel_table
     MD5 check sum: b8e2538accc0c0b3206b45ba4daaba6c

     atomic species   valence    mass     pseudopotential
        H              1.00     1.00794     H ( 1.00)
        C              4.00    12.01070     C ( 1.00)
        V             13.00    50.94150     V ( 1.00)

     Starting magnetic structure
     atomic species   magnetization
        H            0.500
        C            0.300
        V            0.800

     No symmetry found

                                    s                        frac. trans.

      isym =  1     identity

 cryst.   s( 1) = (     1          0          0      )
                  (     0          1          0      )
                  (     0          0          1      )

 cart.    s( 1) = (  1.0000000  0.0000000  0.0000000 )
                  (  0.0000000  1.0000000  0.0000000 )
                  (  0.0000000  0.0000000  1.0000000 )

     point group C_1 (1)
     there are  1 classes
     the character table:

       E
A      1.00

     the symmetry operations in each class and the name of the first element:

     E        1
          identity

   Cartesian axes

     site n.     atom                  positions (alat units)
         1           H   tau(   1) = (   0.2294668   0.4697758   0.2271531  )
         2           H   tau(   2) = (   0.1705332   0.4539846   0.2271531  )
         3           C   tau(   3) = (   0.0000000   0.0000000   0.0000000  )
         4           C   tau(   4) = (   0.0000000   0.1154701   0.0000000  )
         5           C   tau(   5) = (  -0.1000000   0.1732051   0.0000000  )
         6           C   tau(   6) = (  -0.1000000   0.2886751   0.0000000  )
         7           C   tau(   7) = (  -0.2000000   0.3464102   0.0000000  )
         8           C   tau(   8) = (  -0.2000000   0.4618802   0.0000000  )
         9           C   tau(   9) = (  -0.3000000   0.5196152   0.0000000  )
        10           C   tau(  10) = (  -0.3000000   0.6350853   0.0000000  )
        11           C   tau(  11) = (  -0.4000000   0.6928203   0.0000000  )
        12           C   tau(  12) = (  -0.4000000   0.8082904   0.0000000  )
        13           C   tau(  13) = (   0.2000000   0.0000000   0.0000000  )
        14           C   tau(  14) = (   0.2000000   0.1154701   0.0000000  )
        15           C   tau(  15) = (   0.1000000   0.1732051   0.0000000  )
        16           C   tau(  16) = (   0.1000000   0.2886751   0.0000000  )
        17           C   tau(  17) = (   0.0000000   0.3464102   0.0000000  )
        18           C   tau(  18) = (   0.0000000   0.4618802   0.0000000  )
        19           C   tau(  19) = (  -0.1000000   0.5196152   0.0000000  )
        20           C   tau(  20) = (  -0.1000000   0.6350853   0.0000000  )
        21           C   tau(  21) = (  -0.2000000   0.6928203   0.0000000  )
        22           C   tau(  22) = (  -0.2000000   0.8082904   0.0000000  )
        23           C   tau(  23) = (   0.4000000   0.0000000   0.0000000  )
        24           C   tau(  24) = (   0.4000000   0.1154701   0.0000000  )
        25           C   tau(  25) = (   0.3000000   0.1732051   0.0000000  )
        26           C   tau(  26) = (   0.3000000   0.2886751   0.0000000  )
        27           C   tau(  27) = (   0.2000000   0.3464102   0.0000000  )
        28           V   tau(  28) = (   0.2000000   0.4618802   0.0000000  )
        29           C   tau(  29) = (   0.1000000   0.5196152   0.0000000  )
        30           C   tau(  30) = (   0.1000000   0.6350853   0.0000000  )
        31           C   tau(  31) = (   0.0000000   0.6928203   0.0000000  )
        32           C   tau(  32) = (   0.0000000   0.8082904   0.0000000  )
        33           C   tau(  33) = (   0.6000000   0.0000000   0.0000000  )
        34           C   tau(  34) = (   0.6000000   0.1154701   0.0000000  )
        35           C   tau(  35) = (   0.5000000   0.1732051   0.0000000  )
        36           C   tau(  36) = (   0.5000000   0.2886751   0.0000000  )
        37           C   tau(  37) = (   0.4000000   0.3464102   0.0000000  )
        38           C   tau(  38) = (   0.4000000   0.4618802   0.0000000  )
        39           C   tau(  39) = (   0.3000000   0.5196152   0.0000000  )
        40           C   tau(  40) = (   0.3000000   0.6350853   0.0000000  )
        41           C   tau(  41) = (   0.2000000   0.6928203   0.0000000  )
        42           C   tau(  42) = (   0.2000000   0.8082904   0.0000000  )
        43           C   tau(  43) = (   0.8000000   0.0000000   0.0000000  )
        44           C   tau(  44) = (   0.8000000   0.1154701   0.0000000  )
        45           C   tau(  45) = (   0.7000000   0.1732051   0.0000000  )
        46           C   tau(  46) = (   0.7000000   0.2886751   0.0000000  )
        47           C   tau(  47) = (   0.6000000   0.3464102   0.0000000  )
        48           C   tau(  48) = (   0.6000000   0.4618802   0.0000000  )
        49           C   tau(  49) = (   0.5000000   0.5196152   0.0000000  )
        50           C   tau(  50) = (   0.5000000   0.6350853   0.0000000  )
        51           C   tau(  51) = (   0.4000000   0.6928203   0.0000000  )
        52           C   tau(  52) = (   0.4000000   0.8082904   0.0000000  )

   Crystallographic axes

     site n.     atom                  positions (cryst. coord.)
         1           H   tau(   1) = (  0.5006920  0.5424504  0.2800000  )
         2           H   tau(   2) = (  0.4326413  0.5242163  0.2800000  )
         3           C   tau(   3) = (  0.0000000  0.0000000  0.0000000  )
         4           C   tau(   4) = (  0.0666667  0.1333333  0.0000000  )
         5           C   tau(   5) = (  0.0000000  0.2000000  0.0000000  )
         6           C   tau(   6) = (  0.0666667  0.3333333  0.0000000  )
         7           C   tau(   7) = (  0.0000000  0.4000000  0.0000000  )
         8           C   tau(   8) = (  0.0666667  0.5333333  0.0000000  )
         9           C   tau(   9) = (  0.0000000  0.6000000  0.0000000  )
        10           C   tau(  10) = (  0.0666667  0.7333333  0.0000000  )
        11           C   tau(  11) = (  0.0000000  0.8000000  0.0000000  )
        12           C   tau(  12) = (  0.0666667  0.9333333  0.0000000  )
        13           C   tau(  13) = (  0.2000000  0.0000000  0.0000000  )
        14           C   tau(  14) = (  0.2666667  0.1333333  0.0000000  )
        15           C   tau(  15) = (  0.2000000  0.2000000  0.0000000  )
        16           C   tau(  16) = (  0.2666667  0.3333333  0.0000000  )
        17           C   tau(  17) = (  0.2000000  0.4000000  0.0000000  )
        18           C   tau(  18) = (  0.2666667  0.5333333  0.0000000  )
        19           C   tau(  19) = (  0.2000000  0.6000000  0.0000000  )
        20           C   tau(  20) = (  0.2666667  0.7333333  0.0000000  )
        21           C   tau(  21) = (  0.2000000  0.8000000  0.0000000  )
        22           C   tau(  22) = (  0.2666667  0.9333333  0.0000000  )
        23           C   tau(  23) = (  0.4000000  0.0000000  0.0000000  )
        24           C   tau(  24) = (  0.4666667  0.1333333  0.0000000  )
        25           C   tau(  25) = (  0.4000000  0.2000000  0.0000000  )
        26           C   tau(  26) = (  0.4666667  0.3333333  0.0000000  )
        27           C   tau(  27) = (  0.4000000  0.4000000  0.0000000  )
        28           V   tau(  28) = (  0.4666667  0.5333333  0.0000000  )
[...]
     atom   34 type  2   force =    -0.10913607    0.02298051    0.47247940
     atom   35 type  2   force =    -0.27424740    0.23741183    0.81551613
     atom   36 type  2   force =    -0.60852598    0.36459783    1.15258966
     atom   37 type  2   force =    -1.03510257    0.66995725    1.24003312
     atom   38 type  2   force =    -1.54264901    0.20800263    1.79451841
     atom   39 type  2   force =    -1.48178139   -1.50366255    2.79981332
     atom   40 type  2   force =    -0.24985223   -1.46005747    1.47243306
     atom   41 type  2   force =     0.23131426   -1.08084543    0.19159237
     atom   42 type  2   force =     0.03270097   -0.58283211    0.38111001
     atom   43 type  2   force =     0.04201435   -0.27128598    0.82917704
     atom   44 type  2   force =     0.06353883   -0.03891712    0.70238197
     atom   45 type  2   force =    -0.00642876    0.02123645    0.32627948
     atom   46 type  2   force =    -0.08050679    0.08016340    0.58517857
     atom   47 type  2   force =    -0.33120508    0.14934301    0.88351398
     atom   48 type  2   force =    -0.46525453    0.04777672    1.06815269
     atom   49 type  2   force =    -0.82862874   -0.23026845    1.52470894
     atom   50 type  2   force =    -0.44464714   -0.32670649    1.50230172
     atom   51 type  2   force =    -0.49646197   -0.56994399    1.76320101
     atom   52 type  2   force =    -0.05801976   -0.34664448    1.42715999
     The core correction contribution to forces
     atom    1 type  1   force =     0.00000000    0.00000000    0.00000000
     atom    2 type  1   force =     0.00000000    0.00000000    0.00000000
     atom    3 type  2   force =    -0.00010981    0.00008776    0.00019168
     atom    4 type  2   force =     0.00004285   -0.00002328    0.00025461
     atom    5 type  2   force =    -0.00009350   -0.00006962    0.00006063
     atom    6 type  2   force =     0.00017349    0.00022978    0.00006835
     atom    7 type  2   force =    -0.00002639   -0.00010460    0.00013549
     atom    8 type  2   force =    -0.00001297    0.00004925    0.00000667
     atom    9 type  2   force =     0.00002147   -0.00010933    0.00004749
     atom   10 type  2   force =     0.00004807   -0.00004796    0.00025354
     atom   11 type  2   force =    -0.00021058    0.00004554    0.00010894
     atom   12 type  2   force =    -0.00004522    0.00004238    0.00033756
     atom   13 type  2   force =    -0.00018103    0.00007764    0.00007214
     atom   14 type  2   force =     0.00001171   -0.00008935    0.00039886
     atom   15 type  2   force =    -0.00050655    0.00028852   -0.00008348
     atom   16 type  2   force =     0.00042207   -0.00015241   -0.00030137
     atom   17 type  2   force =    -0.00002081   -0.00021801    0.00035433
     atom   18 type  2   force =     0.00014035    0.00066913   -0.00081317
     atom   19 type  2   force =     0.00024056   -0.00037618   -0.00031086
     atom   20 type  2   force =    -0.00009132    0.00004902    0.00021247
     atom   21 type  2   force =     0.00012915   -0.00014031    0.00000551
     atom   22 type  2   force =     0.00004867   -0.00000300    0.00024704
     atom   23 type  2   force =     0.00005943    0.00002217    0.00004675
     atom   24 type  2   force =    -0.00000905   -0.00008706    0.00006367
     atom   25 type  2   force =     0.00020448    0.00001272    0.00001053
     atom   26 type  2   force =    -0.00057673   -0.00035135   -0.00159752
     atom   27 type  2   force =    -0.00064704    0.00614566    0.00250668
     atom   28 type  3   force =     0.00590990   -0.00160148    0.02786472
     atom   29 type  2   force =     0.00536958   -0.00322477    0.00270234
     atom   30 type  2   force =    -0.00057963   -0.00049253   -0.00099958
     atom   31 type  2   force =     0.00033362   -0.00006284   -0.00031698
     atom   32 type  2   force =    -0.00002300   -0.00001463   -0.00001333
     atom   33 type  2   force =     0.00005154    0.00007302    0.00017505
     atom   34 type  2   force =     0.00006797    0.00008882    0.00000660
     atom   35 type  2   force =     0.00018000   -0.00014494    0.00024848
     atom   36 type  2   force =    -0.00011031    0.00004700   -0.00000194
     atom   37 type  2   force =     0.00033818   -0.00012540   -0.00018400
     atom   38 type  2   force =     0.00003229    0.00067518   -0.00140042
     atom   39 type  2   force =    -0.00573485   -0.00280961    0.00247021
     atom   40 type  2   force =     0.00036578   -0.00033032   -0.00037288
     atom   41 type  2   force =     0.00024949    0.00017917    0.00029461
     atom   42 type  2   force =    -0.00014119   -0.00022025    0.00000171
     atom   43 type  2   force =     0.00006794    0.00014097    0.00007516
     atom   44 type  2   force =    -0.00026420    0.00016402    0.00003454
     atom   45 type  2   force =     0.00006066   -0.00000949    0.00031827
     atom   46 type  2   force =    -0.00004571   -0.00015085    0.00003220
     atom   47 type  2   force =     0.00022987   -0.00006642    0.00019539
     atom   48 type  2   force =     0.00012485    0.00005991    0.00003128
     atom   49 type  2   force =     0.00008194   -0.00030442   -0.00007719
     atom   50 type  2   force =     0.00014990    0.00004942    0.00044170
     atom   51 type  2   force =    -0.00049748    0.00035426   -0.00006125
     atom   52 type  2   force =     0.00007052    0.00001858    0.00023293
     The Hubbard contrib.    to forces
     atom    1 type  1   force =     0.00000000    0.00000000    0.00000000
     atom    2 type  1   force =     0.00000000    0.00000000    0.00000000
     atom    3 type  2   force =     0.00000000    0.00000000    0.00000000
     atom    4 type  2   force =     0.00000000    0.00000000    0.00000000
     atom    5 type  2   force =     0.00000000    0.00000000    0.00000000
     atom    6 type  2   force =     0.00000000    0.00000000    0.00000000
     atom    7 type  2   force =     0.00000000    0.00000000    0.00000000
     atom    8 type  2   force =     0.00000000    0.00000000    0.00000000
     atom    9 type  2   force =     0.00000000    0.00000000    0.00000000
     atom   10 type  2   force =     0.00000000    0.00000000    0.00000000
     atom   11 type  2   force =     0.00000000    0.00000000    0.00000000
     atom   12 type  2   force =     0.00000000    0.00000000    0.00000000
     atom   13 type  2   force =     0.00000000    0.00000000    0.00000000
     atom   14 type  2   force =     0.00000000    0.00000000    0.00000000
     atom   15 type  2   force =     0.00000000    0.00000000    0.00000000
     atom   16 type  2   force =     0.00000000    0.00000000    0.00000000
     atom   17 type  2   force =     0.00000000    0.00000000    0.00000000
     atom   18 type  2   force =     0.00000000    0.00000000    0.00000000
     atom   19 type  2   force =     0.00000000    0.00000000    0.00000000
     atom   20 type  2   force =     0.00000000    0.00000000    0.00000000
     atom   21 type  2   force =     0.00000000    0.00000000    0.00000000
     atom   22 type  2   force =     0.00000000    0.00000000    0.00000000
     atom   23 type  2   force =     0.00000000    0.00000000    0.00000000
     atom   24 type  2   force =     0.00000000    0.00000000    0.00000000
     atom   25 type  2   force =     0.00000000    0.00000000    0.00000000
     atom   26 type  2   force =     0.00000000    0.00000000    0.00000000
     atom   27 type  2   force =     0.00000000    0.00000000    0.00000000
     atom   28 type  3   force =     0.00000000    0.00000000    0.00000000
     atom   29 type  2   force =     0.00000000    0.00000000    0.00000000
     atom   30 type  2   force =     0.00000000    0.00000000    0.00000000
     atom   31 type  2   force =     0.00000000    0.00000000    0.00000000
     atom   32 type  2   force =     0.00000000    0.00000000    0.00000000
     atom   33 type  2   force =     0.00000000    0.00000000    0.00000000
     atom   34 type  2   force =     0.00000000    0.00000000    0.00000000
     atom   35 type  2   force =     0.00000000    0.00000000    0.00000000
     atom   36 type  2   force =     0.00000000    0.00000000    0.00000000
     atom   37 type  2   force =     0.00000000    0.00000000    0.00000000
     atom   38 type  2   force =     0.00000000    0.00000000    0.00000000
     atom   39 type  2   force =     0.00000000    0.00000000    0.00000000
     atom   40 type  2   force =     0.00000000    0.00000000    0.00000000
     atom   41 type  2   force =     0.00000000    0.00000000    0.00000000
     atom   42 type  2   force =     0.00000000    0.00000000    0.00000000
     atom   43 type  2   force =     0.00000000    0.00000000    0.00000000
     atom   44 type  2   force =     0.00000000    0.00000000    0.00000000
     atom   45 type  2   force =     0.00000000    0.00000000    0.00000000
     atom   46 type  2   force =     0.00000000    0.00000000    0.00000000
     atom   47 type  2   force =     0.00000000    0.00000000    0.00000000
     atom   48 type  2   force =     0.00000000    0.00000000    0.00000000
     atom   49 type  2   force =     0.00000000    0.00000000    0.00000000
     atom   50 type  2   force =     0.00000000    0.00000000    0.00000000
     atom   51 type  2   force =     0.00000000    0.00000000    0.00000000
     atom   52 type  2   force =     0.00000000    0.00000000    0.00000000
     The SCF correction term to forces
     atom    1 type  1   force =    -0.00000011    0.00000007    0.00000015
     atom    2 type  1   force =     0.00000078    0.00000024    0.00000014
     atom    3 type  2   force =    -0.00000009   -0.00000014   -0.00000001
     atom    4 type  2   force =    -0.00000012   -0.00000012   -0.00000001
     atom    5 type  2   force =    -0.00000012   -0.00000010   -0.00000006
     atom    6 type  2   force =    -0.00000012   -0.00000009   -0.00000003
     atom    7 type  2   force =    -0.00000019   -0.00000003   -0.00000002
     atom    8 type  2   force =    -0.00000014    0.00000004    0.00000004
     atom    9 type  2   force =    -0.00000012    0.00000004    0.00000003
     atom   10 type  2   force =    -0.00000006    0.00000003   -0.00000007
     atom   11 type  2   force =    -0.00000000   -0.00000004   -0.00000007
     atom   12 type  2   force =     0.00000000   -0.00000010   -0.00000006
     atom   13 type  2   force =    -0.00000001   -0.00000011   -0.00000011
     atom   14 type  2   force =     0.00000008   -0.00000009   -0.00000011
     atom   15 type  2   force =    -0.00000005   -0.00000016    0.00000000
     atom   16 type  2   force =    -0.00000007   -0.00000023   -0.00000003
     atom   17 type  2   force =    -0.00000012   -0.00000007   -0.00000004
     atom   18 type  2   force =    -0.00000021    0.00000009    0.00000004
     atom   19 type  2   force =    -0.00000018   -0.00000004    0.00000002
     atom   20 type  2   force =    -0.00000013    0.00000007    0.00000002
     atom   21 type  2   force =    -0.00000017    0.00000003   -0.00000004
     atom   22 type  2   force =    -0.00000003   -0.00000001   -0.00000004
     atom   23 type  2   force =     0.00000003   -0.00000002    0.00000005
     atom   24 type  2   force =     0.00000009    0.00000004   -0.00000000
     atom   25 type  2   force =     0.00000007   -0.00000003   -0.00000001
     atom   26 type  2   force =     0.00000022   -0.00000011   -0.00000003
     atom   27 type  2   force =     0.00000024   -0.00000021   -0.00000006
     atom   28 type  3   force =     0.00000056    0.00000058    0.00000034
     atom   29 type  2   force =     0.00000004    0.00000015    0.00000007
     atom   30 type  2   force =     0.00000010    0.00000022   -0.00000002
     atom   31 type  2   force =     0.00000001    0.00000016    0.00000005
     atom   32 type  2   force =     0.00000005    0.00000008    0.00000008
     atom   33 type  2   force =    -0.00000001    0.00000006    0.00000003
     atom   34 type  2   force =    -0.00000004    0.00000004   -0.00000003
     atom   35 type  2   force =     0.00000015    0.00000004   -0.00000000
     atom   36 type  2   force =     0.00000013   -0.00000001   -0.00000010
     atom   37 type  2   force =     0.00000013    0.00000011   -0.00000001
     atom   38 type  2   force =     0.00000008    0.00000013    0.00000001
     atom   39 type  2   force =     0.00000021    0.00000003   -0.00000004
     atom   40 type  2   force =     0.00000015    0.00000007   -0.00000000
     atom   41 type  2   force =     0.00000013    0.00000011   -0.00000002
     atom   42 type  2   force =     0.00000006    0.00000008   -0.00000002
     atom   43 type  2   force =     0.00000003   -0.00000007   -0.00000003
     atom   44 type  2   force =    -0.00000002   -0.00000005   -0.00000003
     atom   45 type  2   force =    -0.00000010    0.00000000   -0.00000003
     atom   46 type  2   force =    -0.00000014    0.00000004   -0.00000001
     atom   47 type  2   force =    -0.00000004    0.00000001   -0.00000005
     atom   48 type  2   force =    -0.00000005   -0.00000007   -0.00000005
     atom   49 type  2   force =    -0.00000005   -0.00000001   -0.00000004
     atom   50 type  2   force =    -0.00000004    0.00000002   -0.00000007
     atom   51 type  2   force =     0.00000003   -0.00000001   -0.00000004
     atom   52 type  2   force =    -0.00000006   -0.00000007   -0.00000003

     Total force =     0.017400     Total SCF correction =     0.000002

     number of scf cycles    =  50
     number of bfgs steps    =  49

     energy   old            =    -758.4181182889 Ry
     energy   new            =    -758.4184584104 Ry

     CASE: energy  _new < energy  _old

     new trust radius        =       0.0224409167 bohr
     new conv_thr            =            3.4E-12 Ry

ATOMIC_POSITIONS (angstrom)
H        2.904293573   5.387387937   3.439393887
H        2.319665161   5.902475682   3.405163761
C       -0.010394435   0.005819221  -0.282654645
C       -0.016571597   1.423410861  -0.227445911
C       -1.245926504   2.140168496  -0.165971967
C       -1.243691316   3.563174500  -0.053154843
C       -2.477936180   4.274161470  -0.070182712
C       -2.476735010   5.696220235  -0.029680536
C       -3.702821911   6.410333044  -0.115793964
C       -3.706963796   7.831971964  -0.138721441
C       -4.938735612   8.544969796  -0.230632949
C       -4.940813042   9.967235979  -0.272675972
C        2.455657505   0.000756799  -0.228309182
C        2.454586178   1.419905332  -0.185329631
C        1.212458730   2.127343318  -0.155071769
C        1.203597661   3.528371837   0.074643096
C       -0.019735183   4.265292860   0.118262003
C       -0.029036106   5.695903307   0.267719307
C       -1.251362152   6.408284299   0.100603013
C       -1.249669197   7.834847225   0.071091333
C       -2.475899781   8.543218918  -0.069021155
C       -2.474747444   9.965058726  -0.139576273
C        4.921829624  -0.001773717  -0.116375672
C        4.925322838   1.418984232  -0.149459863
C        3.692836638   2.122179043  -0.118548736
C        3.690327213   3.538369891   0.045496075
C        2.441913753   4.164196355   0.297642084
V        2.643303055   5.628389736   1.452096931
C        1.151275803   6.444343189   0.542428543
C        1.213377029   7.842740831   0.267392502
C       -0.014555439   8.549273639   0.104531383
C       -0.009776442   9.967542906  -0.028042179
C        7.385193081   0.006389090  -0.056642702
C        7.386525779   1.427782639  -0.119098093
C        6.155003209   2.136470094  -0.141354012
C        6.151807279   3.561176947  -0.133501667
C        4.924155758   4.270824172  -0.021154025
C        4.947722944   5.704600964  -0.000920463
C        3.781896959   6.471961440   0.233399980
C        3.708018302   7.864721880   0.033255241
C        2.457289763   8.553768906   0.109384814
C        2.453949462   9.967273980  -0.041728165
C        9.848890403   0.007386374  -0.158391707
C        9.848269028   1.429587134  -0.163688142
C        8.617557597   2.140741172  -0.129801036
C        8.618181031   3.562375936  -0.132570987
C        7.387887395   4.273194679  -0.152013014
C        7.397356610   5.695949587  -0.162027990
C        6.173302319   6.411761447  -0.153919475
C        6.159326036   7.835736451  -0.207278890
C        4.926044044   8.561184009  -0.180360354
C        4.922011588   9.977791420  -0.231403828

     Writing output data file vanadio-top-2.1.save/
     NEW-OLD atomic charge density approx. for the potential

     Check: negative core charge=   -0.000002

     negative rho (up, down):  1.047E-03 5.712E-03

     Writing output data file vanadio-top-2.1.save/

     General routines

     Parallel routines

   This run was terminated on:   9:15:48  27Oct2022

   JOB DONE.