     Program PWSCF v.6.4.1 starts on 27Oct2022 at  9:33: 1

     R & G space division:  proc/nbgrp/npool/nimage =       6
     Reading input from v-vcrelax-2.in

     Current dimensions of program PWSCF are:
     Max number of different atomic species (ntypx) = 10
     Max number of k-points (npk) =  40000
     Max angular momentum in pseudopotentials (lmaxx) =  3

     IMPORTANT: XC functional enforced from input :
     Exchange-correlation      = RVV10 ( 1  4 13  4 3 0)
     Any further DFT definition will be discarded
     Please, verify this is what you really want

               file H.pbe-rrkjus.UPF: wavefunction(s)  1S renormalized
               file V.pbe-spnl-rrkjus_psl.1.0.0.UPF: wavefunction(s)  3P 3D renormalized

     Subspace diagonalization in iterative solution of the eigenvalue problem:
     a serial algorithm will be used

     bravais-lattice index     =            4
     lattice parameter (alat)  =      23.2937  a.u.
     unit-cell volume          =    8879.8548 (a.u.)^3
     number of atoms/cell      =           52
     number of atomic types    =            3
     number of electrons       =       211.00
     number of Kohn-Sham states=          127
     kinetic-energy cutoff     =      70.0000  Ry
     charge density cutoff     =     490.0000  Ry
     convergence threshold     =      1.0E-10
     mixing beta               =       0.3000
     number of iterations used =            4  plain     mixing
     Exchange-correlation      = RVV10 ( 1  4 13  4 3 0)
     nstep                     =           50

     celldm(1)=  23.293684  celldm(2)=   0.000000  celldm(3)=   0.811261
     celldm(4)=   0.000000  celldm(5)=   0.000000  celldm(6)=   0.000000

     crystal axes: (cart. coord. in units of alat)
               a(1) = (   1.000000   0.000000   0.000000 )
               a(2) = (  -0.500000   0.866025   0.000000 )
               a(3) = (   0.000000   0.000000   0.811261 )

     reciprocal axes: (cart. coord. in units 2 pi/alat)
               b(1) = (  1.000000  0.577350 -0.000000 )
               b(2) = (  0.000000  1.154701  0.000000 )
               b(3) = (  0.000000 -0.000000  1.232649 )

     PseudoPot. # 1 for H  read from file:
     /home/cristian/Escritorio/Proyecto_Grafeno/pseudopotenciales/H.pbe-rrkjus.UPF
     MD5 check sum: 7cc9d459525c9a0585f487a71c3c9563
     Pseudo is Ultrasoft, Zval =  1.0
     Generated by new atomic code, or converted to UPF format
     Using radial grid of 1061 points,  2 beta functions with:
                l(1) =   0
                l(2) =   0
     Q(r) pseudized with 0 coefficients

     PseudoPot. # 2 for C  read from file:
     /home/cristian/Escritorio/Proyecto_Grafeno/pseudopotenciales/C.pbe-n-rrkjus_psl.1.0.0.UPF
     MD5 check sum: 1fdd950c42eb37d8afe3dd2f8d12311e
     Pseudo is Ultrasoft + core correction, Zval =  4.0
     Generated using "atomic" code by A. Dal Corso v.6.3MaX
     Using radial grid of 1073 points,  4 beta functions with:
                l(1) =   0
                l(2) =   0
                l(3) =   1
                l(4) =   1
     Q(r) pseudized with 0 coefficients

     PseudoPot. # 3 for V  read from file:
     /home/cristian/Escritorio/Proyecto_Grafeno/pseudopotenciales/V.pbe-spnl-rrkjus_psl.1.0.0.UPF
     MD5 check sum: 79b3eb63147daf0b665d9f1bcc691206
     Pseudo is Ultrasoft + core correction, Zval = 13.0
     Generated using "atomic" code by A. Dal Corso v.6.2.2
     Using radial grid of 1181 points,  6 beta functions with:
                l(1) =   0
                l(2) =   0
                l(3) =   1
                l(4) =   1
                l(5) =   2
                l(6) =   2
     Q(r) pseudized with 0 coefficients

     vdW kernel table read from file rVV10_kernel_table
     MD5 check sum: b8e2538accc0c0b3206b45ba4daaba6c

     atomic species   valence    mass     pseudopotential
        H              1.00     1.00794     H ( 1.00)
        C              4.00    12.01070     C ( 1.00)
        V             13.00    50.94150     V ( 1.00)

     Starting magnetic structure
     atomic species   magnetization
        H            0.500
        C            0.300
        V            0.800

     No symmetry found

                                    s                        frac. trans.

      isym =  1     identity

 cryst.   s( 1) = (     1          0          0      )
                  (     0          1          0      )
                  (     0          0          1      )

 cart.    s( 1) = (  1.0000000  0.0000000  0.0000000 )
                  (  0.0000000  1.0000000  0.0000000 )
                  (  0.0000000  0.0000000  1.0000000 )

     point group C_1 (1)
     there are  1 classes
     the character table:

       E
A      1.00

     the symmetry operations in each class and the name of the first element:

     E        1
          identity

   Cartesian axes

     site n.     atom                  positions (alat units)
         1           H   tau(   1) = (   0.2356141   0.4370579   0.2790247  )
         2           H   tau(   2) = (   0.1881854   0.4788449   0.2762477  )
         3           C   tau(   3) = (  -0.0008433   0.0004721  -0.0229307  )
         4           C   tau(   4) = (  -0.0013444   0.1154758  -0.0184518  )
         5           C   tau(   5) = (  -0.1010772   0.1736236  -0.0134647  )
         6           C   tau(   6) = (  -0.1008958   0.2890665  -0.0043122  )
         7           C   tau(   7) = (  -0.2010253   0.3467461  -0.0056937  )
         8           C   tau(   8) = (  -0.2009279   0.4621122  -0.0024079  )
         9           C   tau(   9) = (  -0.3003956   0.5200454  -0.0093939  )
        10           C   tau(  10) = (  -0.3007316   0.6353775  -0.0112539  )
        11           C   tau(  11) = (  -0.4006604   0.6932202  -0.0187104  )
        12           C   tau(  12) = (  -0.4008290   0.8086031  -0.0221211  )
        13           C   tau(  13) = (   0.1992180   0.0000614  -0.0185218  )
        14           C   tau(  14) = (   0.1991310   0.1151914  -0.0150351  )
        15           C   tau(  15) = (   0.0983621   0.1725831  -0.0125804  )
        16           C   tau(  16) = (   0.0976432   0.2862431   0.0060555  )
        17           C   tau(  17) = (  -0.0016010   0.3460266   0.0095941  )
        18           C   tau(  18) = (  -0.0023556   0.4620865   0.0217190  )
        19           C   tau(  19) = (  -0.1015182   0.5198792   0.0081615  )
        20           C   tau(  20) = (  -0.1013808   0.6356107   0.0057674  )
        21           C   tau(  21) = (  -0.2008601   0.6930782  -0.0055994  )
        22           C   tau(  22) = (  -0.2007666   0.8084265  -0.0113233  )
        23           C   tau(  23) = (   0.3992889  -0.0001439  -0.0094411  )
        24           C   tau(  24) = (   0.3995723   0.1151167  -0.0121251  )
        25           C   tau(  25) = (   0.2995855   0.1721641  -0.0096174  )
        26           C   tau(  26) = (   0.2993819   0.2870542   0.0036909  )
        27           C   tau(  27) = (   0.1981030   0.3378251   0.0241465  )
        28           V   tau(  28) = (   0.2144409   0.4566094   0.1178030  )
        29           C   tau(  29) = (   0.0933985   0.5228045   0.0440051  )
        30           C   tau(  30) = (   0.0984366   0.6362511   0.0216925  )
        31           C   tau(  31) = (  -0.0011808   0.6935694   0.0084802  )
        32           C   tau(  32) = (  -0.0007931   0.8086280  -0.0022750  )
        33           C   tau(  33) = (   0.5991320   0.0005183  -0.0045952  )
        34           C   tau(  34) = (   0.5992402   0.1158305  -0.0096620  )
        35           C   tau(  35) = (   0.4993315   0.1733235  -0.0114675  )
        36           C   tau(  36) = (   0.4990722   0.2889045  -0.0108305  )
        37           C   tau(  37) = (   0.3994776   0.3464754  -0.0017161  )
        38           C   tau(  38) = (   0.4013895   0.4627921  -0.0000747  )
        39           C   tau(  39) = (   0.3068106   0.5250451   0.0189348  )
        40           C   tau(  40) = (   0.3008171   0.6380343   0.0026979  )
        41           C   tau(  41) = (   0.1993504   0.6939341   0.0088740  )
        42           C   tau(  42) = (   0.1990794   0.8086062  -0.0033852  )
        43           C   tau(  43) = (   0.7990022   0.0005992  -0.0128497  )
        44           C   tau(  44) = (   0.7989518   0.1159769  -0.0132794  )
        45           C   tau(  45) = (   0.6991090   0.1736700  -0.0105303  )
        46           C   tau(  46) = (   0.6991596   0.2890017  -0.0107550  )
        47           C   tau(  47) = (   0.5993506   0.3466677  -0.0123322  )
        48           C   tau(  48) = (   0.6001188   0.4620903  -0.0131447  )
        49           C   tau(  49) = (   0.5008160   0.5201613  -0.0124869  )
        50           C   tau(  50) = (   0.4996822   0.6356829  -0.0168157  )
        51           C   tau(  51) = (   0.3996308   0.6945356  -0.0146319  )
        52           C   tau(  52) = (   0.3993037   0.8094595  -0.0187729  )

   Crystallographic axes

     site n.     atom                  positions (cryst. coord.)
         1           H   tau(   1) = (  0.4879495  0.5046709  0.3439394  )
         2           H   tau(   2) = (  0.4646467  0.5529225  0.3405164  )
         3           C   tau(   3) = ( -0.0005707  0.0005451 -0.0282655  )
         4           C   tau(   4) = (  0.0653256  0.1333400 -0.0227446  )
         5           C   tau(   5) = ( -0.0008356  0.2004832 -0.0165972  )
         6           C   tau(   6) = (  0.0659968  0.3337853 -0.0053155  )
         7           C   tau(   7) = ( -0.0008314  0.4003879 -0.0070183  )
         8           C   tau(   8) = (  0.0658727  0.5336012 -0.0029681  )
         9           C   tau(   9) = ( -0.0001472  0.6004967 -0.0115794  )
        10           C   tau(  10) = (  0.0661038  0.7336707 -0.0138721  )
        11           C   tau(  11) = ( -0.0004296  0.8004618 -0.0230633  )
        12           C   tau(  12) = (  0.0660183  0.9336945 -0.0272676  )
        13           C   tau(  13) = (  0.1992534  0.0000709 -0.0228309  )
        14           C   tau(  14) = (  0.2656368  0.1330116 -0.0185330  )
        15           C   tau(  15) = (  0.1980030  0.1992818 -0.0155072  )
        16           C   tau(  16) = (  0.2629057  0.3305251  0.0074643  )
        17           C   tau(  17) = (  0.1981775  0.3995572  0.0118262  )
        18           C   tau(  18) = (  0.2644302  0.5335715  0.0267719  )
        19           C   tau(  19) = (  0.1986343  0.6003048  0.0100603  )
        20           C   tau(  20) = (  0.2655892  0.7339401  0.0071091  )
        21           C   tau(  21) = (  0.1992887  0.8002977 -0.0069021  )
        22           C   tau(  22) = (  0.2659786  0.9334905 -0.0139576  )
        23           C   tau(  23) = (  0.3992058 -0.0001662 -0.0116376  )
        24           C   tau(  24) = (  0.4660350  0.1329253 -0.0149460  )
        25           C   tau(  25) = (  0.3989845  0.1987980 -0.0118549  )
        26           C   tau(  26) = (  0.4651127  0.3314616  0.0045496  )
        27           C   tau(  27) = (  0.3931464  0.3900868  0.0297642  )
        28           V   tau(  28) = (  0.4780645  0.5272471  0.1452097  )
[...]
     atom   30 type  2   force =     0.49330025   -1.28988347    0.04152330
     atom   31 type  2   force =     0.46546773   -0.50810317    0.58117881
     atom   32 type  2   force =     0.12458422   -0.22955954    0.92236147
     atom   33 type  2   force =     0.01961520   -0.26018875    0.79788360
     atom   34 type  2   force =    -0.06897772   -0.01823647    0.87775981
     atom   35 type  2   force =    -0.25025262    0.14582279    0.76408028
     atom   36 type  2   force =    -0.51138874    0.29581690    0.60854293
     atom   37 type  2   force =    -1.03000845    0.58146029    0.30891018
     atom   38 type  2   force =    -1.53809522    0.23410003    0.58022869
     atom   39 type  2   force =    -1.91224629   -1.47178888    1.16599885
     atom   40 type  2   force =    -0.38395167   -1.34227787    0.72801570
     atom   41 type  2   force =     0.11165962   -1.03952623    0.22208709
     atom   42 type  2   force =     0.01503869   -0.51695076    0.78348269
     atom   43 type  2   force =     0.02257005   -0.25971882    1.02232412
     atom   44 type  2   force =     0.06156954   -0.03857857    1.06745659
     atom   45 type  2   force =     0.00152880   -0.00117027    0.75282579
     atom   46 type  2   force =    -0.02160836    0.05896342    0.81874002
     atom   47 type  2   force =    -0.26260980    0.14100093    0.65931253
     atom   48 type  2   force =    -0.35142043    0.03190458    0.92702718
     atom   49 type  2   force =    -0.73151259   -0.17306758    0.84425890
     atom   50 type  2   force =    -0.42659806   -0.25957580    0.93211579
     atom   51 type  2   force =    -0.50727179   -0.49852937    1.18618676
     atom   52 type  2   force =    -0.08534238   -0.28546523    1.27934627
     The core correction contribution to forces
     atom    1 type  1   force =     0.00000000    0.00000000    0.00000000
     atom    2 type  1   force =     0.00000000    0.00000000    0.00000000
     atom    3 type  2   force =    -0.00008047    0.00003984    0.00012309
     atom    4 type  2   force =     0.00002743   -0.00010041    0.00023317
     atom    5 type  2   force =    -0.00006479   -0.00009581    0.00025683
     atom    6 type  2   force =     0.00015772    0.00016455   -0.00005953
     atom    7 type  2   force =    -0.00005863   -0.00003126    0.00026498
     atom    8 type  2   force =     0.00001456   -0.00007653    0.00023183
     atom    9 type  2   force =     0.00002693   -0.00008717    0.00000636
     atom   10 type  2   force =     0.00003259   -0.00005822    0.00035081
     atom   11 type  2   force =    -0.00010653    0.00008190    0.00008609
     atom   12 type  2   force =    -0.00003429    0.00001137    0.00027821
     atom   13 type  2   force =    -0.00012049    0.00004316    0.00005411
     atom   14 type  2   force =    -0.00000166   -0.00018435    0.00034854
     atom   15 type  2   force =    -0.00042850    0.00037350   -0.00009085
     atom   16 type  2   force =     0.00059271   -0.00007293   -0.00040743
     atom   17 type  2   force =     0.00001802   -0.00016758    0.00037639
     atom   18 type  2   force =     0.00018505    0.00058423   -0.00090942
     atom   19 type  2   force =     0.00016956   -0.00018891   -0.00025116
     atom   20 type  2   force =    -0.00001969    0.00000185    0.00040184
     atom   21 type  2   force =     0.00017799   -0.00009301    0.00000342
     atom   22 type  2   force =     0.00003550   -0.00003221    0.00035933
     atom   23 type  2   force =     0.00008855    0.00001973    0.00009950
     atom   24 type  2   force =    -0.00000177   -0.00003816    0.00005915
     atom   25 type  2   force =     0.00039514    0.00012621   -0.00015898
     atom   26 type  2   force =    -0.00073468   -0.00017528   -0.00142919
     atom   27 type  2   force =    -0.00050404    0.00648110    0.00263839
     atom   28 type  3   force =     0.00306553   -0.00209075    0.02913581
     atom   29 type  2   force =     0.00534052   -0.00303358    0.00289898
     atom   30 type  2   force =    -0.00042368   -0.00042720   -0.00084497
     atom   31 type  2   force =     0.00026683   -0.00003048   -0.00026611
     atom   32 type  2   force =     0.00004196    0.00000660    0.00023628
     atom   33 type  2   force =     0.00000002    0.00008391    0.00021197
     atom   34 type  2   force =     0.00016406    0.00011516    0.00002294
     atom   35 type  2   force =     0.00011862   -0.00013933    0.00020538
     atom   36 type  2   force =    -0.00009317    0.00005400   -0.00005364
     atom   37 type  2   force =     0.00021848   -0.00016268   -0.00004964
     atom   38 type  2   force =    -0.00016009    0.00074579   -0.00144302
     atom   39 type  2   force =    -0.00587186   -0.00276671    0.00263569
     atom   40 type  2   force =     0.00037897   -0.00041944   -0.00045819
     atom   41 type  2   force =     0.00011331    0.00009171    0.00036101
     atom   42 type  2   force =    -0.00005546   -0.00021557   -0.00004893
     atom   43 type  2   force =     0.00002969    0.00011162    0.00022314
     atom   44 type  2   force =    -0.00018677    0.00011406    0.00011855
     atom   45 type  2   force =     0.00003985   -0.00001780    0.00034634
     atom   46 type  2   force =    -0.00001991   -0.00021487   -0.00003758
     atom   47 type  2   force =     0.00015299   -0.00004712    0.00025687
     atom   48 type  2   force =     0.00001268   -0.00002050    0.00013522
     atom   49 type  2   force =     0.00007108   -0.00038011   -0.00010131
     atom   50 type  2   force =     0.00016041    0.00009366    0.00041463
     atom   51 type  2   force =    -0.00054543    0.00019153   -0.00018168
     atom   52 type  2   force =     0.00008921    0.00002099    0.00025349
     The Hubbard contrib.    to forces
     atom    1 type  1   force =     0.00000000    0.00000000    0.00000000
     atom    2 type  1   force =     0.00000000    0.00000000    0.00000000
     atom    3 type  2   force =     0.00000000    0.00000000    0.00000000
     atom    4 type  2   force =     0.00000000    0.00000000    0.00000000
     atom    5 type  2   force =     0.00000000    0.00000000    0.00000000
     atom    6 type  2   force =     0.00000000    0.00000000    0.00000000
     atom    7 type  2   force =     0.00000000    0.00000000    0.00000000
     atom    8 type  2   force =     0.00000000    0.00000000    0.00000000
     atom    9 type  2   force =     0.00000000    0.00000000    0.00000000
     atom   10 type  2   force =     0.00000000    0.00000000    0.00000000
     atom   11 type  2   force =     0.00000000    0.00000000    0.00000000
     atom   12 type  2   force =     0.00000000    0.00000000    0.00000000
     atom   13 type  2   force =     0.00000000    0.00000000    0.00000000
     atom   14 type  2   force =     0.00000000    0.00000000    0.00000000
     atom   15 type  2   force =     0.00000000    0.00000000    0.00000000
     atom   16 type  2   force =     0.00000000    0.00000000    0.00000000
     atom   17 type  2   force =     0.00000000    0.00000000    0.00000000
     atom   18 type  2   force =     0.00000000    0.00000000    0.00000000
     atom   19 type  2   force =     0.00000000    0.00000000    0.00000000
     atom   20 type  2   force =     0.00000000    0.00000000    0.00000000
     atom   21 type  2   force =     0.00000000    0.00000000    0.00000000
     atom   22 type  2   force =     0.00000000    0.00000000    0.00000000
     atom   23 type  2   force =     0.00000000    0.00000000    0.00000000
     atom   24 type  2   force =     0.00000000    0.00000000    0.00000000
     atom   25 type  2   force =     0.00000000    0.00000000    0.00000000
     atom   26 type  2   force =     0.00000000    0.00000000    0.00000000
     atom   27 type  2   force =     0.00000000    0.00000000    0.00000000
     atom   28 type  3   force =     0.00000000    0.00000000    0.00000000
     atom   29 type  2   force =     0.00000000    0.00000000    0.00000000
     atom   30 type  2   force =     0.00000000    0.00000000    0.00000000
     atom   31 type  2   force =     0.00000000    0.00000000    0.00000000
     atom   32 type  2   force =     0.00000000    0.00000000    0.00000000
     atom   33 type  2   force =     0.00000000    0.00000000    0.00000000
     atom   34 type  2   force =     0.00000000    0.00000000    0.00000000
     atom   35 type  2   force =     0.00000000    0.00000000    0.00000000
     atom   36 type  2   force =     0.00000000    0.00000000    0.00000000
     atom   37 type  2   force =     0.00000000    0.00000000    0.00000000
     atom   38 type  2   force =     0.00000000    0.00000000    0.00000000
     atom   39 type  2   force =     0.00000000    0.00000000    0.00000000
     atom   40 type  2   force =     0.00000000    0.00000000    0.00000000
     atom   41 type  2   force =     0.00000000    0.00000000    0.00000000
     atom   42 type  2   force =     0.00000000    0.00000000    0.00000000
     atom   43 type  2   force =     0.00000000    0.00000000    0.00000000
     atom   44 type  2   force =     0.00000000    0.00000000    0.00000000
     atom   45 type  2   force =     0.00000000    0.00000000    0.00000000
     atom   46 type  2   force =     0.00000000    0.00000000    0.00000000
     atom   47 type  2   force =     0.00000000    0.00000000    0.00000000
     atom   48 type  2   force =     0.00000000    0.00000000    0.00000000
     atom   49 type  2   force =     0.00000000    0.00000000    0.00000000
     atom   50 type  2   force =     0.00000000    0.00000000    0.00000000
     atom   51 type  2   force =     0.00000000    0.00000000    0.00000000
     atom   52 type  2   force =     0.00000000    0.00000000    0.00000000
     The SCF correction term to forces
     atom    1 type  1   force =     0.00000002   -0.00000011    0.00000002
     atom    2 type  1   force =    -0.00000022    0.00000016    0.00000017
     atom    3 type  2   force =    -0.00000004   -0.00000003    0.00000002
     atom    4 type  2   force =    -0.00000004   -0.00000005   -0.00000002
     atom    5 type  2   force =    -0.00000002   -0.00000004    0.00000000
     atom    6 type  2   force =     0.00000001    0.00000003    0.00000001
     atom    7 type  2   force =     0.00000001    0.00000001    0.00000001
     atom    8 type  2   force =     0.00000003   -0.00000001    0.00000001
     atom    9 type  2   force =     0.00000001    0.00000002    0.00000001
     atom   10 type  2   force =    -0.00000001    0.00000000   -0.00000002
     atom   11 type  2   force =    -0.00000006   -0.00000001   -0.00000002
     atom   12 type  2   force =    -0.00000004   -0.00000004    0.00000001
     atom   13 type  2   force =     0.00000001   -0.00000005   -0.00000001
     atom   14 type  2   force =    -0.00000003   -0.00000005   -0.00000002
     atom   15 type  2   force =    -0.00000003   -0.00000003   -0.00000001
     atom   16 type  2   force =    -0.00000005   -0.00000000   -0.00000004
     atom   17 type  2   force =    -0.00000007    0.00000002   -0.00000005
     atom   18 type  2   force =     0.00000001    0.00000006   -0.00000009
     atom   19 type  2   force =     0.00000002    0.00000002   -0.00000002
     atom   20 type  2   force =     0.00000003    0.00000001    0.00000004
     atom   21 type  2   force =     0.00000003    0.00000002   -0.00000001
     atom   22 type  2   force =     0.00000001   -0.00000001   -0.00000004
     atom   23 type  2   force =     0.00000002   -0.00000004   -0.00000001
     atom   24 type  2   force =     0.00000002   -0.00000005   -0.00000001
     atom   25 type  2   force =     0.00000003   -0.00000003   -0.00000001
     atom   26 type  2   force =     0.00000001   -0.00000000   -0.00000005
     atom   27 type  2   force =    -0.00000003   -0.00000006   -0.00000016
     atom   28 type  3   force =    -0.00000003    0.00000041   -0.00000057
     atom   29 type  2   force =    -0.00000012    0.00000017   -0.00000020
     atom   30 type  2   force =    -0.00000000    0.00000002   -0.00000004
     atom   31 type  2   force =     0.00000007   -0.00000002    0.00000002
     atom   32 type  2   force =     0.00000004   -0.00000006    0.00000001
     atom   33 type  2   force =     0.00000002   -0.00000005    0.00000001
     atom   34 type  2   force =     0.00000003   -0.00000006   -0.00000001
     atom   35 type  2   force =     0.00000002   -0.00000004   -0.00000002
     atom   36 type  2   force =     0.00000001    0.00000000   -0.00000001
     atom   37 type  2   force =     0.00000002    0.00000003   -0.00000006
     atom   38 type  2   force =     0.00000002    0.00000007   -0.00000008
     atom   39 type  2   force =     0.00000015    0.00000019   -0.00000020
     atom   40 type  2   force =     0.00000001    0.00000007   -0.00000007
     atom   41 type  2   force =    -0.00000002    0.00000001   -0.00000002
     atom   42 type  2   force =     0.00000002   -0.00000006    0.00000000
     atom   43 type  2   force =    -0.00000001   -0.00000005   -0.00000000
     atom   44 type  2   force =    -0.00000001   -0.00000004   -0.00000002
     atom   45 type  2   force =     0.00000002   -0.00000003   -0.00000004
     atom   46 type  2   force =     0.00000003   -0.00000002   -0.00000002
     atom   47 type  2   force =     0.00000002    0.00000002   -0.00000002
     atom   48 type  2   force =    -0.00000001    0.00000002    0.00000000
     atom   49 type  2   force =    -0.00000003    0.00000005   -0.00000001
     atom   50 type  2   force =    -0.00000005    0.00000004   -0.00000001
     atom   51 type  2   force =    -0.00000004   -0.00000001    0.00000002
     atom   52 type  2   force =    -0.00000005   -0.00000004    0.00000000

     Total force =     0.003886     Total SCF correction =     0.000001

     bfgs converged in  44 scf cycles and  43 bfgs steps
     (criteria: energy <  1.0E-04 Ry, force <  1.0E-03 Ry/Bohr)

     End of BFGS Geometry Optimization

     Final energy   =    -758.4223448567 Ry
Begin final coordinates

ATOMIC_POSITIONS (angstrom)
H        2.647962276   5.597906552   3.604766692
H        1.998309820   6.001057893   3.452024355
C        0.003038501  -0.003100950  -0.255828219
C       -0.002349568   1.416067302  -0.213452200
C       -1.231557759   2.133072574  -0.190547860
C       -1.228043533   3.557001847  -0.096700450
C       -2.463323379   4.266328578  -0.136898250
C       -2.460733947   5.688290697  -0.122957385
C       -3.690555369   6.401038253  -0.179617517
C       -3.691779076   7.823239581  -0.203333898
C       -4.925394795   8.536985974  -0.223326261
C       -4.927580037   9.959780715  -0.255716284
C        2.468995874  -0.005620358  -0.233518566
C        2.469381116   1.412821649  -0.151717004
C        1.227236524   2.118713788  -0.115574308
C        1.220008971   3.519560496   0.115902940
C       -0.005188636   4.259637103   0.099179139
C       -0.015950557   5.693708322   0.212376320
C       -1.234978331   6.401195701  -0.003213462
C       -1.231356255   7.826580819  -0.054033732
C       -2.458592071   8.534168300  -0.175423802
C       -2.459920204   9.957323087  -0.211192015
C        4.935779135  -0.007318486  -0.194858443
C        4.939472112   1.413907953  -0.161477426
C        3.708345994   2.116626541  -0.078277611
C        3.706946634   3.525339777   0.139663543
C        2.456420655   4.151935318   0.388646052
V        2.552768914   5.636577479   1.546016828
C        1.151045517   6.454256193   0.517035099
C        1.223070968   7.844584694   0.212082707
C        0.000917524   8.543947472  -0.008701163
C        0.005094165   9.960769205  -0.135427254
C        7.398635185  -0.000499024  -0.146165048
C        7.399623312   1.422191424  -0.182491563
C        6.167410688   2.131622751  -0.145496262
C        6.164222551   3.556167660  -0.072713354
C        4.939735821   4.263070988   0.100212490
C        4.960854867   5.700226318   0.152660129
C        3.793138328   6.471806323   0.401183487
C        3.723253588   7.859559495   0.130099955
C        2.470400240   8.551675247   0.105410859
C        2.467773043   9.961047194  -0.094475548
C        9.862582405   0.000190652  -0.185851810
C        9.861497099   1.423201039  -0.214565577
C        8.630653535   2.133238825  -0.193170011
C        8.630991030   3.554557515  -0.174112875
C        7.399655201   4.265666883  -0.132486611
C        7.406554692   5.687986024  -0.141680458
C        6.182540790   6.403765829  -0.057272120
C        6.173071366   7.828693296  -0.131916324
C        4.940942918   8.552630559  -0.098625549
C        4.934434361   9.968053168  -0.204444372
End final coordinates

     Writing output data file vanadio-top-2.1.save/

     General routines

     Parallel routines

   This run was terminated on:  12:43:15  28Oct2022

   JOB DONE.