     Program PWSCF v.6.4.1 starts on 21Oct2022 at 11:27:47

     R & G space division:  proc/nbgrp/npool/nimage =       6
     Reading input from v-vcrelax-2.in

     Current dimensions of program PWSCF are:
     Max number of different atomic species (ntypx) = 10
     Max number of k-points (npk) =  40000
     Max angular momentum in pseudopotentials (lmaxx) =  3

     IMPORTANT: XC functional enforced from input :
     Exchange-correlation      = RVV10 ( 1  4 13  4 3 0)
     Any further DFT definition will be discarded
     Please, verify this is what you really want

               file H.pbe-rrkjus.UPF: wavefunction(s)  1S renormalized
               file V.pbe-spnl-rrkjus_psl.1.0.0.UPF: wavefunction(s)  3P 3D renormalized

     Subspace diagonalization in iterative solution of the eigenvalue problem:
     a serial algorithm will be used

     bravais-lattice index     =            4
     lattice parameter (alat)  =      23.2937  a.u.
     unit-cell volume          =    8879.8548 (a.u.)^3
     number of atoms/cell      =           52
     number of atomic types    =            3
     number of electrons       =       211.00
     number of Kohn-Sham states=          127
     kinetic-energy cutoff     =      70.0000  Ry
     charge density cutoff     =     490.0000  Ry
     convergence threshold     =      1.0E-10
     mixing beta               =       0.3000
     number of iterations used =            4  plain     mixing
     Exchange-correlation      = RVV10 ( 1  4 13  4 3 0)
     nstep                     =           50

     celldm(1)=  23.293684  celldm(2)=   0.000000  celldm(3)=   0.811261
     celldm(4)=   0.000000  celldm(5)=   0.000000  celldm(6)=   0.000000

     crystal axes: (cart. coord. in units of alat)
               a(1) = (   1.000000   0.000000   0.000000 )
               a(2) = (  -0.500000   0.866025   0.000000 )
               a(3) = (   0.000000   0.000000   0.811261 )

     reciprocal axes: (cart. coord. in units 2 pi/alat)
               b(1) = (  1.000000  0.577350 -0.000000 )
               b(2) = (  0.000000  1.154701  0.000000 )
               b(3) = (  0.000000 -0.000000  1.232649 )

     PseudoPot. # 1 for H  read from file:
     /home/cristian/Escritorio/Proyecto_Grafeno/pseudopotenciales/H.pbe-rrkjus.UPF
     MD5 check sum: 7cc9d459525c9a0585f487a71c3c9563
     Pseudo is Ultrasoft, Zval =  1.0
     Generated by new atomic code, or converted to UPF format
     Using radial grid of 1061 points,  2 beta functions with:
                l(1) =   0
                l(2) =   0
     Q(r) pseudized with 0 coefficients

     PseudoPot. # 2 for C  read from file:
     /home/cristian/Escritorio/Proyecto_Grafeno/pseudopotenciales/C.pbe-n-rrkjus_psl.1.0.0.UPF
     MD5 check sum: 1fdd950c42eb37d8afe3dd2f8d12311e
     Pseudo is Ultrasoft + core correction, Zval =  4.0
     Generated using "atomic" code by A. Dal Corso v.6.3MaX
     Using radial grid of 1073 points,  4 beta functions with:
                l(1) =   0
                l(2) =   0
                l(3) =   1
                l(4) =   1
     Q(r) pseudized with 0 coefficients

     PseudoPot. # 3 for V  read from file:
     /home/cristian/Escritorio/Proyecto_Grafeno/pseudopotenciales/V.pbe-spnl-rrkjus_psl.1.0.0.UPF
     MD5 check sum: 79b3eb63147daf0b665d9f1bcc691206
     Pseudo is Ultrasoft + core correction, Zval = 13.0
     Generated using "atomic" code by A. Dal Corso v.6.2.2
     Using radial grid of 1181 points,  6 beta functions with:
                l(1) =   0
                l(2) =   0
                l(3) =   1
                l(4) =   1
                l(5) =   2
                l(6) =   2
     Q(r) pseudized with 0 coefficients

     vdW kernel table read from file rVV10_kernel_table
     MD5 check sum: b8e2538accc0c0b3206b45ba4daaba6c

     atomic species   valence    mass     pseudopotential
        H              1.00     1.00794     H ( 1.00)
        C              4.00    12.01070     C ( 1.00)
        V             13.00    50.94150     V ( 1.00)

     Starting magnetic structure
     atomic species   magnetization
        H            0.500
        C            0.300
        V            0.800

      2 Sym. Ops. (no inversion) found

                                    s                        frac. trans.

      isym =  1     identity

 cryst.   s( 1) = (     1          0          0      )
                  (     0          1          0      )
                  (     0          0          1      )

 cart.    s( 1) = (  1.0000000  0.0000000  0.0000000 )
                  (  0.0000000  1.0000000  0.0000000 )
                  (  0.0000000  0.0000000  1.0000000 )

      isym =  2     inv. 180 deg rotation - cryst. axis [1,1,0]

 cryst.   s( 2) = (     0         -1          0      )
                  (    -1          0          0      )
                  (     0          0          1      )

 cart.    s( 2) = (  0.5000000 -0.8660254  0.0000000 )
                  ( -0.8660254 -0.5000000  0.0000000 )
                  (  0.0000000  0.0000000  1.0000000 )

     point group C_s (m)
     there are  2 classes
     the character table:

       E     s
A'     1.00  1.00
A''    1.00 -1.00

     the symmetry operations in each class and the name of the first element:

     E        1
          identity
     s        2
          inv. 180 deg rotation - cryst. axis [1,1,0]

   Cartesian axes

     site n.     atom                  positions (alat units)
         1           H   tau(   1) = (   0.1761111   0.4756725   0.2619830  )
         2           H   tau(   2) = (   0.2298868   0.4446251   0.2745644  )
         3           C   tau(   3) = (  -0.0010854   0.0006267  -0.0222880  )
         4           C   tau(   4) = (  -0.0014654   0.1155994  -0.0180473  )
         5           C   tau(   5) = (  -0.1009906   0.1739214  -0.0137348  )
         6           C   tau(   6) = (  -0.1006135   0.2895325  -0.0044285  )
         7           C   tau(   7) = (  -0.2006296   0.3470719  -0.0062885  )
         8           C   tau(   8) = (  -0.2000548   0.4624413  -0.0033964  )
         9           C   tau(   9) = (  -0.2997188   0.5201755  -0.0111556  )
        10           C   tau(  10) = (  -0.3004011   0.6355351  -0.0133355  )
        11           C   tau(  11) = (  -0.4002912   0.6935317  -0.0192421  )
        12           C   tau(  12) = (  -0.4010382   0.8088898  -0.0225918  )
        13           C   tau(  13) = (   0.1992383  -0.0001035  -0.0192421  )
        14           C   tau(  14) = (   0.1992643   0.1148739  -0.0148896  )
        15           C   tau(  15) = (   0.0983201   0.1722758  -0.0129535  )
        16           C   tau(  16) = (   0.0974371   0.2862788   0.0022667  )
        17           C   tau(  17) = (  -0.0014005   0.3465634   0.0094060  )
        18           C   tau(  18) = (  -0.0016924   0.4625583   0.0252027  )
        19           C   tau(  19) = (  -0.1009352   0.5202825   0.0099967  )
        20           C   tau(  20) = (  -0.1014083   0.6358984   0.0070491  )
        21           C   tau(  21) = (  -0.2007095   0.6932300  -0.0070647  )
        22           C   tau(  22) = (  -0.2005901   0.8084129  -0.0133355  )
        23           C   tau(  23) = (   0.3996554  -0.0005236  -0.0111556  )
        24           C   tau(  24) = (   0.3999956   0.1146533  -0.0131632  )
        25           C   tau(  25) = (   0.2999878   0.1713453  -0.0108992  )
        26           C   tau(  26) = (   0.2998512   0.2865289  -0.0013053  )
        27           C   tau(  27) = (   0.1984986   0.3379300   0.0138727  )
        28           V   tau(  28) = (   0.2202584   0.4501840   0.1123515  )
        29           C   tau(  29) = (   0.0946080   0.5227283   0.0494978  )
        30           C   tau(  30) = (   0.0985666   0.6362119   0.0252027  )
        31           C   tau(  31) = (  -0.0010454   0.6932966   0.0099967  )
        32           C   tau(  32) = (  -0.0005133   0.8080573  -0.0033964  )
        33           C   tau(  33) = (   0.5991121   0.0002144  -0.0062885  )
        34           C   tau(  34) = (   0.5994016   0.1156538  -0.0112445  )
        35           C   tau(  35) = (   0.4996183   0.1733052  -0.0122319  )
        36           C   tau(  36) = (   0.4996209   0.2888940  -0.0108554  )
        37           C   tau(  37) = (   0.3997876   0.3465328  -0.0040966  )
        38           C   tau(  38) = (   0.4017843   0.4630822  -0.0013053  )
        39           C   tau(  39) = (   0.3065934   0.5251556   0.0138727  )
        40           C   tau(  40) = (   0.3007938   0.6385030   0.0022667  )
        41           C   tau(  41) = (   0.1991671   0.6939566   0.0094060  )
        42           C   tau(  42) = (   0.1989508   0.8083930  -0.0044285  )
        43           C   tau(  43) = (   0.7988843   0.0004997  -0.0137348  )
        44           C   tau(  44) = (   0.7989921   0.1160520  -0.0140971  )
        45           C   tau(  45) = (   0.6993558   0.1735770  -0.0115678  )
        46           C   tau(  46) = (   0.6995417   0.2891015  -0.0112445  )
        47           C   tau(  47) = (   0.5997224   0.3466907  -0.0122319  )
        48           C   tau(  48) = (   0.6007051   0.4622924  -0.0131632  )
        49           C   tau(  49) = (   0.5016045   0.5205557  -0.0108992  )
        50           C   tau(  50) = (   0.5001484   0.6360205  -0.0148896  )
        51           C   tau(  51) = (   0.3999649   0.6947398  -0.0129535  )
        52           C   tau(  52) = (   0.3991553   0.8094947  -0.0180473  )

   Crystallographic axes

     site n.     atom                  positions (cryst. coord.)
         1           H   tau(   1) = (  0.4507408  0.5492592  0.3229330  )
         2           H   tau(   2) = (  0.4865912  0.5134088  0.3384415  )
         3           C   tau(   3) = ( -0.0007236  0.0007236 -0.0274732  )
         4           C   tau(   4) = (  0.0652760  0.1334827 -0.0222460  )
         5           C   tau(   5) = ( -0.0005770  0.2008272 -0.0169302  )
         6           C   tau(   6) = (  0.0665482  0.3343233 -0.0054587  )
         7           C   tau(   7) = ( -0.0002476  0.4007641 -0.0077515  )
         8           C   tau(   8) = (  0.0669358  0.5339812 -0.0041865  )
         9           C   tau(   9) = (  0.0006046  0.6006469 -0.0137510  )
        10           C   tau(  10) = (  0.0665252  0.7338527 -0.0164380  )
        11           C   tau(  11) = (  0.0001195  0.8008214 -0.0237187  )
        12           C   tau(  12) = (  0.0659746  0.9340254 -0.0278478  )
        13           C   tau(  13) = (  0.1991786 -0.0001195 -0.0237187  )
        14           C   tau(  14) = (  0.2655868  0.1326450 -0.0183537  )
        15           C   tau(  15) = (  0.1977836  0.1989269 -0.0159671  )
        16           C   tau(  16) = (  0.2627203  0.3305663  0.0027941  )
        17           C   tau(  17) = (  0.1986879  0.4001769  0.0115943  )
        18           C   tau(  18) = (  0.2653657  0.5341163  0.0310661  )
        19           C   tau(  19) = (  0.1994501  0.6007705  0.0123224  )
        20           C   tau(  20) = (  0.2657278  0.7342722  0.0086890  )
        21           C   tau(  21) = (  0.1995270  0.8004730 -0.0087083  )
[...]
     atom   30 type  2   force =     0.50565202   -1.28021296   -0.02467250
     atom   31 type  2   force =     0.45679119   -0.50175681    0.54445045
     atom   32 type  2   force =     0.12632019   -0.22487459    0.83981109
     atom   33 type  2   force =     0.02390820   -0.25800994    0.69312913
     atom   34 type  2   force =    -0.07846177   -0.01353075    0.76739669
     atom   35 type  2   force =    -0.25481733    0.16726170    0.63028799
     atom   36 type  2   force =    -0.54095584    0.31232100    0.58856529
     atom   37 type  2   force =    -1.05061361    0.60657205    0.46383036
     atom   38 type  2   force =    -1.56201354    0.21847425    0.79241525
     atom   39 type  2   force =    -1.80461462   -1.49684453    1.52558594
     atom   40 type  2   force =    -0.35154865   -1.35797930    0.89132618
     atom   41 type  2   force =     0.14695467   -1.03218193    0.24939621
     atom   42 type  2   force =     0.01919168   -0.52798722    0.76595475
     atom   43 type  2   force =     0.03358010   -0.25777281    1.03240355
     atom   44 type  2   force =     0.06961164   -0.04019030    1.05022947
     atom   45 type  2   force =     0.00128873   -0.00074405    0.70507743
     atom   46 type  2   force =    -0.02751291    0.07471526    0.76739669
     atom   47 type  2   force =    -0.27226154    0.13704743    0.63028799
     atom   48 type  2   force =    -0.37141339    0.04526168    0.92383535
     atom   49 type  2   force =    -0.74741354   -0.17802419    0.90870593
     atom   50 type  2   force =    -0.43189107   -0.27094542    0.98535551
     atom   51 type  2   force =    -0.50368803   -0.50472643    1.27610105
     atom   52 type  2   force =    -0.07694520   -0.30079798    1.28655779
     The core correction contribution to forces
     atom    1 type  1   force =     0.00000000    0.00000000    0.00000000
     atom    2 type  1   force =     0.00000000    0.00000000    0.00000000
     atom    3 type  2   force =    -0.00009457    0.00005460    0.00017236
     atom    4 type  2   force =     0.00005666   -0.00007620    0.00020445
     atom    5 type  2   force =    -0.00008541   -0.00010715    0.00025642
     atom    6 type  2   force =     0.00014676    0.00018351   -0.00002860
     atom    7 type  2   force =    -0.00008689   -0.00003089    0.00022418
     atom    8 type  2   force =     0.00002938   -0.00003723    0.00022051
     atom    9 type  2   force =    -0.00000564   -0.00004766    0.00007271
     atom   10 type  2   force =     0.00004786   -0.00003237    0.00032106
     atom   11 type  2   force =    -0.00011773    0.00010472    0.00004663
     atom   12 type  2   force =    -0.00003052    0.00001762    0.00029357
     atom   13 type  2   force =    -0.00014955    0.00004960    0.00004663
     atom   14 type  2   force =     0.00002842   -0.00018214    0.00033282
     atom   15 type  2   force =    -0.00048914    0.00033764   -0.00007017
     atom   16 type  2   force =     0.00052719   -0.00012154   -0.00032634
     atom   17 type  2   force =    -0.00005088   -0.00019398    0.00039659
     atom   18 type  2   force =     0.00016616    0.00063238   -0.00086755
     atom   19 type  2   force =     0.00018758   -0.00020295   -0.00029584
     atom   20 type  2   force =    -0.00001777    0.00001026    0.00039272
     atom   21 type  2   force =     0.00013759   -0.00007944    0.00004786
     atom   22 type  2   force =     0.00005196   -0.00002527    0.00032106
     atom   23 type  2   force =     0.00003846    0.00002872    0.00007271
     atom   24 type  2   force =     0.00000278   -0.00005828    0.00006772
     atom   25 type  2   force =     0.00032598    0.00007895   -0.00018053
     atom   26 type  2   force =    -0.00064141   -0.00026884   -0.00151019
     atom   27 type  2   force =    -0.00055787    0.00642045    0.00246485
     atom   28 type  3   force =     0.00374668   -0.00216315    0.02884720
     atom   29 type  2   force =     0.00532399   -0.00307381    0.00288579
     atom   30 type  2   force =    -0.00046457   -0.00046009   -0.00086755
     atom   31 type  2   force =     0.00026955   -0.00006097   -0.00029584
     atom   32 type  2   force =     0.00004694   -0.00000683    0.00022051
     atom   33 type  2   force =    -0.00001669    0.00009070    0.00022418
     atom   34 type  2   force =     0.00014731    0.00010079   -0.00001868
     atom   35 type  2   force =     0.00013048   -0.00013075    0.00021943
     atom   36 type  2   force =    -0.00006244    0.00003605   -0.00011481
     atom   37 type  2   force =     0.00026154   -0.00015100   -0.00016498
     atom   38 type  2   force =    -0.00008788    0.00068990   -0.00151019
     atom   39 type  2   force =    -0.00583921   -0.00272709    0.00246485
     atom   40 type  2   force =     0.00036885   -0.00039579   -0.00032634
     atom   41 type  2   force =     0.00014255    0.00014105    0.00039659
     atom   42 type  2   force =    -0.00008554   -0.00021885   -0.00002860
     atom   43 type  2   force =     0.00005009    0.00012754    0.00025642
     atom   44 type  2   force =    -0.00019586    0.00011308    0.00008696
     atom   45 type  2   force =     0.00004018   -0.00002320    0.00031974
     atom   46 type  2   force =    -0.00001363   -0.00017797   -0.00001868
     atom   47 type  2   force =     0.00017847   -0.00004763    0.00021943
     atom   48 type  2   force =     0.00005186    0.00002673    0.00006772
     atom   49 type  2   force =     0.00009461   -0.00032179   -0.00018053
     atom   50 type  2   force =     0.00017195    0.00006645    0.00033282
     atom   51 type  2   force =    -0.00053697    0.00025479   -0.00007017
     atom   52 type  2   force =     0.00009432   -0.00001097    0.00020445
     The Hubbard contrib.    to forces
     atom    1 type  1   force =     0.00000000    0.00000000    0.00000000
     atom    2 type  1   force =     0.00000000    0.00000000    0.00000000
     atom    3 type  2   force =     0.00000000    0.00000000    0.00000000
     atom    4 type  2   force =     0.00000000    0.00000000    0.00000000
     atom    5 type  2   force =     0.00000000    0.00000000    0.00000000
     atom    6 type  2   force =     0.00000000    0.00000000    0.00000000
     atom    7 type  2   force =     0.00000000    0.00000000    0.00000000
     atom    8 type  2   force =     0.00000000    0.00000000    0.00000000
     atom    9 type  2   force =     0.00000000    0.00000000    0.00000000
     atom   10 type  2   force =     0.00000000    0.00000000    0.00000000
     atom   11 type  2   force =     0.00000000    0.00000000    0.00000000
     atom   12 type  2   force =     0.00000000    0.00000000    0.00000000
     atom   13 type  2   force =     0.00000000    0.00000000    0.00000000
     atom   14 type  2   force =     0.00000000    0.00000000    0.00000000
     atom   15 type  2   force =     0.00000000    0.00000000    0.00000000
     atom   16 type  2   force =     0.00000000    0.00000000    0.00000000
     atom   17 type  2   force =     0.00000000    0.00000000    0.00000000
     atom   18 type  2   force =     0.00000000    0.00000000    0.00000000
     atom   19 type  2   force =     0.00000000    0.00000000    0.00000000
     atom   20 type  2   force =     0.00000000    0.00000000    0.00000000
     atom   21 type  2   force =     0.00000000    0.00000000    0.00000000
     atom   22 type  2   force =     0.00000000    0.00000000    0.00000000
     atom   23 type  2   force =     0.00000000    0.00000000    0.00000000
     atom   24 type  2   force =     0.00000000    0.00000000    0.00000000
     atom   25 type  2   force =     0.00000000    0.00000000    0.00000000
     atom   26 type  2   force =     0.00000000    0.00000000    0.00000000
     atom   27 type  2   force =     0.00000000    0.00000000    0.00000000
     atom   28 type  3   force =     0.00000000    0.00000000    0.00000000
     atom   29 type  2   force =     0.00000000    0.00000000    0.00000000
     atom   30 type  2   force =     0.00000000    0.00000000    0.00000000
     atom   31 type  2   force =     0.00000000    0.00000000    0.00000000
     atom   32 type  2   force =     0.00000000    0.00000000    0.00000000
     atom   33 type  2   force =     0.00000000    0.00000000    0.00000000
     atom   34 type  2   force =     0.00000000    0.00000000    0.00000000
     atom   35 type  2   force =     0.00000000    0.00000000    0.00000000
     atom   36 type  2   force =     0.00000000    0.00000000    0.00000000
     atom   37 type  2   force =     0.00000000    0.00000000    0.00000000
     atom   38 type  2   force =     0.00000000    0.00000000    0.00000000
     atom   39 type  2   force =     0.00000000    0.00000000    0.00000000
     atom   40 type  2   force =     0.00000000    0.00000000    0.00000000
     atom   41 type  2   force =     0.00000000    0.00000000    0.00000000
     atom   42 type  2   force =     0.00000000    0.00000000    0.00000000
     atom   43 type  2   force =     0.00000000    0.00000000    0.00000000
     atom   44 type  2   force =     0.00000000    0.00000000    0.00000000
     atom   45 type  2   force =     0.00000000    0.00000000    0.00000000
     atom   46 type  2   force =     0.00000000    0.00000000    0.00000000
     atom   47 type  2   force =     0.00000000    0.00000000    0.00000000
     atom   48 type  2   force =     0.00000000    0.00000000    0.00000000
     atom   49 type  2   force =     0.00000000    0.00000000    0.00000000
     atom   50 type  2   force =     0.00000000    0.00000000    0.00000000
     atom   51 type  2   force =     0.00000000    0.00000000    0.00000000
     atom   52 type  2   force =     0.00000000    0.00000000    0.00000000
     The SCF correction term to forces
     atom    1 type  1   force =     0.00000008   -0.00000004    0.00000010
     atom    2 type  1   force =    -0.00000005    0.00000003    0.00000014
     atom    3 type  2   force =    -0.00000001    0.00000001    0.00000008
     atom    4 type  2   force =     0.00000007   -0.00000007    0.00000007
     atom    5 type  2   force =     0.00000000   -0.00000004    0.00000004
     atom    6 type  2   force =     0.00000002   -0.00000005   -0.00000001
     atom    7 type  2   force =    -0.00000008   -0.00000000   -0.00000001
     atom    8 type  2   force =    -0.00000005   -0.00000003   -0.00000000
     atom    9 type  2   force =    -0.00000008   -0.00000002   -0.00000002
     atom   10 type  2   force =    -0.00000006    0.00000004   -0.00000002
     atom   11 type  2   force =     0.00000005   -0.00000002    0.00000003
     atom   12 type  2   force =     0.00000005   -0.00000003    0.00000004
     atom   13 type  2   force =     0.00000004   -0.00000004    0.00000003
     atom   14 type  2   force =     0.00000004   -0.00000002    0.00000007
     atom   15 type  2   force =     0.00000006   -0.00000005    0.00000001
     atom   16 type  2   force =     0.00000011    0.00000000    0.00000013
     atom   17 type  2   force =     0.00000007   -0.00000009    0.00000003
     atom   18 type  2   force =     0.00000000   -0.00000003    0.00000005
     atom   19 type  2   force =    -0.00000006   -0.00000002   -0.00000000
     atom   20 type  2   force =    -0.00000017    0.00000010    0.00000006
     atom   21 type  2   force =    -0.00000005    0.00000003    0.00000006
     atom   22 type  2   force =    -0.00000006    0.00000003   -0.00000002
     atom   23 type  2   force =    -0.00000002    0.00000008   -0.00000002
     atom   24 type  2   force =    -0.00000004    0.00000001    0.00000009
     atom   25 type  2   force =    -0.00000003    0.00000004    0.00000003
     atom   26 type  2   force =     0.00000007    0.00000005    0.00000010
     atom   27 type  2   force =     0.00000008    0.00000020    0.00000035
     atom   28 type  3   force =     0.00000030   -0.00000017    0.00000102
     atom   29 type  2   force =     0.00000029   -0.00000017    0.00000016
     atom   30 type  2   force =     0.00000002    0.00000001    0.00000005
     atom   31 type  2   force =    -0.00000001    0.00000006   -0.00000000
     atom   32 type  2   force =     0.00000000    0.00000006   -0.00000000
     atom   33 type  2   force =    -0.00000003    0.00000007   -0.00000001
     atom   34 type  2   force =    -0.00000008   -0.00000002    0.00000004
     atom   35 type  2   force =    -0.00000006    0.00000003    0.00000009
     atom   36 type  2   force =    -0.00000004    0.00000002    0.00000011
     atom   37 type  2   force =    -0.00000006    0.00000003    0.00000005
     atom   38 type  2   force =    -0.00000001   -0.00000008    0.00000010
     atom   39 type  2   force =    -0.00000013   -0.00000017    0.00000035
     atom   40 type  2   force =     0.00000005   -0.00000010    0.00000013
     atom   41 type  2   force =     0.00000011   -0.00000002    0.00000003
     atom   42 type  2   force =     0.00000005    0.00000001   -0.00000001
     atom   43 type  2   force =     0.00000004    0.00000002    0.00000004
     atom   44 type  2   force =     0.00000008   -0.00000005    0.00000001
     atom   45 type  2   force =     0.00000001   -0.00000000    0.00000011
     atom   46 type  2   force =    -0.00000002    0.00000008    0.00000004
     atom   47 type  2   force =    -0.00000005    0.00000003    0.00000009
     atom   48 type  2   force =    -0.00000003    0.00000003    0.00000009
     atom   49 type  2   force =    -0.00000005    0.00000001    0.00000003
     atom   50 type  2   force =     0.00000004   -0.00000002    0.00000007
     atom   51 type  2   force =     0.00000008   -0.00000003    0.00000001
     atom   52 type  2   force =     0.00000009   -0.00000002    0.00000007

     Total force =     0.003460     Total SCF correction =     0.000001

     bfgs converged in  30 scf cycles and  29 bfgs steps
     (criteria: energy <  1.0E-04 Ry, force <  1.0E-03 Ry/Bohr)

     End of BFGS Geometry Optimization

     Final energy   =    -758.4220542823 Ry
Begin final coordinates

ATOMIC_POSITIONS (angstrom)
H        2.097869663   5.905494829   3.463854136
H        2.767412688   5.518933983   3.559152438
C       -0.001303634   0.000752653  -0.262366874
C       -0.007516892   1.419167256  -0.218848035
C       -1.236958967   2.135895869  -0.196900811
C       -1.234983884   3.559868746  -0.103829940
C       -2.468966021   4.270810888  -0.144218683
C       -2.465527623   5.692976935  -0.134386717
C       -3.694527618   6.406765620  -0.191675658
C       -3.696108707   7.828715217  -0.214970288
C       -4.929504069   8.541875972  -0.236247172
C       -4.932004928   9.964194817  -0.263179630
C        2.464253127  -0.001862234  -0.236247172
C        2.464128097   1.416114478  -0.154388626
C        1.221380747   2.121554370  -0.124712665
C        1.212370869   3.523629144   0.095073527
C       -0.012597274   4.262801788   0.086006718
C       -0.021668567   5.696688667   0.200940329
C       -1.239737046   6.405196272  -0.015343306
C       -1.236166083   7.830401265  -0.064062500
C       -2.462953029   8.538687037  -0.184849440
C       -2.464677235   9.961617092  -0.214970288
C        4.930801159  -0.003828038  -0.191675658
C        4.934617286   1.416938532  -0.156310836
C        3.702912658   2.119314279  -0.082412016
C        3.701730084   3.530892197   0.114958283
C        2.449454835   4.158134052   0.352354410
V        2.569999300   5.632910656   1.512776700
C        1.147509683   6.454185419   0.505609562
C        1.218931990   7.845471862   0.200940329
C       -0.003687836   8.546096305  -0.015343306
C        0.000216916   9.963771753  -0.134386717
C        7.393373016   0.002781852  -0.144218683
C        7.395077072   1.425142355  -0.178311651
C        6.163355835   2.134516405  -0.141263709
C        6.161464950   3.559376996  -0.082413610
C        4.935539152   4.267165585   0.072249337
C        4.956266077   5.703812276   0.114958283
C        3.786921071   6.474693527   0.352354410
C        3.717876458   7.863292122   0.095073527
C        2.465250098   8.554559330   0.086006718
C        2.462814665   9.964643710  -0.103829940
C        9.858267185   0.003289954  -0.196900811
C        9.856682480   1.425942161  -0.220760215
C        8.626179096   2.136373620  -0.194964192
C        8.626572428   3.558154881  -0.178311651
C        7.396375861   4.270169737  -0.141263709
C        7.403447254   5.693077472  -0.156310836
C        6.179319700   6.408577095  -0.082412016
C        6.168916312   7.832995898  -0.154388626
C        4.936613769   8.556526725  -0.124712665
C        4.930450033   9.971976857  -0.218848035
End final coordinates

     Writing output data file vanadio-top-2.1.save/

     General routines

     Parallel routines

   This run was terminated on:   4: 6:29  22Oct2022

   JOB DONE.