     Program PWSCF v.6.4.1 starts on 19Oct2022 at 21:18:24

     R & G space division:  proc/nbgrp/npool/nimage =       6
     Reading input from v-vcrelax.in

     Current dimensions of program PWSCF are:
     Max number of different atomic species (ntypx) = 10
     Max number of k-points (npk) =  40000
     Max angular momentum in pseudopotentials (lmaxx) =  3

     IMPORTANT: XC functional enforced from input :
     Exchange-correlation      = RVV10 ( 1  4 13  4 3 0)
     Any further DFT definition will be discarded
     Please, verify this is what you really want

               file H.pbe-rrkjus.UPF: wavefunction(s)  1S renormalized
               file V.pbe-spnl-rrkjus_psl.1.0.0.UPF: wavefunction(s)  3P 3D renormalized

     Subspace diagonalization in iterative solution of the eigenvalue problem:
     a serial algorithm will be used

     bravais-lattice index     =            4
     lattice parameter (alat)  =      23.2937  a.u.
     unit-cell volume          =    8879.8548 (a.u.)^3
     number of atoms/cell      =           52
     number of atomic types    =            3
     number of electrons       =       211.00
     number of Kohn-Sham states=          127
     kinetic-energy cutoff     =      70.0000  Ry
     charge density cutoff     =     490.0000  Ry
     convergence threshold     =      1.0E-10
     mixing beta               =       0.3000
     number of iterations used =            4  plain     mixing
     Exchange-correlation      = RVV10 ( 1  4 13  4 3 0)
     nstep                     =           50

     celldm(1)=  23.293684  celldm(2)=   0.000000  celldm(3)=   0.811261
     celldm(4)=   0.000000  celldm(5)=   0.000000  celldm(6)=   0.000000

     crystal axes: (cart. coord. in units of alat)
               a(1) = (   1.000000   0.000000   0.000000 )
               a(2) = (  -0.500000   0.866025   0.000000 )
               a(3) = (   0.000000   0.000000   0.811261 )

     reciprocal axes: (cart. coord. in units 2 pi/alat)
               b(1) = (  1.000000  0.577350 -0.000000 )
               b(2) = (  0.000000  1.154701  0.000000 )
               b(3) = (  0.000000 -0.000000  1.232649 )

     PseudoPot. # 1 for H  read from file:
     /home/cristian/Escritorio/Proyecto_Grafeno/pseudopotenciales/H.pbe-rrkjus.UPF
     MD5 check sum: 7cc9d459525c9a0585f487a71c3c9563
     Pseudo is Ultrasoft, Zval =  1.0
     Generated by new atomic code, or converted to UPF format
     Using radial grid of 1061 points,  2 beta functions with:
                l(1) =   0
                l(2) =   0
     Q(r) pseudized with 0 coefficients

     PseudoPot. # 2 for C  read from file:
     /home/cristian/Escritorio/Proyecto_Grafeno/pseudopotenciales/C.pbe-n-rrkjus_psl.1.0.0.UPF
     MD5 check sum: 1fdd950c42eb37d8afe3dd2f8d12311e
     Pseudo is Ultrasoft + core correction, Zval =  4.0
     Generated using "atomic" code by A. Dal Corso v.6.3MaX
     Using radial grid of 1073 points,  4 beta functions with:
                l(1) =   0
                l(2) =   0
                l(3) =   1
                l(4) =   1
     Q(r) pseudized with 0 coefficients

     PseudoPot. # 3 for V  read from file:
     /home/cristian/Escritorio/Proyecto_Grafeno/pseudopotenciales/V.pbe-spnl-rrkjus_psl.1.0.0.UPF
     MD5 check sum: 79b3eb63147daf0b665d9f1bcc691206
     Pseudo is Ultrasoft + core correction, Zval = 13.0
     Generated using "atomic" code by A. Dal Corso v.6.2.2
     Using radial grid of 1181 points,  6 beta functions with:
                l(1) =   0
                l(2) =   0
                l(3) =   1
                l(4) =   1
                l(5) =   2
                l(6) =   2
     Q(r) pseudized with 0 coefficients

     vdW kernel table read from file rVV10_kernel_table
     MD5 check sum: b8e2538accc0c0b3206b45ba4daaba6c

     atomic species   valence    mass     pseudopotential
        H              1.00     1.00794     H ( 1.00)
        C              4.00    12.01070     C ( 1.00)
        V             13.00    50.94150     V ( 1.00)

     Starting magnetic structure
     atomic species   magnetization
        H            0.500
        C            0.300
        V            0.800

      2 Sym. Ops. (no inversion) found

                                    s                        frac. trans.

      isym =  1     identity

 cryst.   s( 1) = (     1          0          0      )
                  (     0          1          0      )
                  (     0          0          1      )

 cart.    s( 1) = (  1.0000000  0.0000000  0.0000000 )
                  (  0.0000000  1.0000000  0.0000000 )
                  (  0.0000000  0.0000000  1.0000000 )

      isym =  2     inv. 180 deg rotation - cryst. axis [1,1,0]

 cryst.   s( 2) = (     0         -1          0      )
                  (    -1          0          0      )
                  (     0          0          1      )

 cart.    s( 2) = (  0.5000000 -0.8660254  0.0000000 )
                  ( -0.8660254 -0.5000000  0.0000000 )
                  (  0.0000000  0.0000000  1.0000000 )

     point group C_s (m)
     there are  2 classes
     the character table:

       E     s
A'     1.00  1.00
A''    1.00 -1.00

     the symmetry operations in each class and the name of the first element:

     E        1
          identity
     s        2
          inv. 180 deg rotation - cryst. axis [1,1,0]

   Cartesian axes

     site n.     atom                  positions (alat units)
         1           H   tau(   1) = (   0.2000000   0.4618802   0.1703648  )
         2           H   tau(   2) = (   0.2000000   0.4618802   0.2313775  )
         3           C   tau(   3) = (   0.0000000   0.0000000   0.0000000  )
         4           C   tau(   4) = (   0.0000000   0.1154701   0.0000000  )
         5           C   tau(   5) = (  -0.1000000   0.1732051   0.0000000  )
         6           C   tau(   6) = (  -0.1000000   0.2886751   0.0000000  )
         7           C   tau(   7) = (  -0.2000000   0.3464102   0.0000000  )
         8           C   tau(   8) = (  -0.2000000   0.4618802   0.0000000  )
         9           C   tau(   9) = (  -0.3000000   0.5196152   0.0000000  )
        10           C   tau(  10) = (  -0.3000000   0.6350853   0.0000000  )
        11           C   tau(  11) = (  -0.4000000   0.6928203   0.0000000  )
        12           C   tau(  12) = (  -0.4000000   0.8082904   0.0000000  )
        13           C   tau(  13) = (   0.2000000   0.0000000   0.0000000  )
        14           C   tau(  14) = (   0.2000000   0.1154701   0.0000000  )
        15           C   tau(  15) = (   0.1000000   0.1732051   0.0000000  )
        16           C   tau(  16) = (   0.1000000   0.2886751   0.0000000  )
        17           C   tau(  17) = (   0.0000000   0.3464102   0.0000000  )
        18           C   tau(  18) = (   0.0000000   0.4618802   0.0000000  )
        19           C   tau(  19) = (  -0.1000000   0.5196152   0.0000000  )
        20           C   tau(  20) = (  -0.1000000   0.6350853   0.0000000  )
        21           C   tau(  21) = (  -0.2000000   0.6928203   0.0000000  )
        22           C   tau(  22) = (  -0.2000000   0.8082904   0.0000000  )
        23           C   tau(  23) = (   0.4000000   0.0000000   0.0000000  )
        24           C   tau(  24) = (   0.4000000   0.1154701   0.0000000  )
        25           C   tau(  25) = (   0.3000000   0.1732051   0.0000000  )
        26           C   tau(  26) = (   0.3000000   0.2886751   0.0000000  )
        27           C   tau(  27) = (   0.2000000   0.3464102   0.0000000  )
        28           V   tau(  28) = (   0.2000000   0.4618802   0.0000000  )
        29           C   tau(  29) = (   0.1000000   0.5196152   0.0000000  )
        30           C   tau(  30) = (   0.1000000   0.6350853   0.0000000  )
        31           C   tau(  31) = (   0.0000000   0.6928203   0.0000000  )
        32           C   tau(  32) = (   0.0000000   0.8082904   0.0000000  )
        33           C   tau(  33) = (   0.6000000   0.0000000   0.0000000  )
        34           C   tau(  34) = (   0.6000000   0.1154701   0.0000000  )
        35           C   tau(  35) = (   0.5000000   0.1732051   0.0000000  )
        36           C   tau(  36) = (   0.5000000   0.2886751   0.0000000  )
        37           C   tau(  37) = (   0.4000000   0.3464102   0.0000000  )
        38           C   tau(  38) = (   0.4000000   0.4618802   0.0000000  )
        39           C   tau(  39) = (   0.3000000   0.5196152   0.0000000  )
        40           C   tau(  40) = (   0.3000000   0.6350853   0.0000000  )
        41           C   tau(  41) = (   0.2000000   0.6928203   0.0000000  )
        42           C   tau(  42) = (   0.2000000   0.8082904   0.0000000  )
        43           C   tau(  43) = (   0.8000000   0.0000000   0.0000000  )
        44           C   tau(  44) = (   0.8000000   0.1154701   0.0000000  )
        45           C   tau(  45) = (   0.7000000   0.1732051   0.0000000  )
        46           C   tau(  46) = (   0.7000000   0.2886751   0.0000000  )
        47           C   tau(  47) = (   0.6000000   0.3464102   0.0000000  )
        48           C   tau(  48) = (   0.6000000   0.4618802   0.0000000  )
        49           C   tau(  49) = (   0.5000000   0.5196152   0.0000000  )
        50           C   tau(  50) = (   0.5000000   0.6350853   0.0000000  )
        51           C   tau(  51) = (   0.4000000   0.6928203   0.0000000  )
        52           C   tau(  52) = (   0.4000000   0.8082904   0.0000000  )

   Crystallographic axes

     site n.     atom                  positions (cryst. coord.)
         1           H   tau(   1) = (  0.4666667  0.5333333  0.2100000  )
         2           H   tau(   2) = (  0.4666667  0.5333333  0.2852072  )
         3           C   tau(   3) = (  0.0000000  0.0000000  0.0000000  )
         4           C   tau(   4) = (  0.0666667  0.1333333  0.0000000  )
         5           C   tau(   5) = (  0.0000000  0.2000000  0.0000000  )
         6           C   tau(   6) = (  0.0666667  0.3333333  0.0000000  )
         7           C   tau(   7) = (  0.0000000  0.4000000  0.0000000  )
         8           C   tau(   8) = (  0.0666667  0.5333333  0.0000000  )
         9           C   tau(   9) = (  0.0000000  0.6000000  0.0000000  )
        10           C   tau(  10) = (  0.0666667  0.7333333  0.0000000  )
        11           C   tau(  11) = (  0.0000000  0.8000000  0.0000000  )
        12           C   tau(  12) = (  0.0666667  0.9333333  0.0000000  )
        13           C   tau(  13) = (  0.2000000  0.0000000  0.0000000  )
        14           C   tau(  14) = (  0.2666667  0.1333333  0.0000000  )
        15           C   tau(  15) = (  0.2000000  0.2000000  0.0000000  )
        16           C   tau(  16) = (  0.2666667  0.3333333  0.0000000  )
        17           C   tau(  17) = (  0.2000000  0.4000000  0.0000000  )
        18           C   tau(  18) = (  0.2666667  0.5333333  0.0000000  )
        19           C   tau(  19) = (  0.2000000  0.6000000  0.0000000  )
        20           C   tau(  20) = (  0.2666667  0.7333333  0.0000000  )
        21           C   tau(  21) = (  0.2000000  0.8000000  0.0000000  )
[...]
     atom   34 type  2   force =    -0.13823565    0.05647923    0.48204010
     atom   35 type  2   force =    -0.30072105    0.27728811    0.78262818
     atom   36 type  2   force =    -0.67496949    0.38969382    1.04696404
     atom   37 type  2   force =    -1.25776929    0.72617344    1.59709447
     atom   38 type  2   force =    -1.81485933    0.10916604    1.94872173
     atom   39 type  2   force =    -1.15329481   -1.89763547    3.52527414
     atom   40 type  2   force =    -0.14453289   -1.53081052    1.47632362
     atom   41 type  2   force =     0.32216347   -1.01886954    0.18822132
     atom   42 type  2   force =     0.04698321   -0.53265265    0.61174612
     atom   43 type  2   force =     0.09450524   -0.29118001    0.94276190
     atom   44 type  2   force =     0.05324647   -0.03074186    0.66982721
     atom   45 type  2   force =    -0.01922496    0.01109953    0.16888631
     atom   46 type  2   force =    -0.11803028    0.09147597    0.48204010
     atom   47 type  2   force =    -0.39049907    0.12178801    0.78262818
     atom   48 type  2   force =    -0.52847925    0.08192089    0.97266415
     atom   49 type  2   force =    -0.90548743   -0.26764711    1.12869740
     atom   50 type  2   force =    -0.45620674   -0.35885462    1.11834339
     atom   51 type  2   force =    -0.51502801   -0.58465178    1.45845302
     atom   52 type  2   force =    -0.04187149   -0.37296863    1.24368871
     The core correction contribution to forces
     atom    1 type  1   force =     0.00000000    0.00000000    0.00000000
     atom    2 type  1   force =     0.00000000    0.00000000    0.00000000
     atom    3 type  2   force =    -0.00015403    0.00008893    0.00016496
     atom    4 type  2   force =     0.00001958    0.00004105    0.00029786
     atom    5 type  2   force =     0.00002588   -0.00003383    0.00000710
     atom    6 type  2   force =     0.00010697    0.00033364    0.00008218
     atom    7 type  2   force =     0.00004052    0.00005889    0.00012351
     atom    8 type  2   force =     0.00010889   -0.00003405    0.00005136
     atom    9 type  2   force =    -0.00002674   -0.00005717    0.00010540
     atom   10 type  2   force =     0.00004426   -0.00003423    0.00014096
     atom   11 type  2   force =    -0.00016412    0.00014120    0.00005017
     atom   12 type  2   force =    -0.00010523    0.00006075    0.00029679
     atom   13 type  2   force =    -0.00020434    0.00007153    0.00005017
     atom   14 type  2   force =     0.00009795   -0.00024421    0.00035041
     atom   15 type  2   force =    -0.00064423    0.00017718   -0.00010045
     atom   16 type  2   force =     0.00015162   -0.00020605   -0.00023219
     atom   17 type  2   force =     0.00004614   -0.00007430    0.00042189
     atom   18 type  2   force =     0.00034315    0.00079306   -0.00058841
     atom   19 type  2   force =     0.00028699   -0.00014429   -0.00041247
     atom   20 type  2   force =    -0.00013865    0.00008005    0.00026233
     atom   21 type  2   force =     0.00005385   -0.00003109   -0.00002445
     atom   22 type  2   force =     0.00005177   -0.00002122    0.00014096
     atom   23 type  2   force =     0.00003614    0.00005174    0.00010540
     atom   24 type  2   force =    -0.00009958   -0.00013291    0.00003146
     atom   25 type  2   force =     0.00029657   -0.00011202    0.00009769
     atom   26 type  2   force =    -0.00061563   -0.00066351   -0.00177715
     atom   27 type  2   force =    -0.00069755    0.00640819    0.00219124
     atom   28 type  3   force =     0.00539675   -0.00311582    0.02582943
     atom   29 type  2   force =     0.00588472   -0.00339754    0.00301511
     atom   30 type  2   force =    -0.00051524   -0.00069371   -0.00058841
     atom   31 type  2   force =     0.00026846   -0.00017640   -0.00041247
     atom   32 type  2   force =     0.00008394   -0.00007728    0.00005136
     atom   33 type  2   force =    -0.00003074   -0.00006453    0.00012351
     atom   34 type  2   force =     0.00010929    0.00010371    0.00002661
     atom   35 type  2   force =     0.00027186   -0.00010431    0.00017119
     atom   36 type  2   force =     0.00007221   -0.00004169    0.00002820
     atom   37 type  2   force =     0.00033265   -0.00019205   -0.00057997
     atom   38 type  2   force =     0.00026680    0.00086491   -0.00177715
     atom   39 type  2   force =    -0.00589843   -0.00260000    0.00219124
     atom   40 type  2   force =     0.00025426   -0.00002828   -0.00023219
     atom   41 type  2   force =     0.00008741   -0.00000281    0.00042189
     atom   42 type  2   force =    -0.00023546   -0.00025946    0.00008218
     atom   43 type  2   force =     0.00004223   -0.00000549    0.00000710
     atom   44 type  2   force =    -0.00028006    0.00016170    0.00003733
     atom   45 type  2   force =     0.00008562   -0.00004943    0.00037118
     atom   46 type  2   force =    -0.00003517   -0.00014651    0.00002661
     atom   47 type  2   force =     0.00022626   -0.00018328    0.00017119
     atom   48 type  2   force =     0.00006531    0.00015270    0.00003146
     atom   49 type  2   force =     0.00024529   -0.00020083    0.00009769
     atom   50 type  2   force =     0.00026047    0.00003728    0.00035041
     atom   51 type  2   force =    -0.00047556    0.00046933   -0.00010045
     atom   52 type  2   force =    -0.00002576   -0.00003748    0.00029786
     The Hubbard contrib.    to forces
     atom    1 type  1   force =     0.00000000    0.00000000    0.00000000
     atom    2 type  1   force =     0.00000000    0.00000000    0.00000000
     atom    3 type  2   force =     0.00000000    0.00000000    0.00000000
     atom    4 type  2   force =     0.00000000    0.00000000    0.00000000
     atom    5 type  2   force =     0.00000000    0.00000000    0.00000000
     atom    6 type  2   force =     0.00000000    0.00000000    0.00000000
     atom    7 type  2   force =     0.00000000    0.00000000    0.00000000
     atom    8 type  2   force =     0.00000000    0.00000000    0.00000000
     atom    9 type  2   force =     0.00000000    0.00000000    0.00000000
     atom   10 type  2   force =     0.00000000    0.00000000    0.00000000
     atom   11 type  2   force =     0.00000000    0.00000000    0.00000000
     atom   12 type  2   force =     0.00000000    0.00000000    0.00000000
     atom   13 type  2   force =     0.00000000    0.00000000    0.00000000
     atom   14 type  2   force =     0.00000000    0.00000000    0.00000000
     atom   15 type  2   force =     0.00000000    0.00000000    0.00000000
     atom   16 type  2   force =     0.00000000    0.00000000    0.00000000
     atom   17 type  2   force =     0.00000000    0.00000000    0.00000000
     atom   18 type  2   force =     0.00000000    0.00000000    0.00000000
     atom   19 type  2   force =     0.00000000    0.00000000    0.00000000
     atom   20 type  2   force =     0.00000000    0.00000000    0.00000000
     atom   21 type  2   force =     0.00000000    0.00000000    0.00000000
     atom   22 type  2   force =     0.00000000    0.00000000    0.00000000
     atom   23 type  2   force =     0.00000000    0.00000000    0.00000000
     atom   24 type  2   force =     0.00000000    0.00000000    0.00000000
     atom   25 type  2   force =     0.00000000    0.00000000    0.00000000
     atom   26 type  2   force =     0.00000000    0.00000000    0.00000000
     atom   27 type  2   force =     0.00000000    0.00000000    0.00000000
     atom   28 type  3   force =     0.00000000    0.00000000    0.00000000
     atom   29 type  2   force =     0.00000000    0.00000000    0.00000000
     atom   30 type  2   force =     0.00000000    0.00000000    0.00000000
     atom   31 type  2   force =     0.00000000    0.00000000    0.00000000
     atom   32 type  2   force =     0.00000000    0.00000000    0.00000000
     atom   33 type  2   force =     0.00000000    0.00000000    0.00000000
     atom   34 type  2   force =     0.00000000    0.00000000    0.00000000
     atom   35 type  2   force =     0.00000000    0.00000000    0.00000000
     atom   36 type  2   force =     0.00000000    0.00000000    0.00000000
     atom   37 type  2   force =     0.00000000    0.00000000    0.00000000
     atom   38 type  2   force =     0.00000000    0.00000000    0.00000000
     atom   39 type  2   force =     0.00000000    0.00000000    0.00000000
     atom   40 type  2   force =     0.00000000    0.00000000    0.00000000
     atom   41 type  2   force =     0.00000000    0.00000000    0.00000000
     atom   42 type  2   force =     0.00000000    0.00000000    0.00000000
     atom   43 type  2   force =     0.00000000    0.00000000    0.00000000
     atom   44 type  2   force =     0.00000000    0.00000000    0.00000000
     atom   45 type  2   force =     0.00000000    0.00000000    0.00000000
     atom   46 type  2   force =     0.00000000    0.00000000    0.00000000
     atom   47 type  2   force =     0.00000000    0.00000000    0.00000000
     atom   48 type  2   force =     0.00000000    0.00000000    0.00000000
     atom   49 type  2   force =     0.00000000    0.00000000    0.00000000
     atom   50 type  2   force =     0.00000000    0.00000000    0.00000000
     atom   51 type  2   force =     0.00000000    0.00000000    0.00000000
     atom   52 type  2   force =     0.00000000    0.00000000    0.00000000
     The SCF correction term to forces
     atom    1 type  1   force =    -0.00000015    0.00000008   -0.00000070
     atom    2 type  1   force =     0.00000197   -0.00000115   -0.00000153
     atom    3 type  2   force =     0.00000003   -0.00000002    0.00000032
     atom    4 type  2   force =    -0.00000016   -0.00000016   -0.00000005
     atom    5 type  2   force =    -0.00000038   -0.00000022   -0.00000012
     atom    6 type  2   force =    -0.00000038   -0.00000010   -0.00000002
     atom    7 type  2   force =    -0.00000021   -0.00000015    0.00000002
     atom    8 type  2   force =    -0.00000020   -0.00000003    0.00000000
     atom    9 type  2   force =     0.00000024    0.00000001    0.00000013
     atom   10 type  2   force =     0.00000006    0.00000004   -0.00000011
     atom   11 type  2   force =     0.00000025    0.00000006   -0.00000015
     atom   12 type  2   force =     0.00000004   -0.00000002   -0.00000018
     atom   13 type  2   force =     0.00000007   -0.00000024   -0.00000015
     atom   14 type  2   force =     0.00000004   -0.00000051   -0.00000002
     atom   15 type  2   force =    -0.00000019   -0.00000049   -0.00000007
     atom   16 type  2   force =    -0.00000039   -0.00000063   -0.00000008
     atom   17 type  2   force =    -0.00000064   -0.00000033   -0.00000010
     atom   18 type  2   force =    -0.00000073    0.00000011    0.00000002
     atom   19 type  2   force =    -0.00000043    0.00000017   -0.00000011
     atom   20 type  2   force =    -0.00000029    0.00000017    0.00000001
     atom   21 type  2   force =    -0.00000015    0.00000009   -0.00000008
     atom   22 type  2   force =    -0.00000001   -0.00000007   -0.00000011
     atom   23 type  2   force =     0.00000011   -0.00000021    0.00000013
     atom   24 type  2   force =     0.00000013   -0.00000022   -0.00000003
     atom   25 type  2   force =     0.00000015   -0.00000048   -0.00000009
     atom   26 type  2   force =     0.00000042   -0.00000060   -0.00000012
     atom   27 type  2   force =    -0.00000008   -0.00000064   -0.00000003
     atom   28 type  3   force =     0.00000122   -0.00000072    0.00000211
     atom   29 type  2   force =    -0.00000066    0.00000038    0.00000022
     atom   30 type  2   force =    -0.00000046    0.00000058    0.00000002
     atom   31 type  2   force =    -0.00000036    0.00000029   -0.00000011
     atom   32 type  2   force =    -0.00000007    0.00000018    0.00000000
     atom   33 type  2   force =     0.00000003    0.00000025    0.00000002
     atom   34 type  2   force =     0.00000015   -0.00000002    0.00000007
     atom   35 type  2   force =     0.00000009   -0.00000020   -0.00000003
     atom   36 type  2   force =     0.00000031   -0.00000018   -0.00000020
     atom   37 type  2   force =     0.00000063   -0.00000036   -0.00000005
     atom   38 type  2   force =     0.00000073   -0.00000006   -0.00000011
     atom   39 type  2   force =     0.00000051    0.00000039   -0.00000003
     atom   40 type  2   force =     0.00000035    0.00000065   -0.00000008
     atom   41 type  2   force =    -0.00000004    0.00000072   -0.00000010
     atom   42 type  2   force =    -0.00000010    0.00000038   -0.00000002
     atom   43 type  2   force =     0.00000001    0.00000044   -0.00000012
     atom   44 type  2   force =    -0.00000010    0.00000006    0.00000002
     atom   45 type  2   force =     0.00000008   -0.00000004    0.00000007
     atom   46 type  2   force =     0.00000009   -0.00000012    0.00000007
     atom   47 type  2   force =     0.00000022    0.00000002   -0.00000003
     atom   48 type  2   force =     0.00000026   -0.00000000   -0.00000002
     atom   49 type  2   force =     0.00000049    0.00000011   -0.00000009
     atom   50 type  2   force =     0.00000046    0.00000022   -0.00000002
     atom   51 type  2   force =     0.00000033    0.00000041   -0.00000007
     atom   52 type  2   force =     0.00000006    0.00000022   -0.00000005

     Total force =     0.028792     Total SCF correction =     0.000005

     number of scf cycles    =  50
     number of bfgs steps    =  49

     energy   old            =    -758.4141022628 Ry
     energy   new            =    -758.4156168580 Ry

     CASE: energy  _new < energy  _old

     new trust radius        =       0.0507980896 bohr
     new conv_thr            =            1.1E-11 Ry

ATOMIC_POSITIONS (angstrom)
H        2.170831541   5.863370269   3.229329900
H        2.833696343   5.480665097   3.384414667
C       -0.013379632   0.007724734  -0.274732246
C       -0.018062962   1.424935058  -0.222459671
C       -1.244859230   2.143840093  -0.169301886
C       -1.240210866   3.568918301  -0.054587484
C       -2.473058487   4.278177032  -0.077515311
C       -2.465973107   5.700276012  -0.041865381
C       -3.694480194   6.411935997  -0.137509765
C       -3.702890499   7.833915019  -0.164380340
C       -4.934184737   8.548809232  -0.237187064
C       -4.943391443   9.970768824  -0.278477771
C        2.455908414  -0.001275287  -0.237187064
C        2.456228751   1.415991907  -0.183536587
C        1.211941390   2.123555004  -0.159670869
C        1.201057267   3.528812384   0.027940689
C       -0.017263394   4.271908649   0.115943385
C       -0.020861580   5.701718620   0.310660532
C       -1.244176037   6.413255062   0.123224417
C       -1.250008072   7.838392941   0.086890037
C       -2.474043228   8.545089967  -0.087083149
C       -2.472571292   9.964890395  -0.164380340
C        4.926347193  -0.006454297  -0.137509765
C        4.930540466   1.413272698  -0.162255940
C        3.697795243   2.112085790  -0.134348264
C        3.696112018   3.531894592  -0.016090338
C        2.446790017   4.165489126   0.171001875
V        2.715011807   5.549187646   1.384898818
C        1.166184639   6.443403428   0.610134218
C        1.214979416   7.842258014   0.310660532
C       -0.012886448   8.545911189   0.123224417
C       -0.006327013   9.960508015  -0.041865381
C        7.384947515   0.002642959  -0.077515311
C        7.388515308   1.425604615  -0.138605172
C        6.158538396   2.136244510  -0.150776171
C        6.158569815   3.561048503  -0.133809483
C        4.927976865   4.271531674  -0.050496347
C        4.952588944   5.708176467  -0.016090338
C        3.779218981   6.473323790   0.171001875
C        3.707730839   7.870498369   0.027940689
C        2.455030265   8.554046878   0.115943385
C        2.452364030   9.964645632  -0.054587484
C        9.847437153   0.006159671  -0.169301886
C        9.848765578   1.430512986  -0.173767330
C        8.620599641   2.139594920  -0.142590605
C        8.622891217   3.563606405  -0.138605172
C        7.392470559   4.273477709  -0.150776171
C        7.404583549   5.698441019  -0.162255940
C        6.183021047   6.416623151  -0.134348264
C        6.165072788   7.839898217  -0.183536587
C        4.930161491   8.563701131  -0.159670869
C        4.920181935   9.978226121  -0.222459671

     Writing output data file vanadio-top-2.1.save/
     NEW-OLD atomic charge density approx. for the potential

     Check: negative core charge=   -0.000002

     negative rho (up, down):  9.642E-04 7.067E-03

     Writing output data file vanadio-top-2.1.save/

     General routines

     Parallel routines

   This run was terminated on:   7:49:17  21Oct2022

   JOB DONE.