     Program PWSCF v.6.4.1 starts on  7Aug2022 at  5:39: 6

     R & G space division:  proc/nbgrp/npool/nimage =       6
     Reading input from mn-8.96.in

     Current dimensions of program PWSCF are:
     Max number of different atomic species (ntypx) = 10
     Max number of k-points (npk) =  40000
     Max angular momentum in pseudopotentials (lmaxx) =  3
               file Mn.pbe-spn-rrkjus_psl.0.3.1.UPF: wavefunction(s)  3D renormalized

     Subspace diagonalization in iterative solution of the eigenvalue problem:
     a serial algorithm will be used

     Message from routine setup:
     DEPRECATED: symmetry with ibrav=0, use correct ibrav instead

     bravais-lattice index     =            0
     lattice parameter (alat)  =      14.6635  a.u.
     unit-cell volume          =    2427.1166 (a.u.)^3
     number of atoms/cell      =           29
     number of atomic types    =            1
     number of electrons       =       435.00
     number of Kohn-Sham states=          262
     kinetic-energy cutoff     =      70.0000  Ry
     charge density cutoff     =     700.0000  Ry
     convergence threshold     =      1.0E-05
     mixing beta               =       0.7000
     number of iterations used =            8  plain     mixing
     Exchange-correlation      = PBE ( 1  4  3  4 0 0)

     celldm(1)=  14.663496  celldm(2)=   0.000000  celldm(3)=   0.000000
     celldm(4)=   0.000000  celldm(5)=   0.000000  celldm(6)=   0.000000

     crystal axes: (cart. coord. in units of alat)
               a(1) = (  -0.577350   0.577350   0.577350 )
               a(2) = (   0.577350  -0.577350   0.577350 )
               a(3) = (   0.577350   0.577350  -0.577350 )

     reciprocal axes: (cart. coord. in units 2 pi/alat)
               b(1) = (  0.000000  0.866025  0.866025 )
               b(2) = (  0.866025  0.000000  0.866025 )
               b(3) = (  0.866025  0.866025  0.000000 )

     PseudoPot. # 1 for Mn read from file:
     /home/cristian/Escritorio/Proyecto_Grafeno/pseudopotenciales/Mn.pbe-spn-rrkjus_psl.0.3.1.UPF
     MD5 check sum: e1cac159bdd2ba70c18e85765a5d4279
     Pseudo is Ultrasoft + core correction, Zval = 15.0
     Generated using "atomic" code by A. Dal Corso v.6.2.2
     Using radial grid of 1187 points,  6 beta functions with:
                l(1) =   0
                l(2) =   0
                l(3) =   1
                l(4) =   1
                l(5) =   2
                l(6) =   2
     Q(r) pseudized with 0 coefficients

     atomic species   valence    mass     pseudopotential
        Mn            15.00    54.93804     Mn( 1.00)

     Starting magnetic structure
     atomic species   magnetization
        Mn           0.700

     24 Sym. Ops. (no inversion) found

   Cartesian axes

     site n.     atom                  positions (alat units)
         1           Mn  tau(   1) = (   0.0000000   0.0000000   0.0000000  )
         2           Mn  tau(   2) = (   0.3670447   0.3670447   0.3670447  )
         3           Mn  tau(   3) = (   0.2103056   0.2103056  -0.2103056  )
         4           Mn  tau(   4) = (   0.2103056  -0.2103056   0.2103056  )
         5           Mn  tau(   5) = (  -0.2103056   0.2103056   0.2103056  )
         6           Mn  tau(   6) = (   0.4739122   0.4739122  -0.2517940  )
         7           Mn  tau(   7) = (   0.1034381   0.1034381   0.3255563  )
         8           Mn  tau(   8) = (   0.1034381  -0.1034381   0.8291443  )
         9           Mn  tau(   9) = (  -0.1034381   0.1034381   0.8291443  )
        10           Mn  tau(  10) = (  -0.2517940   0.4739122   0.4739122  )
        11           Mn  tau(  11) = (   0.3255563   0.1034381   0.1034381  )
        12           Mn  tau(  12) = (   0.8291443   0.1034381  -0.1034381  )
        13           Mn  tau(  13) = (   0.8291443  -0.1034381   0.1034381  )
        14           Mn  tau(  14) = (   0.4739122  -0.2517940   0.4739122  )
        15           Mn  tau(  15) = (   0.1034381   0.3255563   0.1034381  )
        16           Mn  tau(  16) = (  -0.1034381   0.8291443   0.1034381  )
        17           Mn  tau(  17) = (   0.1034381   0.8291443  -0.1034381  )
        18           Mn  tau(  18) = (   0.1650529   0.1650529   0.6172683  )
        19           Mn  tau(  19) = (   0.4122974   0.4122974   0.0399180  )
        20           Mn  tau(  20) = (  -0.1650529   0.1650529   0.5374323  )
        21           Mn  tau(  21) = (   0.1650529  -0.1650529   0.5374323  )
        22           Mn  tau(  22) = (   0.6172683   0.1650529   0.1650529  )
        23           Mn  tau(  23) = (   0.0399180   0.4122974   0.4122974  )
        24           Mn  tau(  24) = (   0.5374323  -0.1650529   0.1650529  )
        25           Mn  tau(  25) = (   0.5374323   0.1650529  -0.1650529  )
        26           Mn  tau(  26) = (   0.1650529   0.6172683   0.1650529  )
        27           Mn  tau(  27) = (   0.4122974   0.0399180   0.4122974  )
        28           Mn  tau(  28) = (   0.1650529   0.5374323  -0.1650529  )
        29           Mn  tau(  29) = (  -0.1650529   0.5374323   0.1650529  )

     number of k points=    10  Methfessel-Paxton smearing, width (Ry)=  0.0300
                       cart. coord. in units 2pi/alat
        k(    1) = (   0.0000000   0.0000000   0.0000000), wk =   0.0080000
        k(    2) = (   0.1732051   0.1732051   0.0000000), wk =   0.0960000
        k(    3) = (   0.3464102   0.3464102   0.0000000), wk =   0.0960000
        k(    4) = (   0.3464102   0.1732051   0.1732051), wk =   0.1920000
        k(    5) = (   0.5196152   0.3464102   0.1732051), wk =   0.1920000
        k(    6) = (   0.3464102   0.3464102   0.3464102), wk =   0.0640000
        k(    7) = (   0.0000000   0.0000000   0.3464102), wk =   0.0480000
        k(    8) = (   0.0000000  -0.1732051   0.5196152), wk =   0.1920000
        k(    9) = (  -0.6928203  -0.1732051  -0.1732051), wk =   0.0640000
        k(   10) = (   0.0000000   0.0000000   0.6928203), wk =   0.0480000

     Check: negative core charge=   -0.000005

     Initial potential from superposition of free atoms

     starting charge  434.98555, renormalised to  435.00000
     Starting wfcs are  290 randomized atomic wfcs

     Self-consistent Calculation

     iteration #  1     ecut=    70.00 Ry     beta= 0.70
     Davidson diagonalization with overlap
     ethr =  1.00E-02,  avg # of iterations =  3.1

     total energy              =   -6195.50331278 Ry
     Harris-Foulkes estimate   =   -6169.45104248 Ry
     estimated scf accuracy    <      36.33665549 Ry

     total magnetization       =    89.00 Bohr mag/cell
     absolute magnetization    =    96.38 Bohr mag/cell

[...]

     total energy              =   -6201.27305343 Ry
     Harris-Foulkes estimate   =   -6201.27307142 Ry
     estimated scf accuracy    <       0.00004525 Ry

[...]

     iteration # 56     ecut=    70.00 Ry     beta= 0.70
     Davidson diagonalization with overlap
     ethr =  9.60E-09,  avg # of iterations =  4.0

     Magnetic moment per site:
     atom:    1    charge:   12.6781    magn:    0.2018    constr:    0.0000
     atom:    2    charge:   12.7019    magn:   -3.0301    constr:    0.0000
     atom:    3    charge:   12.7019    magn:   -3.0301    constr:    0.0000
     atom:    4    charge:   12.7019    magn:   -3.0301    constr:    0.0000
     atom:    5    charge:   12.7019    magn:   -3.0301    constr:    0.0000
     atom:    6    charge:   12.8398    magn:   -0.9555    constr:    0.0000
     atom:    7    charge:   12.8398    magn:   -0.9555    constr:    0.0000
     atom:    8    charge:   12.8398    magn:   -0.9555    constr:    0.0000
     atom:    9    charge:   12.8398    magn:   -0.9555    constr:    0.0000
     atom:   10    charge:   12.8398    magn:   -0.9555    constr:    0.0000
     atom:   11    charge:   12.8398    magn:   -0.9555    constr:    0.0000
     atom:   12    charge:   12.8398    magn:   -0.9555    constr:    0.0000
     atom:   13    charge:   12.8398    magn:   -0.9555    constr:    0.0000
     atom:   14    charge:   12.8398    magn:   -0.9555    constr:    0.0000
     atom:   15    charge:   12.8398    magn:   -0.9555    constr:    0.0000
     atom:   16    charge:   12.8398    magn:   -0.9555    constr:    0.0000
     atom:   17    charge:   12.8398    magn:   -0.9555    constr:    0.0000
     atom:   18    charge:   12.7765    magn:    1.7038    constr:    0.0000
     atom:   19    charge:   12.7765    magn:    1.7038    constr:    0.0000
     atom:   20    charge:   12.7765    magn:    1.7038    constr:    0.0000
     atom:   21    charge:   12.7765    magn:    1.7038    constr:    0.0000
     atom:   22    charge:   12.7765    magn:    1.7038    constr:    0.0000
     atom:   23    charge:   12.7765    magn:    1.7038    constr:    0.0000
     atom:   24    charge:   12.7765    magn:    1.7038    constr:    0.0000
     atom:   25    charge:   12.7765    magn:    1.7038    constr:    0.0000
     atom:   26    charge:   12.7765    magn:    1.7038    constr:    0.0000
     atom:   27    charge:   12.7765    magn:    1.7038    constr:    0.0000
     atom:   28    charge:   12.7765    magn:    1.7038    constr:    0.0000
     atom:   29    charge:   12.7765    magn:    1.7038    constr:    0.0000

     End of self-consistent calculation

 ------ SPIN UP ------------

          k = 0.0000 0.0000 0.0000 ( 24103 PWs)   bands (ev):

   -63.1064 -63.0839 -63.0839 -63.0839 -63.0759 -63.0759 -63.0641 -63.0641
   -63.0641 -63.0622 -63.0622 -63.0622 -62.2374 -61.5148 -61.4928 -61.4928
   -61.4928 -61.4691 -61.4691 -61.4227 -61.4227 -61.4227 -61.3987 -61.3987
   -61.3987 -60.1798 -60.1798 -60.1798 -60.1796 -31.9303 -31.9303 -31.9303
   -31.9233 -31.9233 -31.9233 -31.9216 -31.9216 -31.8936 -31.8936 -31.8936
   -31.8581 -31.8581 -31.8556 -31.8291 -31.8220 -31.8220 -31.8220 -31.8219
   -31.8219 -31.7978 -31.7978 -31.7978 -31.7364 -31.7364 -31.7364 -31.7217
   -31.7217 -31.7217 -31.6469 -31.6469 -31.6469 -31.6352 -31.6227 -31.6227
   -31.6227 -30.9594 -30.9594 -30.9594 -30.6118 -30.5399 -30.5399 -30.5399
   -30.4778 -30.4778 -30.2876 -30.2841 -30.2841 -30.2841 -30.2596 -30.2596
   -30.2596 -30.2398 -30.2398 -30.2398 -30.2224 -30.2224 -30.1022 -30.1022
   -30.1022 -30.0738 -30.0725 -30.0725 -30.0725 -30.0667 -30.0667 -30.0617
   -30.0617 -30.0617 -30.0594 -30.0594 -30.0594 -30.0030 -30.0030 -30.0030
   -28.9934 -28.9934 -28.9934 -28.9923 -28.9923 -28.9917 -28.9917 -28.9917
   -28.9357 -28.9357 -28.9357 -28.9350   9.2152  12.3789  12.3789  12.3789
    12.5586  12.5676  12.5676  12.5676  12.6131  12.6131  12.6131  12.6718
    12.6718  13.3357  13.4073  13.4073  13.4073  13.4775  13.4775  13.6727
    13.6727  13.6727  13.8826  13.9057  13.9057  13.9057  14.0324  14.2373
    14.2373  14.2385  14.2385  14.2385  14.5000  14.5000  14.5000  14.5942
    14.5942  14.5942  14.5967  14.5967  14.5967  14.7163  14.7163  14.8024
    14.9685  14.9685  14.9685  15.0781  15.0781  15.0781  15.0949  15.0949
    15.0949  15.1077  15.2402  15.2402  15.2402  15.2933  15.2933  15.2933
    15.3463  15.3463  15.5147  15.5147  15.5371  15.5806  15.5806  15.5806
    15.6052  15.6052  15.6052  15.7144  15.7922  15.7922  15.7922  15.8487
    15.8487  15.9322  15.9322  15.9322  16.2255  16.2255  16.3475  16.3475
    16.3475  16.4202  16.4202  16.4202  16.6219  16.6219  16.6219  16.7329
    16.9043  16.9043  16.9966  16.9966  16.9966  17.1604  17.1604  17.2825
    17.2825  17.2825  17.3032  17.3032  17.3032  17.3092  17.3092  17.3092
    17.4638  17.4638  17.4638  17.5161  17.5161  17.5524  17.5524  17.5524
    17.7520  17.7520  17.8092  17.8092  17.8092  18.2211  18.2211  18.2211
    18.2346  18.2346  18.2346  18.2692  18.2692  18.4088  18.4088  18.4088
    18.5191  18.5229  18.5229  18.5229  18.5779  18.7798  18.7798  18.7798
    18.7968  18.7968  18.7968  18.9543  19.0284  19.0284

[...]

          k =-0.6928-0.1732-0.1732 ( 24013 PWs)   bands (ev):

[...]

 ------ SPIN DOWN ----------

[...]

          k =-0.6928-0.1732-0.1732 ( 24013 PWs)   bands (ev):

[...]

          k = 0.0000 0.0000 0.6928 ( 23970 PWs)   bands (ev):

   -63.8447 -63.8447 -63.8447 -63.8447 -62.6607 -62.6383 -62.6381 -62.6381
   -62.6159 -62.6158 -62.5707 -62.5707 -62.5707 -62.5475 -62.5475 -62.5475
   -62.0163 -61.0379 -61.0357 -61.0241 -61.0241 -61.0228 -61.0060 -61.0048
   -61.0040 -61.0040 -61.0020 -61.0020 -61.0020 -32.5779 -32.5778 -32.5778
   -32.5760 -32.5758 -32.5758 -32.5750 -32.5749 -32.5366 -32.5364 -32.5364
   -32.5338 -31.6087 -31.5445 -31.5439 -31.5439 -31.4921 -31.4917 -31.4898
   -31.4730 -31.4730 -31.4721 -31.4422 -31.4422 -31.4417 -31.4171 -31.4160
   -31.4160 -31.4135 -31.4123 -31.2868 -31.2868 -31.2863 -31.2807 -31.2807
   -31.2804 -31.2727 -31.2713 -31.2713 -31.2583 -31.2567 -31.2554 -31.0973
   -31.0973 -31.0971 -31.0202 -31.0201 -31.0201 -30.7277 -30.7277 -30.7277
   -29.9465 -29.8947 -29.8922 -29.8922 -29.8734 -29.8571 -29.8571 -29.8570
   -29.8391 -29.8379 -29.8151 -29.8151 -29.8151 -29.8025 -29.7938 -29.7852
   -29.7764 -29.7764 -29.7703 -29.7658 -29.7641 -29.7641 -29.7402 -29.7335
   -29.7335 -29.7241 -29.7064 -29.6909 -29.6909 -29.6878 -29.6790 -29.6775
   -29.6775 -29.6494 -29.6464 -29.6464  10.4588  11.0953  11.0953  11.2463
    11.2692  11.8033  12.7073  12.9645  13.0417  13.0417  13.1252  13.2177
    13.2686  13.2686  13.3643  13.3643  13.3851  13.3919  13.4326  13.4517
    13.4517  13.7822  13.8743  13.9927  13.9927  14.0612  14.0612  14.0677
    14.0725  14.1529  14.2061  14.2061  14.2448  14.3171  14.3510  14.4159
    14.4231  14.4231  14.4924  14.5437  14.5904  14.6952  14.6952  14.7470
    14.8093  14.8093  14.8582  14.8823  14.8833  14.8833  14.9705  15.0481
    15.0481  15.0881  15.1099  15.1224  15.1224  15.1380  15.2180  15.2783
    15.3685  15.3708  15.3708  15.4594  15.4594  15.4755  15.5475  15.5611
    15.6524  15.7142  15.7142  15.7651  15.7651  15.7794  15.7934  15.8004
    15.8154  16.0430  16.0430  16.1086  16.2080  16.2080  16.2443  16.2564
    16.2695  16.3577  16.3867  16.3867  16.4500  16.5197  16.5197  16.6008
    16.6018  16.7311  16.7325  16.7325  16.7929  16.7935  16.7935  16.9535
    17.0340  17.0862  17.1335  17.1335  17.1545  17.1920  17.1920  17.2871
    17.3223  17.5331  17.5756  17.5756  17.6387  17.6519  17.7389  17.7694
    17.7874  17.7874  17.9145  17.9145  17.9167  17.9457  17.9950  17.9992
    17.9992  18.0366  18.0973  18.2271  18.2271  18.2416  18.3396  18.3517
    18.3517  18.4877  18.4877  18.5115  18.5336  18.6066  18.6100  18.6100
    18.6877  18.6953  18.7180  18.7180  18.7339  18.8586

     the Fermi energy is    17.1457 ev

!    total energy              =   -6201.27307609 Ry
     Harris-Foulkes estimate   =   -6201.27307683 Ry
     estimated scf accuracy    <       0.00000456 Ry

     The total energy is the sum of the following terms:

     one-electron contribution =   -2663.81436037 Ry
     hartree contribution      =    1565.23866040 Ry
     xc contribution           =    -807.59943491 Ry
     ewald contribution        =   -4295.09826823 Ry
     smearing contrib. (-TS)   =       0.00032701 Ry

     total magnetization       =    -3.36 Bohr mag/cell
     absolute magnetization    =    48.56 Bohr mag/cell

     convergence has been achieved in  56 iterations

     Writing output data file mn-8.96.save/

     General routines

     Parallel routines

   This run was terminated on:  14:40: 7   7Aug2022

   JOB DONE.