     Program PWSCF v.6.4.1 starts on  6Aug2022 at 14: 5:14

     R & G space division:  proc/nbgrp/npool/nimage =       6
     Reading input from mn-8.86.in

     Current dimensions of program PWSCF are:
     Max number of different atomic species (ntypx) = 10
     Max number of k-points (npk) =  40000
     Max angular momentum in pseudopotentials (lmaxx) =  3
               file Mn.pbe-spn-rrkjus_psl.0.3.1.UPF: wavefunction(s)  3D renormalized

     Subspace diagonalization in iterative solution of the eigenvalue problem:
     a serial algorithm will be used

     Message from routine setup:
     DEPRECATED: symmetry with ibrav=0, use correct ibrav instead

     bravais-lattice index     =            0
     lattice parameter (alat)  =      14.4998  a.u.
     unit-cell volume          =    2346.7551 (a.u.)^3
     number of atoms/cell      =           29
     number of atomic types    =            1
     number of electrons       =       435.00
     number of Kohn-Sham states=          262
     kinetic-energy cutoff     =      70.0000  Ry
     charge density cutoff     =     700.0000  Ry
     convergence threshold     =      1.0E-05
     mixing beta               =       0.7000
     number of iterations used =            8  plain     mixing
     Exchange-correlation      = PBE ( 1  4  3  4 0 0)

     celldm(1)=  14.499840  celldm(2)=   0.000000  celldm(3)=   0.000000
     celldm(4)=   0.000000  celldm(5)=   0.000000  celldm(6)=   0.000000

     crystal axes: (cart. coord. in units of alat)
               a(1) = (  -0.577350   0.577350   0.577350 )
               a(2) = (   0.577350  -0.577350   0.577350 )
               a(3) = (   0.577350   0.577350  -0.577350 )

     reciprocal axes: (cart. coord. in units 2 pi/alat)
               b(1) = (  0.000000  0.866025  0.866025 )
               b(2) = (  0.866025  0.000000  0.866025 )
               b(3) = (  0.866025  0.866025  0.000000 )

     PseudoPot. # 1 for Mn read from file:
     /home/cristian/Escritorio/Proyecto_Grafeno/pseudopotenciales/Mn.pbe-spn-rrkjus_psl.0.3.1.UPF
     MD5 check sum: e1cac159bdd2ba70c18e85765a5d4279
     Pseudo is Ultrasoft + core correction, Zval = 15.0
     Generated using "atomic" code by A. Dal Corso v.6.2.2
     Using radial grid of 1187 points,  6 beta functions with:
                l(1) =   0
                l(2) =   0
                l(3) =   1
                l(4) =   1
                l(5) =   2
                l(6) =   2
     Q(r) pseudized with 0 coefficients

     atomic species   valence    mass     pseudopotential
        Mn            15.00    54.93804     Mn( 1.00)

     Starting magnetic structure
     atomic species   magnetization
        Mn           0.700

     24 Sym. Ops. (no inversion) found

   Cartesian axes

     site n.     atom                  positions (alat units)
         1           Mn  tau(   1) = (   0.0000000   0.0000000   0.0000000  )
         2           Mn  tau(   2) = (   0.3670447   0.3670447   0.3670447  )
         3           Mn  tau(   3) = (   0.2103056   0.2103056  -0.2103056  )
         4           Mn  tau(   4) = (   0.2103056  -0.2103056   0.2103056  )
         5           Mn  tau(   5) = (  -0.2103056   0.2103056   0.2103056  )
         6           Mn  tau(   6) = (   0.4739122   0.4739122  -0.2517940  )
         7           Mn  tau(   7) = (   0.1034381   0.1034381   0.3255563  )
         8           Mn  tau(   8) = (   0.1034381  -0.1034381   0.8291443  )
         9           Mn  tau(   9) = (  -0.1034381   0.1034381   0.8291443  )
        10           Mn  tau(  10) = (  -0.2517940   0.4739122   0.4739122  )
        11           Mn  tau(  11) = (   0.3255563   0.1034381   0.1034381  )
        12           Mn  tau(  12) = (   0.8291443   0.1034381  -0.1034381  )
        13           Mn  tau(  13) = (   0.8291443  -0.1034381   0.1034381  )
        14           Mn  tau(  14) = (   0.4739122  -0.2517940   0.4739122  )
        15           Mn  tau(  15) = (   0.1034381   0.3255563   0.1034381  )
        16           Mn  tau(  16) = (  -0.1034381   0.8291443   0.1034381  )
        17           Mn  tau(  17) = (   0.1034381   0.8291443  -0.1034381  )
        18           Mn  tau(  18) = (   0.1650529   0.1650529   0.6172683  )
        19           Mn  tau(  19) = (   0.4122974   0.4122974   0.0399180  )
        20           Mn  tau(  20) = (  -0.1650529   0.1650529   0.5374323  )
        21           Mn  tau(  21) = (   0.1650529  -0.1650529   0.5374323  )
        22           Mn  tau(  22) = (   0.6172683   0.1650529   0.1650529  )
        23           Mn  tau(  23) = (   0.0399180   0.4122974   0.4122974  )
        24           Mn  tau(  24) = (   0.5374323  -0.1650529   0.1650529  )
        25           Mn  tau(  25) = (   0.5374323   0.1650529  -0.1650529  )
        26           Mn  tau(  26) = (   0.1650529   0.6172683   0.1650529  )
        27           Mn  tau(  27) = (   0.4122974   0.0399180   0.4122974  )
        28           Mn  tau(  28) = (   0.1650529   0.5374323  -0.1650529  )
        29           Mn  tau(  29) = (  -0.1650529   0.5374323   0.1650529  )

     number of k points=    10  Methfessel-Paxton smearing, width (Ry)=  0.0300
                       cart. coord. in units 2pi/alat
        k(    1) = (   0.0000000   0.0000000   0.0000000), wk =   0.0080000
        k(    2) = (   0.1732051   0.1732051   0.0000000), wk =   0.0960000
        k(    3) = (   0.3464102   0.3464102   0.0000000), wk =   0.0960000
        k(    4) = (   0.3464102   0.1732051   0.1732051), wk =   0.1920000
        k(    5) = (   0.5196152   0.3464102   0.1732051), wk =   0.1920000
        k(    6) = (   0.3464102   0.3464102   0.3464102), wk =   0.0640000
        k(    7) = (   0.0000000   0.0000000   0.3464102), wk =   0.0480000
        k(    8) = (   0.0000000  -0.1732051   0.5196152), wk =   0.1920000
        k(    9) = (  -0.6928203  -0.1732051  -0.1732051), wk =   0.0640000
        k(   10) = (   0.0000000   0.0000000   0.6928203), wk =   0.0480000

     Check: negative core charge=   -0.000005

     Initial potential from superposition of free atoms

     starting charge  434.98555, renormalised to  435.00000
     Starting wfcs are  290 randomized atomic wfcs

     Self-consistent Calculation

     iteration #  1     ecut=    70.00 Ry     beta= 0.70
     Davidson diagonalization with overlap
     ethr =  1.00E-02,  avg # of iterations =  3.0

     total energy              =   -6195.37583361 Ry
     Harris-Foulkes estimate   =   -6169.18268968 Ry
     estimated scf accuracy    <      36.71045923 Ry

     total magnetization       =    89.00 Bohr mag/cell
     absolute magnetization    =    95.30 Bohr mag/cell

[...]

     total energy              =   -6201.39463324 Ry
     Harris-Foulkes estimate   =   -6201.39463442 Ry
     estimated scf accuracy    <       0.00002486 Ry

[...]

     iteration # 40     ecut=    70.00 Ry     beta= 0.70
     Davidson diagonalization with overlap
     ethr =  3.29E-09,  avg # of iterations =  3.2

     Magnetic moment per site:
     atom:    1    charge:   12.6498    magn:   -2.9954    constr:    0.0000
     atom:    2    charge:   12.6672    magn:   -2.8860    constr:    0.0000
     atom:    3    charge:   12.6672    magn:   -2.8860    constr:    0.0000
     atom:    4    charge:   12.6672    magn:   -2.8860    constr:    0.0000
     atom:    5    charge:   12.6672    magn:   -2.8860    constr:    0.0000
     atom:    6    charge:   12.8003    magn:   -0.6955    constr:    0.0000
     atom:    7    charge:   12.8003    magn:   -0.6955    constr:    0.0000
     atom:    8    charge:   12.8003    magn:   -0.6955    constr:    0.0000
     atom:    9    charge:   12.8003    magn:   -0.6955    constr:    0.0000
     atom:   10    charge:   12.8003    magn:   -0.6955    constr:    0.0000
     atom:   11    charge:   12.8003    magn:   -0.6955    constr:    0.0000
     atom:   12    charge:   12.8003    magn:   -0.6955    constr:    0.0000
     atom:   13    charge:   12.8003    magn:   -0.6955    constr:    0.0000
     atom:   14    charge:   12.8003    magn:   -0.6955    constr:    0.0000
     atom:   15    charge:   12.8003    magn:   -0.6955    constr:    0.0000
     atom:   16    charge:   12.8003    magn:   -0.6955    constr:    0.0000
     atom:   17    charge:   12.8003    magn:   -0.6955    constr:    0.0000
     atom:   18    charge:   12.7367    magn:    1.2450    constr:    0.0000
     atom:   19    charge:   12.7367    magn:    1.2450    constr:    0.0000
     atom:   20    charge:   12.7367    magn:    1.2450    constr:    0.0000
     atom:   21    charge:   12.7367    magn:    1.2450    constr:    0.0000
     atom:   22    charge:   12.7367    magn:    1.2450    constr:    0.0000
     atom:   23    charge:   12.7367    magn:    1.2450    constr:    0.0000
     atom:   24    charge:   12.7367    magn:    1.2450    constr:    0.0000
     atom:   25    charge:   12.7367    magn:    1.2450    constr:    0.0000
     atom:   26    charge:   12.7367    magn:    1.2450    constr:    0.0000
     atom:   27    charge:   12.7367    magn:    1.2450    constr:    0.0000
     atom:   28    charge:   12.7367    magn:    1.2450    constr:    0.0000
     atom:   29    charge:   12.7367    magn:    1.2450    constr:    0.0000

     End of self-consistent calculation

 ------ SPIN UP ------------

          k = 0.0000 0.0000 0.0000 ( 23215 PWs)   bands (ev):

   -62.2067 -62.1798 -62.1798 -62.1798 -62.1703 -62.1703 -62.1565 -62.1565
   -62.1565 -62.1545 -62.1545 -62.1545 -61.0475 -61.0233 -61.0233 -61.0233
   -60.9962 -60.9962 -60.9443 -60.9443 -60.9443 -60.9169 -60.9169 -60.9169
   -59.5459 -59.5459 -59.5459 -59.5457 -59.2989 -31.0381 -31.0381 -31.0381
   -31.0336 -31.0336 -31.0249 -31.0249 -31.0249 -30.9960 -30.9960 -30.9960
   -30.9668 -30.9668 -30.9625 -30.9416 -30.9416 -30.9403 -30.9403 -30.9403
   -30.9155 -30.8965 -30.8965 -30.8965 -30.8368 -30.8368 -30.8368 -30.8057
   -30.8057 -30.8057 -30.7525 -30.7525 -30.7525 -30.7426 -30.7249 -30.7249
   -30.7249 -30.1553 -30.0832 -30.0832 -30.0832 -30.0107 -30.0107 -29.8106
   -29.8106 -29.8106 -29.8075 -29.7973 -29.7973 -29.7973 -29.7784 -29.7784
   -29.7784 -29.7555 -29.7555 -29.6307 -29.6307 -29.6307 -29.6024 -29.5688
   -29.5688 -29.5625 -29.5625 -29.5625 -29.5619 -29.5619 -29.5619 -29.5554
   -29.5554 -29.5554 -29.4995 -29.4995 -29.4995 -28.3727 -28.3727 -28.3727
   -28.3714 -28.3714 -28.3711 -28.3711 -28.3711 -28.2824 -28.2824 -28.2824
   -28.2739 -28.0897 -28.0897 -28.0897   9.7788  13.0339  13.0339  13.0339
    13.1704  13.1704  13.1704  13.1981  13.2397  13.2397  13.2397  13.3244
    13.3244  13.9120  14.0330  14.0330  14.0330  14.1269  14.1269  14.3049
    14.3049  14.3049  14.4577  14.5803  14.5803  14.5803  14.7333  14.8438
    14.8438  14.8438  14.9057  14.9057  15.1376  15.1376  15.1376  15.2287
    15.2287  15.2287  15.3062  15.3062  15.3062  15.3515  15.4107  15.4107
    15.6075  15.6075  15.6075  15.7619  15.7619  15.7619  15.7676  15.7676
    15.7676  15.8718  15.8718  15.8718  15.9267  16.0007  16.0007  16.0088
    16.0088  16.0088  16.2572  16.2572  16.2572  16.2576  16.3778  16.3778
    16.3778  16.3974  16.4230  16.4230  16.5113  16.5113  16.5113  16.6289
    16.6289  16.6289  16.6695  16.6695  16.8343  16.8343  17.0885  17.0885
    17.0885  17.1937  17.1937  17.1937  17.4051  17.5101  17.5101  17.5101
    17.6368  17.6368  17.7706  17.7706  17.7706  17.8839  17.8839  17.8839
    17.8853  17.8853  18.1306  18.1306  18.1306  18.1796  18.1796  18.1796
    18.2764  18.2764  18.3069  18.3069  18.3069  18.5334  18.5334  18.5334
    18.6156  18.6156  18.6156  18.9044  18.9044  18.9044  18.9067  18.9067
    18.9067  18.9498  18.9498  19.0669  19.0669  19.0669  19.1232  19.1232
    19.1243  19.1613  19.1613  19.1613  19.3549  19.4876  19.4876  19.4876
    19.5550  19.6677  19.6677  19.6677  19.7578  19.7578

[...]

          k =-0.6928-0.1732-0.1732 ( 23164 PWs)   bands (ev):

[...]

 ------ SPIN DOWN ----------

[...]

          k =-0.6928-0.1732-0.1732 ( 23164 PWs)   bands (ev):

[...]

          k = 0.0000 0.0000 0.6928 ( 23234 PWs)   bands (ev):

   -63.0592 -63.0589 -63.0589 -63.0589 -62.9602 -61.8930 -61.8680 -61.8677
   -61.8677 -61.8426 -61.8424 -61.7912 -61.7912 -61.7912 -61.7644 -61.7644
   -61.7644 -60.6867 -60.6842 -60.6712 -60.6712 -60.6698 -60.6509 -60.6495
   -60.6487 -60.6487 -60.6463 -60.6463 -60.6463 -31.7876 -31.7876 -31.7876
   -31.7866 -31.7864 -31.7864 -31.7834 -31.7831 -31.7831 -31.7826 -31.7824
   -31.7726 -31.6684 -31.6683 -31.6683 -30.8844 -30.8125 -30.8113 -30.8113
   -30.7594 -30.7587 -30.7489 -30.7162 -30.7162 -30.7148 -30.6735 -30.6735
   -30.6726 -30.6482 -30.6471 -30.6440 -30.6440 -30.6426 -30.5126 -30.5126
   -30.5103 -30.5094 -30.5076 -30.5076 -30.4898 -30.4876 -30.4876 -30.4726
   -30.4705 -30.4675 -30.3225 -30.3225 -30.3220 -30.2335 -30.2333 -30.2333
   -29.6112 -29.5393 -29.5352 -29.5352 -29.4860 -29.4757 -29.4757 -29.4747
   -29.4532 -29.4518 -29.4457 -29.4391 -29.4369 -29.4304 -29.4304 -29.4138
   -29.4112 -29.4112 -29.4067 -29.3971 -29.3916 -29.3916 -29.3763 -29.3659
   -29.3656 -29.3656 -29.3421 -29.3189 -29.3189 -29.3182 -29.3120 -29.3114
   -29.3114 -29.2837 -29.2798 -29.2798  11.0291  11.7024  11.7024  11.7623
    11.8682  12.3922  13.2783  13.5162  13.6439  13.6439  13.6703  13.7394
    13.7394  13.7598  13.8993  13.9455  13.9455  13.9511  13.9693  14.0078
    14.0078  14.2211  14.3117  14.6023  14.6023  14.6358  14.6687  14.6968
    14.6968  14.7445  14.8018  14.8018  14.8328  14.9060  14.9802  14.9802
    15.0109  15.0285  15.0636  15.0785  15.1696  15.2399  15.2399  15.2939
    15.3306  15.3525  15.3525  15.4218  15.4218  15.4458  15.5094  15.5410
    15.5619  15.5619  15.5836  15.7796  15.7835  15.7835  15.7855  15.8756
    15.9700  15.9700  16.0035  16.0846  16.0846  16.0988  16.1888  16.2658
    16.3218  16.3358  16.3411  16.3601  16.3601  16.4447  16.4447  16.4763
    16.5086  16.5415  16.5415  16.6205  16.7254  16.7600  16.7600  16.8395
    16.8614  16.9502  17.0006  17.0006  17.0209  17.0844  17.0844  17.1032
    17.1703  17.2379  17.2978  17.3076  17.3076  17.3544  17.4010  17.4010
    17.4317  17.4670  17.5155  17.5155  17.7218  17.8117  17.8475  17.8612
    17.8612  17.9880  18.1425  18.1695  18.1695  18.1999  18.3109  18.3129
    18.3129  18.3129  18.4597  18.4751  18.4751  18.5678  18.6159  18.6217
    18.6217  18.6554  18.8271  18.8354  18.8439  18.8439  19.0324  19.0324
    19.0333  19.0820  19.0983  19.0983  19.1192  19.2157  19.2157  19.2200
    19.2363  19.2693  19.3167  19.3167  19.3261  19.4139

     the Fermi energy is    17.8077 ev

!    total energy              =   -6201.39463635 Ry
     Harris-Foulkes estimate   =   -6201.39463664 Ry
     estimated scf accuracy    <       0.00000478 Ry

     The total energy is the sum of the following terms:

     one-electron contribution =   -2587.43249142 Ry
     hartree contribution      =    1537.46392223 Ry
     xc contribution           =    -807.86510013 Ry
     ewald contribution        =   -4343.57567532 Ry
     smearing contrib. (-TS)   =       0.01470830 Ry

     total magnetization       =    -8.50 Bohr mag/cell
     absolute magnetization    =    41.65 Bohr mag/cell

     convergence has been achieved in  40 iterations

     Writing output data file mn-8.86.save/

     General routines

     Parallel routines

   This run was terminated on:  20:55:21   6Aug2022

   JOB DONE.