     Program PWSCF v.6.4.1 starts on  8Aug2022 at 15:18:38

     R & G space division:  proc/nbgrp/npool/nimage =       6
     Reading input from mn-8.61.in

     Current dimensions of program PWSCF are:
     Max number of different atomic species (ntypx) = 10
     Max number of k-points (npk) =  40000
     Max angular momentum in pseudopotentials (lmaxx) =  3
               file Mn.pbe-spn-rrkjus_psl.0.3.1.UPF: wavefunction(s)  3D renormalized

     Subspace diagonalization in iterative solution of the eigenvalue problem:
     a serial algorithm will be used

     Message from routine setup:
     DEPRECATED: symmetry with ibrav=0, use correct ibrav instead

     bravais-lattice index     =            0
     lattice parameter (alat)  =      14.0907  a.u.
     unit-cell volume          =    2153.6547 (a.u.)^3
     number of atoms/cell      =           29
     number of atomic types    =            1
     number of electrons       =       435.00
     number of Kohn-Sham states=          262
     kinetic-energy cutoff     =      70.0000  Ry
     charge density cutoff     =     700.0000  Ry
     convergence threshold     =      1.0E-06
     mixing beta               =       0.7000
     number of iterations used =            8  plain     mixing
     Exchange-correlation      = PBE ( 1  4  3  4 0 0)

     celldm(1)=  14.090703  celldm(2)=   0.000000  celldm(3)=   0.000000
     celldm(4)=   0.000000  celldm(5)=   0.000000  celldm(6)=   0.000000

     crystal axes: (cart. coord. in units of alat)
               a(1) = (  -0.577350   0.577350   0.577350 )
               a(2) = (   0.577350  -0.577350   0.577350 )
               a(3) = (   0.577350   0.577350  -0.577350 )

     reciprocal axes: (cart. coord. in units 2 pi/alat)
               b(1) = (  0.000000  0.866025  0.866025 )
               b(2) = (  0.866025  0.000000  0.866025 )
               b(3) = (  0.866025  0.866025  0.000000 )

     PseudoPot. # 1 for Mn read from file:
     /home/cristian/Escritorio/Proyecto_Grafeno/pseudopotenciales/Mn.pbe-spn-rrkjus_psl.0.3.1.UPF
     MD5 check sum: e1cac159bdd2ba70c18e85765a5d4279
     Pseudo is Ultrasoft + core correction, Zval = 15.0
     Generated using "atomic" code by A. Dal Corso v.6.2.2
     Using radial grid of 1187 points,  6 beta functions with:
                l(1) =   0
                l(2) =   0
                l(3) =   1
                l(4) =   1
                l(5) =   2
                l(6) =   2
     Q(r) pseudized with 0 coefficients

     atomic species   valence    mass     pseudopotential
        Mn            15.00    54.93804     Mn( 1.00)

     Starting magnetic structure
     atomic species   magnetization
        Mn           0.700

     24 Sym. Ops. (no inversion) found

   Cartesian axes

     site n.     atom                  positions (alat units)
         1           Mn  tau(   1) = (   0.0000000   0.0000000   0.0000000  )
         2           Mn  tau(   2) = (   0.3670447   0.3670447   0.3670447  )
         3           Mn  tau(   3) = (   0.2103056   0.2103056  -0.2103056  )
         4           Mn  tau(   4) = (   0.2103056  -0.2103056   0.2103056  )
         5           Mn  tau(   5) = (  -0.2103056   0.2103056   0.2103056  )
         6           Mn  tau(   6) = (   0.4739122   0.4739122  -0.2517940  )
         7           Mn  tau(   7) = (   0.1034381   0.1034381   0.3255563  )
         8           Mn  tau(   8) = (   0.1034381  -0.1034381   0.8291443  )
         9           Mn  tau(   9) = (  -0.1034381   0.1034381   0.8291443  )
        10           Mn  tau(  10) = (  -0.2517940   0.4739122   0.4739122  )
        11           Mn  tau(  11) = (   0.3255563   0.1034381   0.1034381  )
        12           Mn  tau(  12) = (   0.8291443   0.1034381  -0.1034381  )
        13           Mn  tau(  13) = (   0.8291443  -0.1034381   0.1034381  )
        14           Mn  tau(  14) = (   0.4739122  -0.2517940   0.4739122  )
        15           Mn  tau(  15) = (   0.1034381   0.3255563   0.1034381  )
        16           Mn  tau(  16) = (  -0.1034381   0.8291443   0.1034381  )
        17           Mn  tau(  17) = (   0.1034381   0.8291443  -0.1034381  )
        18           Mn  tau(  18) = (   0.1650529   0.1650529   0.6172683  )
        19           Mn  tau(  19) = (   0.4122974   0.4122974   0.0399180  )
        20           Mn  tau(  20) = (  -0.1650529   0.1650529   0.5374323  )
        21           Mn  tau(  21) = (   0.1650529  -0.1650529   0.5374323  )
        22           Mn  tau(  22) = (   0.6172683   0.1650529   0.1650529  )
        23           Mn  tau(  23) = (   0.0399180   0.4122974   0.4122974  )
        24           Mn  tau(  24) = (   0.5374323  -0.1650529   0.1650529  )
        25           Mn  tau(  25) = (   0.5374323   0.1650529  -0.1650529  )
        26           Mn  tau(  26) = (   0.1650529   0.6172683   0.1650529  )
        27           Mn  tau(  27) = (   0.4122974   0.0399180   0.4122974  )
        28           Mn  tau(  28) = (   0.1650529   0.5374323  -0.1650529  )
        29           Mn  tau(  29) = (  -0.1650529   0.5374323   0.1650529  )

     number of k points=    10  Methfessel-Paxton smearing, width (Ry)=  0.0300
                       cart. coord. in units 2pi/alat
        k(    1) = (   0.0000000   0.0000000   0.0000000), wk =   0.0080000
        k(    2) = (   0.1732051   0.1732051   0.0000000), wk =   0.0960000
        k(    3) = (   0.3464102   0.3464102   0.0000000), wk =   0.0960000
        k(    4) = (   0.3464102   0.1732051   0.1732051), wk =   0.1920000
        k(    5) = (   0.5196152   0.3464102   0.1732051), wk =   0.1920000
        k(    6) = (   0.3464102   0.3464102   0.3464102), wk =   0.0640000
        k(    7) = (   0.0000000   0.0000000   0.3464102), wk =   0.0480000
        k(    8) = (   0.0000000  -0.1732051   0.5196152), wk =   0.1920000
        k(    9) = (  -0.6928203  -0.1732051  -0.1732051), wk =   0.0640000
        k(   10) = (   0.0000000   0.0000000   0.6928203), wk =   0.0480000

     Check: negative core charge=   -0.000005

     Initial potential from superposition of free atoms

     starting charge  434.98555, renormalised to  435.00000
     Starting wfcs are  290 randomized atomic wfcs

     Self-consistent Calculation

     iteration #  1     ecut=    70.00 Ry     beta= 0.70
     Davidson diagonalization with overlap
     ethr =  1.00E-02,  avg # of iterations =  3.0

     total energy              =   -6194.83920963 Ry
     Harris-Foulkes estimate   =   -6168.29726560 Ry
     estimated scf accuracy    <      37.59305457 Ry

     total magnetization       =    89.00 Bohr mag/cell
     absolute magnetization    =    92.98 Bohr mag/cell

[...]

     iteration # 21     ecut=    70.00 Ry     beta= 0.70
     Davidson diagonalization with overlap
     c_bands:  1 eigenvalues not converged
     ethr =  7.45E-07,  avg # of iterations =  4.4

[...]

     total energy              =   -6201.45945902 Ry
     Harris-Foulkes estimate   =   -6201.45945913 Ry
     estimated scf accuracy    <       0.00000310 Ry

[...]

     iteration # 32     ecut=    70.00 Ry     beta= 0.70
     Davidson diagonalization with overlap
     ethr =  2.31E-10,  avg # of iterations =  3.5

     Magnetic moment per site:
     atom:    1    charge:   12.5473    magn:   -2.6113    constr:    0.0000
     atom:    2    charge:   12.5677    magn:   -2.2616    constr:    0.0000
     atom:    3    charge:   12.5677    magn:   -2.2616    constr:    0.0000
     atom:    4    charge:   12.5677    magn:   -2.2616    constr:    0.0000
     atom:    5    charge:   12.5677    magn:   -2.2616    constr:    0.0000
     atom:    6    charge:   12.6996    magn:   -0.2239    constr:    0.0000
     atom:    7    charge:   12.6996    magn:   -0.2239    constr:    0.0000
     atom:    8    charge:   12.6996    magn:   -0.2239    constr:    0.0000
     atom:    9    charge:   12.6996    magn:   -0.2239    constr:    0.0000
     atom:   10    charge:   12.6996    magn:   -0.2239    constr:    0.0000
     atom:   11    charge:   12.6996    magn:   -0.2239    constr:    0.0000
     atom:   12    charge:   12.6996    magn:   -0.2239    constr:    0.0000
     atom:   13    charge:   12.6996    magn:   -0.2239    constr:    0.0000
     atom:   14    charge:   12.6996    magn:   -0.2239    constr:    0.0000
     atom:   15    charge:   12.6996    magn:   -0.2239    constr:    0.0000
     atom:   16    charge:   12.6996    magn:   -0.2239    constr:    0.0000
     atom:   17    charge:   12.6996    magn:   -0.2239    constr:    0.0000
     atom:   18    charge:   12.6384    magn:    0.4528    constr:    0.0000
     atom:   19    charge:   12.6384    magn:    0.4528    constr:    0.0000
     atom:   20    charge:   12.6384    magn:    0.4528    constr:    0.0000
     atom:   21    charge:   12.6384    magn:    0.4528    constr:    0.0000
     atom:   22    charge:   12.6384    magn:    0.4528    constr:    0.0000
     atom:   23    charge:   12.6384    magn:    0.4528    constr:    0.0000
     atom:   24    charge:   12.6384    magn:    0.4528    constr:    0.0000
     atom:   25    charge:   12.6384    magn:    0.4528    constr:    0.0000
     atom:   26    charge:   12.6384    magn:    0.4528    constr:    0.0000
     atom:   27    charge:   12.6384    magn:    0.4528    constr:    0.0000
     atom:   28    charge:   12.6384    magn:    0.4528    constr:    0.0000
     atom:   29    charge:   12.6384    magn:    0.4528    constr:    0.0000

     End of self-consistent calculation

 ------ SPIN UP ------------

          k = 0.0000 0.0000 0.0000 ( 21217 PWs)   bands (ev):

   -59.9613 -59.9119 -59.9119 -59.9119 -59.8968 -59.8968 -59.8760 -59.8760
   -59.8760 -59.8734 -59.8734 -59.8734 -59.5765 -59.5550 -59.5550 -59.5550
   -59.5170 -59.5170 -59.4487 -59.4487 -59.4487 -59.4089 -59.4089 -59.4089
   -58.1233 -58.1233 -58.1233 -58.1229 -57.8048 -28.8963 -28.8867 -28.8867
   -28.8729 -28.8729 -28.8729 -28.8212 -28.8212 -28.8212 -28.8133 -28.8133
   -28.8133 -28.8126 -28.8126 -28.7421 -28.7421 -28.7421 -28.7359 -28.7359
   -28.7359 -28.7123 -28.7123 -28.6938 -28.6215 -28.6215 -28.6215 -28.6023
   -28.6023 -28.6023 -28.5526 -28.5526 -28.5526 -28.5474 -28.5009 -28.5009
   -28.4966 -28.4966 -28.4966 -28.4922 -28.4725 -28.4725 -28.4725 -28.3182
   -28.3038 -28.3038 -28.3038 -28.2820 -28.2820 -28.2820 -28.2804 -28.2804
   -28.2604 -28.2604 -28.2604 -28.1344 -28.1344 -28.1344 -28.1174 -28.0156
   -28.0156 -28.0156 -28.0154 -28.0154 -28.0134 -28.0134 -28.0134 -27.9653
   -27.9653 -27.9653 -27.9022 -27.9022 -27.9022 -26.9338 -26.9338 -26.9338
   -26.9329 -26.9329 -26.9329 -26.9324 -26.9324 -26.8513 -26.8513 -26.8513
   -26.8397 -26.5884 -26.5884 -26.5884  11.2916  14.7252  14.7252  14.7252
    14.7731  14.7731  14.7731  14.7937  14.9110  14.9110  14.9110  15.0040
    15.0040  15.3634  15.5870  15.5870  15.5870  15.6763  15.6763  15.8623
    15.8623  15.8623  15.9007  16.2656  16.2656  16.2656  16.3414  16.3414
    16.3414  16.4621  16.5731  16.5731  16.6745  16.6745  16.6745  16.7043
    16.7043  16.7043  16.8231  17.0806  17.0806  17.0806  17.1276  17.1276
    17.1813  17.1813  17.1813  17.4138  17.4138  17.4138  17.4264  17.4264
    17.4264  17.4856  17.4856  17.5504  17.5504  17.5504  17.8306  17.8306
    17.8306  17.9269  18.0355  18.0355  18.0355  18.1392  18.1650  18.1650
    18.2044  18.2044  18.2044  18.2376  18.3032  18.3032  18.3032  18.4406
    18.4406  18.4406  18.5257  18.5257  18.6558  18.6558  18.9431  18.9431
    18.9431  19.2736  19.2736  19.2736  19.2891  19.4085  19.4085  19.4394
    19.4394  19.4394  19.5379  19.5379  19.5379  19.6407  19.6407  19.6407
    19.7367  19.7367  20.0400  20.0400  20.0400  20.1687  20.1687  20.1687
    20.2613  20.2613  20.2866  20.2866  20.2866  20.3768  20.3768  20.3768
    20.6583  20.6583  20.6583  20.7468  20.7468  20.8257  20.8257  20.8257
    20.8850  20.8850  20.8850  20.9049  20.9049  20.9049  20.9065  21.0205
    21.0205  21.0987  21.0987  21.0987  21.2520  21.3477  21.4277  21.4277
    21.4277  21.4452  21.4452  21.4452  21.5509  21.5509

[...]

          k =-0.6928-0.1732-0.1732 ( 21264 PWs)   bands (ev):

[...]

 ------ SPIN DOWN ----------

[...]

          k =-0.6928-0.1732-0.1732 ( 21264 PWs)   bands (ev):

[...]

          k = 0.0000 0.0000 0.6928 ( 21342 PWs)   bands (ev):

   -61.0315 -60.9126 -60.9126 -60.9126 -60.9120 -59.8747 -59.8426 -59.8409
   -59.8409 -59.8100 -59.8085 -59.7377 -59.7375 -59.7375 -59.6973 -59.6972
   -59.6972 -59.3666 -59.3636 -59.3471 -59.3471 -59.3456 -59.3227 -59.3206
   -59.3194 -59.3194 -59.3154 -59.3154 -59.3153 -29.7836 -29.7836 -29.7834
   -29.6752 -29.6579 -29.6575 -29.6575 -29.6392 -29.6386 -29.6386 -29.6312
   -29.6304 -29.6304 -29.6291 -29.6285 -28.9967 -28.9044 -28.9004 -28.9004
   -28.8357 -28.8356 -28.8334 -28.7697 -28.7697 -28.7647 -28.6915 -28.6915
   -28.6864 -28.6810 -28.6800 -28.6577 -28.6577 -28.6569 -28.5598 -28.5598
   -28.5581 -28.5433 -28.5361 -28.5361 -28.5259 -28.4383 -28.4323 -28.4323
   -28.4271 -28.4229 -28.2964 -28.2964 -28.2915 -28.2285 -28.2016 -28.1891
   -28.1891 -28.1777 -28.1759 -28.1759 -28.1416 -28.0986 -28.0965 -28.0681
   -28.0681 -28.0676 -28.0631 -28.0629 -28.0576 -28.0351 -28.0351 -28.0255
   -28.0255 -28.0249 -28.0197 -28.0194 -28.0183 -28.0183 -28.0128 -28.0124
   -27.9719 -27.9719 -27.9665 -27.9552 -27.9548 -27.9548 -27.9284 -27.9284
   -27.9282 -27.9027 -27.8960 -27.8960  12.6334  13.3585  13.3585  13.3772
    13.4819  14.0382  14.8563  15.1233  15.1467  15.2645  15.2645  15.2946
    15.2946  15.3359  15.4327  15.4980  15.4980  15.5038  15.5062  15.5710
    15.5710  15.7985  15.8727  16.1674  16.2066  16.2606  16.2606  16.3525
    16.3525  16.3768  16.3972  16.4313  16.4313  16.4715  16.6774  16.6780
    16.6861  16.6861  16.7811  16.7889  16.7889  16.8101  16.8509  16.8523
    16.8923  16.8923  16.9065  16.9982  16.9982  17.0170  17.1277  17.1659
    17.2380  17.2645  17.2645  17.4248  17.5314  17.5580  17.5580  17.6071
    17.6071  17.6531  17.7397  17.8044  17.8370  17.8370  17.9165  18.0891
    18.0938  18.0938  18.1221  18.1259  18.1658  18.2239  18.2239  18.2736
    18.3112  18.3112  18.3234  18.3797  18.5208  18.5358  18.5358  18.5644
    18.5740  18.5835  18.6958  18.7248  18.7248  18.8575  18.8854  18.8854
    19.0068  19.1312  19.1809  19.1809  19.2107  19.2158  19.2622  19.2622
    19.2726  19.3434  19.4351  19.4351  19.4427  19.5612  19.6332  19.6484
    19.6484  19.7020  19.8814  19.8814  19.8979  19.9409  20.0558  20.0562
    20.1005  20.1005  20.1814  20.3340  20.3340  20.4579  20.4715  20.4743
    20.4743  20.6160  20.7032  20.7092  20.7092  20.7371  20.8990  20.8990
    20.9261  20.9386  20.9827  20.9981  20.9981  21.0400  21.0515  21.1018
    21.1018  21.2359  21.2359  21.2506  21.2845  21.2845

     the Fermi energy is    19.6280 ev

!    total energy              =   -6201.45945923 Ry
     Harris-Foulkes estimate   =   -6201.45945933 Ry
     estimated scf accuracy    <       0.00000052 Ry

     The total energy is the sum of the following terms:

     one-electron contribution =   -2390.21280894 Ry
     hartree contribution      =    1467.29050666 Ry
     xc contribution           =    -808.84572857 Ry
     ewald contribution        =   -4469.69575881 Ry
     smearing contrib. (-TS)   =       0.00433043 Ry

     total magnetization       =    -9.40 Bohr mag/cell
     absolute magnetization    =    22.18 Bohr mag/cell

     convergence has been achieved in  32 iterations

     Writing output data file mn-8.61.save/

     General routines

     Parallel routines

   This run was terminated on:  20:21: 4   8Aug2022

   JOB DONE.