     Program PWSCF v.6.4.1 starts on  8Aug2022 at 20:21: 4

     R & G space division:  proc/nbgrp/npool/nimage =       6
     Reading input from mn-8.66.in

     Current dimensions of program PWSCF are:
     Max number of different atomic species (ntypx) = 10
     Max number of k-points (npk) =  40000
     Max angular momentum in pseudopotentials (lmaxx) =  3
               file Mn.pbe-spn-rrkjus_psl.0.3.1.UPF: wavefunction(s)  3D renormalized

     Subspace diagonalization in iterative solution of the eigenvalue problem:
     a serial algorithm will be used

     Message from routine setup:
     DEPRECATED: symmetry with ibrav=0, use correct ibrav instead

     bravais-lattice index     =            0
     lattice parameter (alat)  =      14.1725  a.u.
     unit-cell volume          =    2191.3931 (a.u.)^3
     number of atoms/cell      =           29
     number of atomic types    =            1
     number of electrons       =       435.00
     number of Kohn-Sham states=          262
     kinetic-energy cutoff     =      70.0000  Ry
     charge density cutoff     =     700.0000  Ry
     convergence threshold     =      1.0E-06
     mixing beta               =       0.7000
     number of iterations used =            8  plain     mixing
     Exchange-correlation      = PBE ( 1  4  3  4 0 0)

     celldm(1)=  14.172530  celldm(2)=   0.000000  celldm(3)=   0.000000
     celldm(4)=   0.000000  celldm(5)=   0.000000  celldm(6)=   0.000000

     crystal axes: (cart. coord. in units of alat)
               a(1) = (  -0.577350   0.577350   0.577350 )
               a(2) = (   0.577350  -0.577350   0.577350 )
               a(3) = (   0.577350   0.577350  -0.577350 )

     reciprocal axes: (cart. coord. in units 2 pi/alat)
               b(1) = (  0.000000  0.866025  0.866025 )
               b(2) = (  0.866025  0.000000  0.866025 )
               b(3) = (  0.866025  0.866025  0.000000 )

     PseudoPot. # 1 for Mn read from file:
     /home/cristian/Escritorio/Proyecto_Grafeno/pseudopotenciales/Mn.pbe-spn-rrkjus_psl.0.3.1.UPF
     MD5 check sum: e1cac159bdd2ba70c18e85765a5d4279
     Pseudo is Ultrasoft + core correction, Zval = 15.0
     Generated using "atomic" code by A. Dal Corso v.6.2.2
     Using radial grid of 1187 points,  6 beta functions with:
                l(1) =   0
                l(2) =   0
                l(3) =   1
                l(4) =   1
                l(5) =   2
                l(6) =   2
     Q(r) pseudized with 0 coefficients

     atomic species   valence    mass     pseudopotential
        Mn            15.00    54.93804     Mn( 1.00)

     Starting magnetic structure
     atomic species   magnetization
        Mn           0.700

     24 Sym. Ops. (no inversion) found

   Cartesian axes

     site n.     atom                  positions (alat units)
         1           Mn  tau(   1) = (   0.0000000   0.0000000   0.0000000  )
         2           Mn  tau(   2) = (   0.3670447   0.3670447   0.3670447  )
         3           Mn  tau(   3) = (   0.2103056   0.2103056  -0.2103056  )
         4           Mn  tau(   4) = (   0.2103056  -0.2103056   0.2103056  )
         5           Mn  tau(   5) = (  -0.2103056   0.2103056   0.2103056  )
         6           Mn  tau(   6) = (   0.4739122   0.4739122  -0.2517940  )
         7           Mn  tau(   7) = (   0.1034381   0.1034381   0.3255563  )
         8           Mn  tau(   8) = (   0.1034381  -0.1034381   0.8291443  )
         9           Mn  tau(   9) = (  -0.1034381   0.1034381   0.8291443  )
        10           Mn  tau(  10) = (  -0.2517940   0.4739122   0.4739122  )
        11           Mn  tau(  11) = (   0.3255563   0.1034381   0.1034381  )
        12           Mn  tau(  12) = (   0.8291443   0.1034381  -0.1034381  )
        13           Mn  tau(  13) = (   0.8291443  -0.1034381   0.1034381  )
        14           Mn  tau(  14) = (   0.4739122  -0.2517940   0.4739122  )
        15           Mn  tau(  15) = (   0.1034381   0.3255563   0.1034381  )
        16           Mn  tau(  16) = (  -0.1034381   0.8291443   0.1034381  )
        17           Mn  tau(  17) = (   0.1034381   0.8291443  -0.1034381  )
        18           Mn  tau(  18) = (   0.1650529   0.1650529   0.6172683  )
        19           Mn  tau(  19) = (   0.4122974   0.4122974   0.0399180  )
        20           Mn  tau(  20) = (  -0.1650529   0.1650529   0.5374323  )
        21           Mn  tau(  21) = (   0.1650529  -0.1650529   0.5374323  )
        22           Mn  tau(  22) = (   0.6172683   0.1650529   0.1650529  )
        23           Mn  tau(  23) = (   0.0399180   0.4122974   0.4122974  )
        24           Mn  tau(  24) = (   0.5374323  -0.1650529   0.1650529  )
        25           Mn  tau(  25) = (   0.5374323   0.1650529  -0.1650529  )
        26           Mn  tau(  26) = (   0.1650529   0.6172683   0.1650529  )
        27           Mn  tau(  27) = (   0.4122974   0.0399180   0.4122974  )
        28           Mn  tau(  28) = (   0.1650529   0.5374323  -0.1650529  )
        29           Mn  tau(  29) = (  -0.1650529   0.5374323   0.1650529  )

     number of k points=    10  Methfessel-Paxton smearing, width (Ry)=  0.0300
                       cart. coord. in units 2pi/alat
        k(    1) = (   0.0000000   0.0000000   0.0000000), wk =   0.0080000
        k(    2) = (   0.1732051   0.1732051   0.0000000), wk =   0.0960000
        k(    3) = (   0.3464102   0.3464102   0.0000000), wk =   0.0960000
        k(    4) = (   0.3464102   0.1732051   0.1732051), wk =   0.1920000
        k(    5) = (   0.5196152   0.3464102   0.1732051), wk =   0.1920000
        k(    6) = (   0.3464102   0.3464102   0.3464102), wk =   0.0640000
        k(    7) = (   0.0000000   0.0000000   0.3464102), wk =   0.0480000
        k(    8) = (   0.0000000  -0.1732051   0.5196152), wk =   0.1920000
        k(    9) = (  -0.6928203  -0.1732051  -0.1732051), wk =   0.0640000
        k(   10) = (   0.0000000   0.0000000   0.6928203), wk =   0.0480000

     Check: negative core charge=   -0.000005

     Initial potential from superposition of free atoms

     starting charge  434.98555, renormalised to  435.00000
     Starting wfcs are  290 randomized atomic wfcs

     Self-consistent Calculation

     iteration #  1     ecut=    70.00 Ry     beta= 0.70
     Davidson diagonalization with overlap
     ethr =  1.00E-02,  avg # of iterations =  3.0

     total energy              =   -6194.97283734 Ry
     Harris-Foulkes estimate   =   -6168.50191341 Ry
     estimated scf accuracy    <      37.42099284 Ry

     total magnetization       =    89.00 Bohr mag/cell
     absolute magnetization    =    93.41 Bohr mag/cell

[...]

     total energy              =   -6201.46220786 Ry
     Harris-Foulkes estimate   =   -6201.46220760 Ry
     estimated scf accuracy    <       0.00000105 Ry

[...]

     iteration # 34     ecut=    70.00 Ry     beta= 0.70
     Davidson diagonalization with overlap
     ethr =  2.42E-10,  avg # of iterations =  4.2

     Magnetic moment per site:
     atom:    1    charge:   12.5678    magn:   -2.7165    constr:    0.0000
     atom:    2    charge:   12.5880    magn:   -2.4128    constr:    0.0000
     atom:    3    charge:   12.5880    magn:   -2.4128    constr:    0.0000
     atom:    4    charge:   12.5880    magn:   -2.4128    constr:    0.0000
     atom:    5    charge:   12.5880    magn:   -2.4128    constr:    0.0000
     atom:    6    charge:   12.7195    magn:   -0.2911    constr:    0.0000
     atom:    7    charge:   12.7195    magn:   -0.2911    constr:    0.0000
     atom:    8    charge:   12.7195    magn:   -0.2911    constr:    0.0000
     atom:    9    charge:   12.7195    magn:   -0.2911    constr:    0.0000
     atom:   10    charge:   12.7195    magn:   -0.2911    constr:    0.0000
     atom:   11    charge:   12.7195    magn:   -0.2911    constr:    0.0000
     atom:   12    charge:   12.7195    magn:   -0.2911    constr:    0.0000
     atom:   13    charge:   12.7195    magn:   -0.2911    constr:    0.0000
     atom:   14    charge:   12.7195    magn:   -0.2911    constr:    0.0000
     atom:   15    charge:   12.7195    magn:   -0.2911    constr:    0.0000
     atom:   16    charge:   12.7195    magn:   -0.2911    constr:    0.0000
     atom:   17    charge:   12.7195    magn:   -0.2911    constr:    0.0000
     atom:   18    charge:   12.6582    magn:    0.5705    constr:    0.0000
     atom:   19    charge:   12.6582    magn:    0.5705    constr:    0.0000
     atom:   20    charge:   12.6582    magn:    0.5705    constr:    0.0000
     atom:   21    charge:   12.6582    magn:    0.5705    constr:    0.0000
     atom:   22    charge:   12.6582    magn:    0.5705    constr:    0.0000
     atom:   23    charge:   12.6582    magn:    0.5705    constr:    0.0000
     atom:   24    charge:   12.6582    magn:    0.5705    constr:    0.0000
     atom:   25    charge:   12.6582    magn:    0.5705    constr:    0.0000
     atom:   26    charge:   12.6582    magn:    0.5705    constr:    0.0000
     atom:   27    charge:   12.6582    magn:    0.5705    constr:    0.0000
     atom:   28    charge:   12.6582    magn:    0.5705    constr:    0.0000
     atom:   29    charge:   12.6582    magn:    0.5705    constr:    0.0000

     End of self-consistent calculation

 ------ SPIN UP ------------

          k = 0.0000 0.0000 0.0000 ( 21769 PWs)   bands (ev):

   -60.4055 -60.3634 -60.3634 -60.3634 -60.3495 -60.3495 -60.3305 -60.3305
   -60.3305 -60.3280 -60.3280 -60.3280 -59.9148 -59.8907 -59.8907 -59.8907
   -59.8552 -59.8552 -59.7903 -59.7903 -59.7903 -59.7536 -59.7536 -59.7536
   -58.4060 -58.4060 -58.4060 -58.4057 -58.1087 -29.3043 -29.3043 -29.2919
   -29.2919 -29.2919 -29.2677 -29.2516 -29.2516 -29.2516 -29.2391 -29.2391
   -29.2391 -29.2289 -29.2289 -29.1741 -29.1741 -29.1741 -29.1564 -29.1564
   -29.1454 -29.1454 -29.1454 -29.1231 -29.0528 -29.0528 -29.0528 -28.9945
   -28.9945 -28.9945 -28.9481 -28.9481 -28.9481 -28.9480 -28.9480 -28.9480
   -28.9440 -28.9429 -28.9209 -28.9209 -28.9209 -28.8501 -28.8501 -28.6666
   -28.6562 -28.6562 -28.6562 -28.6353 -28.6353 -28.6353 -28.6273 -28.6273
   -28.6273 -28.6224 -28.6224 -28.4804 -28.4804 -28.4804 -28.4590 -28.3725
   -28.3725 -28.3685 -28.3685 -28.3685 -28.3667 -28.3667 -28.3667 -28.3290
   -28.3290 -28.3290 -28.2648 -28.2648 -28.2648 -27.2220 -27.2220 -27.2220
   -27.2209 -27.2209 -27.2209 -27.2206 -27.2206 -27.1347 -27.1347 -27.1347
   -27.1236 -26.8944 -26.8944 -26.8944  10.9726  14.3769  14.3769  14.3769
    14.4385  14.4385  14.4385  14.4611  14.5584  14.5584  14.5584  14.6554
    14.6554  15.0607  15.2690  15.2690  15.2690  15.3610  15.3610  15.5447
    15.5447  15.5447  15.5970  15.9234  15.9234  15.9234  16.0250  16.0250
    16.0250  16.1160  16.2327  16.2327  16.3695  16.3695  16.3695  16.3820
    16.3820  16.3820  16.5093  16.7212  16.7212  16.7212  16.7775  16.7775
    16.8551  16.8551  16.8551  17.0694  17.0694  17.0694  17.0899  17.0899
    17.0899  17.1653  17.1653  17.1995  17.1995  17.1995  17.4572  17.4572
    17.4572  17.5305  17.6709  17.6709  17.6709  17.7508  17.8152  17.8152
    17.8303  17.8303  17.8303  17.8580  17.9285  17.9285  17.9285  18.0648
    18.0648  18.0648  18.1529  18.1529  18.2635  18.2635  18.5546  18.5546
    18.5546  18.8488  18.8488  18.8488  18.8909  19.0292  19.0292  19.0560
    19.0560  19.0560  19.1725  19.1725  19.1725  19.2566  19.2566  19.2566
    19.3534  19.3534  19.6880  19.6880  19.6880  19.7544  19.7544  19.7544
    19.8457  19.8457  19.8614  19.8614  19.8614  19.9947  19.9947  19.9947
    20.2711  20.2711  20.2711  20.3647  20.3647  20.3647  20.3796  20.3796
    20.4565  20.4565  20.4565  20.5084  20.5084  20.5084  20.5138  20.6031
    20.6031  20.6717  20.6717  20.6717  20.8674  20.9496  21.0214  21.0214
    21.0214  21.0652  21.0652  21.0652  21.1866  21.1866

[...]

          k =-0.6928-0.1732-0.1732 ( 21684 PWs)   bands (ev):

[...]

 ------ SPIN DOWN ----------

[...]

          k =-0.6928-0.1732-0.1732 ( 21684 PWs)   bands (ev):

[...]

          k = 0.0000 0.0000 0.6928 ( 21694 PWs)   bands (ev):

   -61.4582 -61.3732 -61.3732 -61.3732 -61.3725 -60.2886 -60.2576 -60.2565
   -60.2565 -60.2261 -60.2252 -60.1588 -60.1587 -60.1587 -60.1220 -60.1220
   -60.1220 -59.6778 -59.6749 -59.6590 -59.6590 -59.6573 -59.6348 -59.6329
   -59.6318 -59.6318 -59.6283 -59.6283 -59.6283 -30.2109 -30.2109 -30.2107
   -30.1270 -30.1064 -30.1060 -30.1060 -30.0973 -30.0969 -30.0969 -30.0902
   -30.0894 -30.0894 -30.0892 -30.0885 -29.3838 -29.2952 -29.2921 -29.2921
   -29.2291 -29.2278 -29.2208 -29.1642 -29.1642 -29.1602 -29.0928 -29.0928
   -29.0893 -29.0772 -29.0764 -29.0590 -29.0590 -29.0579 -28.9473 -28.9473
   -28.9447 -28.9347 -28.9290 -28.9290 -28.8946 -28.8509 -28.8507 -28.8507
   -28.8434 -28.8414 -28.7073 -28.7073 -28.7043 -28.5959 -28.5896 -28.5896
   -28.5739 -28.5190 -28.5082 -28.5082 -28.4496 -28.4187 -28.4151 -28.4068
   -28.4068 -28.4010 -28.3991 -28.3874 -28.3845 -28.3607 -28.3607 -28.3531
   -28.3531 -28.3509 -28.3466 -28.3460 -28.3460 -28.3449 -28.3366 -28.3338
   -28.3068 -28.3068 -28.2959 -28.2768 -28.2763 -28.2763 -28.2571 -28.2571
   -28.2570 -28.2310 -28.2248 -28.2248  12.2933  13.0085  13.0085  13.0323
    13.1423  13.6907  14.5268  14.7938  14.8315  14.9304  14.9304  14.9616
    14.9616  15.0071  15.1109  15.1721  15.1722  15.1722  15.1846  15.2423
    15.2423  15.4676  15.5452  15.8544  15.8948  15.9137  15.9137  16.0102
    16.0102  16.0510  16.0520  16.0920  16.0920  16.1429  16.3228  16.3238
    16.3303  16.3303  16.4407  16.4558  16.4558  16.4582  16.4902  16.4908
    16.5630  16.5630  16.5630  16.6641  16.6641  16.6731  16.7924  16.8294
    16.8788  16.9076  16.9076  17.0806  17.1663  17.1934  17.1934  17.2560
    17.2560  17.2807  17.3809  17.4410  17.4662  17.4662  17.5544  17.7214
    17.7283  17.7283  17.7481  17.7489  17.7761  17.8544  17.8544  17.8936
    17.9374  17.9374  17.9572  17.9922  18.1541  18.1541  18.1580  18.1768
    18.1982  18.2480  18.3464  18.3677  18.3677  18.4555  18.4912  18.4912
    18.6144  18.7259  18.7810  18.7810  18.8032  18.8361  18.8561  18.8595
    18.8595  18.9411  19.0235  19.0235  19.0613  19.2108  19.2408  19.2772
    19.2772  19.3139  19.4977  19.4977  19.5128  19.5580  19.6684  19.6750
    19.7136  19.7136  19.7941  19.9284  19.9284  20.0566  20.0699  20.0699
    20.0814  20.1868  20.2883  20.3147  20.3147  20.3470  20.4868  20.4868
    20.5197  20.5287  20.5776  20.5947  20.5947  20.6314  20.6514  20.6923
    20.6923  20.8235  20.8250  20.8250  20.8592  20.8592

     the Fermi energy is    19.2413 ev

!    total energy              =   -6201.46220886 Ry
     Harris-Foulkes estimate   =   -6201.46220874 Ry
     estimated scf accuracy    <       0.00000055 Ry

     The total energy is the sum of the following terms:

     one-electron contribution =   -2430.29431140 Ry
     hartree contribution      =    1481.26837804 Ry
     xc contribution           =    -808.55424579 Ry
     ewald contribution        =   -4443.88920131 Ry
     smearing contrib. (-TS)   =       0.00717160 Ry

     total magnetization       =    -9.53 Bohr mag/cell
     absolute magnetization    =    25.34 Bohr mag/cell

     convergence has been achieved in  34 iterations

     Writing output data file mn-8.66.save/

     General routines

     Parallel routines

   This run was terminated on:   1:47:19   9Aug2022

   JOB DONE.