     Program PWSCF v.6.4.1 starts on  6Aug2022 at  7:26:18

     R & G space division:  proc/nbgrp/npool/nimage =       6
     Reading input from mn-8.81.in

     Current dimensions of program PWSCF are:
     Max number of different atomic species (ntypx) = 10
     Max number of k-points (npk) =  40000
     Max angular momentum in pseudopotentials (lmaxx) =  3
               file Mn.pbe-spn-rrkjus_psl.0.3.1.UPF: wavefunction(s)  3D renormalized

     Subspace diagonalization in iterative solution of the eigenvalue problem:
     a serial algorithm will be used

     Message from routine setup:
     DEPRECATED: symmetry with ibrav=0, use correct ibrav instead

     bravais-lattice index     =            0
     lattice parameter (alat)  =      14.4180  a.u.
     unit-cell volume          =    2307.2483 (a.u.)^3
     number of atoms/cell      =           29
     number of atomic types    =            1
     number of electrons       =       435.00
     number of Kohn-Sham states=          262
     kinetic-energy cutoff     =      70.0000  Ry
     charge density cutoff     =     700.0000  Ry
     convergence threshold     =      1.0E-06
     mixing beta               =       0.7000
     number of iterations used =            8  plain     mixing
     Exchange-correlation      = PBE ( 1  4  3  4 0 0)

     celldm(1)=  14.418013  celldm(2)=   0.000000  celldm(3)=   0.000000
     celldm(4)=   0.000000  celldm(5)=   0.000000  celldm(6)=   0.000000

     crystal axes: (cart. coord. in units of alat)
               a(1) = (  -0.577350   0.577350   0.577350 )
               a(2) = (   0.577350  -0.577350   0.577350 )
               a(3) = (   0.577350   0.577350  -0.577350 )

     reciprocal axes: (cart. coord. in units 2 pi/alat)
               b(1) = (  0.000000  0.866025  0.866025 )
               b(2) = (  0.866025  0.000000  0.866025 )
               b(3) = (  0.866025  0.866025  0.000000 )

     PseudoPot. # 1 for Mn read from file:
     /home/cristian/Escritorio/Proyecto_Grafeno/pseudopotenciales/Mn.pbe-spn-rrkjus_psl.0.3.1.UPF
     MD5 check sum: e1cac159bdd2ba70c18e85765a5d4279
     Pseudo is Ultrasoft + core correction, Zval = 15.0
     Generated using "atomic" code by A. Dal Corso v.6.2.2
     Using radial grid of 1187 points,  6 beta functions with:
                l(1) =   0
                l(2) =   0
                l(3) =   1
                l(4) =   1
                l(5) =   2
                l(6) =   2
     Q(r) pseudized with 0 coefficients

     atomic species   valence    mass     pseudopotential
        Mn            15.00    54.93804     Mn( 1.00)

     Starting magnetic structure
     atomic species   magnetization
        Mn           0.700

     24 Sym. Ops. (no inversion) found

   Cartesian axes

     site n.     atom                  positions (alat units)
         1           Mn  tau(   1) = (   0.0000000   0.0000000   0.0000000  )
         2           Mn  tau(   2) = (   0.3670447   0.3670447   0.3670447  )
         3           Mn  tau(   3) = (   0.2103056   0.2103056  -0.2103056  )
         4           Mn  tau(   4) = (   0.2103056  -0.2103056   0.2103056  )
         5           Mn  tau(   5) = (  -0.2103056   0.2103056   0.2103056  )
         6           Mn  tau(   6) = (   0.4739122   0.4739122  -0.2517940  )
         7           Mn  tau(   7) = (   0.1034381   0.1034381   0.3255563  )
         8           Mn  tau(   8) = (   0.1034381  -0.1034381   0.8291443  )
         9           Mn  tau(   9) = (  -0.1034381   0.1034381   0.8291443  )
        10           Mn  tau(  10) = (  -0.2517940   0.4739122   0.4739122  )
        11           Mn  tau(  11) = (   0.3255563   0.1034381   0.1034381  )
        12           Mn  tau(  12) = (   0.8291443   0.1034381  -0.1034381  )
        13           Mn  tau(  13) = (   0.8291443  -0.1034381   0.1034381  )
        14           Mn  tau(  14) = (   0.4739122  -0.2517940   0.4739122  )
        15           Mn  tau(  15) = (   0.1034381   0.3255563   0.1034381  )
        16           Mn  tau(  16) = (  -0.1034381   0.8291443   0.1034381  )
        17           Mn  tau(  17) = (   0.1034381   0.8291443  -0.1034381  )
        18           Mn  tau(  18) = (   0.1650529   0.1650529   0.6172683  )
        19           Mn  tau(  19) = (   0.4122974   0.4122974   0.0399180  )
        20           Mn  tau(  20) = (  -0.1650529   0.1650529   0.5374323  )
        21           Mn  tau(  21) = (   0.1650529  -0.1650529   0.5374323  )
        22           Mn  tau(  22) = (   0.6172683   0.1650529   0.1650529  )
        23           Mn  tau(  23) = (   0.0399180   0.4122974   0.4122974  )
        24           Mn  tau(  24) = (   0.5374323  -0.1650529   0.1650529  )
        25           Mn  tau(  25) = (   0.5374323   0.1650529  -0.1650529  )
        26           Mn  tau(  26) = (   0.1650529   0.6172683   0.1650529  )
        27           Mn  tau(  27) = (   0.4122974   0.0399180   0.4122974  )
        28           Mn  tau(  28) = (   0.1650529   0.5374323  -0.1650529  )
        29           Mn  tau(  29) = (  -0.1650529   0.5374323   0.1650529  )

     number of k points=    10  Methfessel-Paxton smearing, width (Ry)=  0.0300
                       cart. coord. in units 2pi/alat
        k(    1) = (   0.0000000   0.0000000   0.0000000), wk =   0.0080000
        k(    2) = (   0.1732051   0.1732051   0.0000000), wk =   0.0960000
        k(    3) = (   0.3464102   0.3464102   0.0000000), wk =   0.0960000
        k(    4) = (   0.3464102   0.1732051   0.1732051), wk =   0.1920000
        k(    5) = (   0.5196152   0.3464102   0.1732051), wk =   0.1920000
        k(    6) = (   0.3464102   0.3464102   0.3464102), wk =   0.0640000
        k(    7) = (   0.0000000   0.0000000   0.3464102), wk =   0.0480000
        k(    8) = (   0.0000000  -0.1732051   0.5196152), wk =   0.1920000
        k(    9) = (  -0.6928203  -0.1732051  -0.1732051), wk =   0.0640000
        k(   10) = (   0.0000000   0.0000000   0.6928203), wk =   0.0480000

     Check: negative core charge=   -0.000005

     Initial potential from superposition of free atoms

     starting charge  434.98555, renormalised to  435.00000
     Starting wfcs are  290 randomized atomic wfcs

     Self-consistent Calculation

     iteration #  1     ecut=    70.00 Ry     beta= 0.70
     Davidson diagonalization with overlap
     ethr =  1.00E-02,  avg # of iterations =  3.0

     total energy              =   -6195.29583819 Ry
     Harris-Foulkes estimate   =   -6169.03236553 Ry
     estimated scf accuracy    <      36.89434911 Ry

     total magnetization       =    89.00 Bohr mag/cell
     absolute magnetization    =    94.79 Bohr mag/cell

[...]

     total energy              =   -6201.42090945 Ry
     Harris-Foulkes estimate   =   -6201.42094053 Ry
     estimated scf accuracy    <       0.00000746 Ry

[...]

     iteration # 40     ecut=    70.00 Ry     beta= 0.70
     Davidson diagonalization with overlap
     ethr =  1.71E-09,  avg # of iterations =  5.2

     Magnetic moment per site:
     atom:    1    charge:   12.6300    magn:   -2.9383    constr:    0.0000
     atom:    2    charge:   12.6470    magn:   -2.7813    constr:    0.0000
     atom:    3    charge:   12.6470    magn:   -2.7813    constr:    0.0000
     atom:    4    charge:   12.6470    magn:   -2.7813    constr:    0.0000
     atom:    5    charge:   12.6470    magn:   -2.7813    constr:    0.0000
     atom:    6    charge:   12.7794    magn:   -0.5708    constr:    0.0000
     atom:    7    charge:   12.7794    magn:   -0.5708    constr:    0.0000
     atom:    8    charge:   12.7794    magn:   -0.5708    constr:    0.0000
     atom:    9    charge:   12.7794    magn:   -0.5708    constr:    0.0000
     atom:   10    charge:   12.7794    magn:   -0.5708    constr:    0.0000
     atom:   11    charge:   12.7794    magn:   -0.5708    constr:    0.0000
     atom:   12    charge:   12.7794    magn:   -0.5708    constr:    0.0000
     atom:   13    charge:   12.7794    magn:   -0.5708    constr:    0.0000
     atom:   14    charge:   12.7794    magn:   -0.5708    constr:    0.0000
     atom:   15    charge:   12.7794    magn:   -0.5708    constr:    0.0000
     atom:   16    charge:   12.7794    magn:   -0.5708    constr:    0.0000
     atom:   17    charge:   12.7794    magn:   -0.5708    constr:    0.0000
     atom:   18    charge:   12.7171    magn:    1.0304    constr:    0.0000
     atom:   19    charge:   12.7171    magn:    1.0304    constr:    0.0000
     atom:   20    charge:   12.7171    magn:    1.0304    constr:    0.0000
     atom:   21    charge:   12.7171    magn:    1.0304    constr:    0.0000
     atom:   22    charge:   12.7171    magn:    1.0304    constr:    0.0000
     atom:   23    charge:   12.7171    magn:    1.0304    constr:    0.0000
     atom:   24    charge:   12.7171    magn:    1.0304    constr:    0.0000
     atom:   25    charge:   12.7171    magn:    1.0304    constr:    0.0000
     atom:   26    charge:   12.7171    magn:    1.0304    constr:    0.0000
     atom:   27    charge:   12.7171    magn:    1.0304    constr:    0.0000
     atom:   28    charge:   12.7171    magn:    1.0304    constr:    0.0000
     atom:   29    charge:   12.7171    magn:    1.0304    constr:    0.0000

     End of self-consistent calculation

 ------ SPIN UP ------------

          k = 0.0000 0.0000 0.0000 ( 22831 PWs)   bands (ev):

   -61.7493 -61.7197 -61.7197 -61.7197 -61.7093 -61.7093 -61.6944 -61.6944
   -61.6944 -61.6922 -61.6922 -61.6922 -60.8011 -60.7761 -60.7761 -60.7761
   -60.7472 -60.7472 -60.6923 -60.6923 -60.6923 -60.6629 -60.6629 -60.6629
   -59.2645 -59.2645 -59.2645 -59.2643 -59.0151 -30.5894 -30.5894 -30.5894
   -30.5891 -30.5891 -30.5720 -30.5720 -30.5720 -30.5449 -30.5449 -30.5449
   -30.5191 -30.5191 -30.5130 -30.4933 -30.4933 -30.4933 -30.4907 -30.4907
   -30.4563 -30.4425 -30.4425 -30.4425 -30.3802 -30.3802 -30.3802 -30.3421
   -30.3421 -30.3421 -30.2969 -30.2969 -30.2969 -30.2881 -30.2682 -30.2682
   -30.2682 -29.9044 -29.8368 -29.8368 -29.8368 -29.7587 -29.7587 -29.5610
   -29.5610 -29.5610 -29.5592 -29.5482 -29.5482 -29.5482 -29.5339 -29.5339
   -29.5339 -29.5105 -29.5105 -29.3820 -29.3820 -29.3820 -29.3544 -29.3077
   -29.3077 -29.3011 -29.3011 -29.3011 -29.2933 -29.2933 -29.2933 -29.2914
   -29.2914 -29.2914 -29.2287 -29.2287 -29.2287 -28.0896 -28.0896 -28.0896
   -28.0882 -28.0882 -28.0881 -28.0881 -28.0881 -27.9991 -27.9991 -27.9991
   -27.9896 -27.8047 -27.8047 -27.8047  10.0654  13.3641  13.3641  13.3641
    13.4768  13.4768  13.4768  13.5041  13.5561  13.5561  13.5561  13.6487
    13.6487  14.1909  14.3392  14.3392  14.3392  14.4341  14.4341  14.6132
    14.6132  14.6132  14.7330  14.9159  14.9159  14.9159  15.0833  15.1269
    15.1269  15.1269  15.2359  15.2359  15.4461  15.4461  15.4461  15.5038
    15.5038  15.5038  15.6253  15.6612  15.6612  15.6612  15.7501  15.7501
    15.9146  15.9146  15.9146  16.0854  16.0854  16.0854  16.0944  16.0944
    16.0944  16.1919  16.1919  16.1919  16.2739  16.2739  16.3368  16.3661
    16.3661  16.3661  16.6050  16.6050  16.6050  16.6220  16.7351  16.7351
    16.7351  16.7535  16.7743  16.7743  16.8499  16.8499  16.8499  16.9763
    16.9763  16.9763  17.0495  17.0495  17.1566  17.1566  17.4415  17.4415
    17.4415  17.5993  17.5993  17.5993  17.7572  17.8995  17.8995  17.8995
    17.9684  17.9684  18.1223  18.1223  18.1223  18.1959  18.1959  18.1959
    18.2453  18.2453  18.5344  18.5344  18.5344  18.5917  18.5917  18.5917
    18.6459  18.6459  18.6554  18.6554  18.6554  18.8978  18.8978  18.8978
    19.0084  19.0084  19.0084  19.2268  19.2268  19.2268  19.2603  19.2603
    19.2603  19.2967  19.2967  19.4081  19.4081  19.4081  19.4420  19.4623
    19.4623  19.5014  19.5014  19.5014  19.7255  19.8501  19.8501  19.8501
    19.8701  19.9944  19.9944  19.9944  20.0928  20.0928

[...]

          k =-0.6928-0.1732-0.1732 ( 22830 PWs)   bands (ev):

[...]

 ------ SPIN DOWN ----------

[...]

          k =-0.6928-0.1732-0.1732 ( 22830 PWs)   bands (ev):

[...]

          k = 0.0000 0.0000 0.6928 ( 22850 PWs)   bands (ev):

   -62.6575 -62.6567 -62.6567 -62.6567 -62.6110 -61.5015 -61.4750 -61.4746
   -61.4746 -61.4481 -61.4478 -61.3932 -61.3932 -61.3932 -61.3643 -61.3643
   -61.3643 -60.4839 -60.4814 -60.4676 -60.4676 -60.4661 -60.4462 -60.4447
   -60.4438 -60.4438 -60.4412 -60.4412 -60.4412 -31.4042 -31.4042 -31.4041
   -31.3821 -31.3818 -31.3818 -31.3813 -31.3790 -31.3788 -31.3788 -31.3773
   -31.3772 -31.3125 -31.3124 -31.3124 -30.5187 -30.4423 -30.4409 -30.4409
   -30.3858 -30.3849 -30.3721 -30.3350 -30.3350 -30.3331 -30.2844 -30.2844
   -30.2832 -30.2602 -30.2594 -30.2534 -30.2534 -30.2522 -30.1235 -30.1235
   -30.1206 -30.1193 -30.1165 -30.1165 -30.0896 -30.0863 -30.0863 -30.0751
   -30.0721 -30.0677 -29.9280 -29.9280 -29.9272 -29.8330 -29.8327 -29.8327
   -29.4125 -29.3344 -29.3292 -29.3292 -29.2674 -29.2577 -29.2577 -29.2565
   -29.2406 -29.2393 -29.2383 -29.2274 -29.2268 -29.2127 -29.2127 -29.1991
   -29.1991 -29.1962 -29.1958 -29.1828 -29.1768 -29.1768 -29.1672 -29.1575
   -29.1549 -29.1549 -29.1318 -29.1081 -29.1081 -29.1081 -29.0985 -29.0983
   -29.0983 -29.0719 -29.0675 -29.0675  11.3310  12.0153  12.0153  12.0634
    12.1740  12.7031  13.5796  13.8239  13.9510  13.9548  13.9548  14.0305
    14.0305  14.0610  14.1883  14.2404  14.2404  14.2411  14.2616  14.3037
    14.3037  14.5199  14.6074  14.9183  14.9183  14.9352  14.9712  15.0155
    15.0155  15.0584  15.1131  15.1131  15.1269  15.2082  15.3081  15.3081
    15.3223  15.3525  15.3678  15.4176  15.4792  15.5239  15.5239  15.5699
    15.6191  15.6374  15.6374  15.7177  15.7177  15.7314  15.8383  15.8388
    15.8806  15.8836  15.8836  16.0959  16.1135  16.1242  16.1242  16.2145
    16.2758  16.2758  16.3365  16.4129  16.4129  16.4158  16.5159  16.6309
    16.6595  16.6762  16.6786  16.6878  16.6878  16.7870  16.7870  16.8147
    16.8686  16.8761  16.8761  16.9422  17.0578  17.0859  17.0859  17.1452
    17.1716  17.3094  17.3117  17.3332  17.3332  17.3793  17.4037  17.4037
    17.5145  17.5911  17.6530  17.6595  17.6595  17.7002  17.7381  17.7381
    17.7632  17.8114  17.8650  17.8650  18.0243  18.1344  18.2001  18.2066
    18.2066  18.2672  18.4516  18.4676  18.4676  18.5048  18.6095  18.6283
    18.6283  18.6291  18.7479  18.8060  18.8060  18.9263  18.9515  18.9515
    18.9635  18.9932  19.1617  19.1884  19.1884  19.2003  19.3614  19.3614
    19.3806  19.4029  19.4453  19.4567  19.4567  19.5446  19.5491  19.5491
    19.5617  19.6069  19.6592  19.6592  19.6734  19.7260

     the Fermi energy is    18.1477 ev

!    total energy              =   -6201.42094964 Ry
     Harris-Foulkes estimate   =   -6201.42095013 Ry
     estimated scf accuracy    <       0.00000097 Ry

     The total energy is the sum of the following terms:

     one-electron contribution =   -2548.53261774 Ry
     hartree contribution      =    1523.24681988 Ry
     xc contribution           =    -807.92257830 Ry
     ewald contribution        =   -4368.22706962 Ry
     smearing contrib. (-TS)   =       0.01449613 Ry

     total magnetization       =    -9.09 Bohr mag/cell
     absolute magnetization    =    36.74 Bohr mag/cell

     convergence has been achieved in  40 iterations

     Writing output data file mn-8.81.save/

     General routines

     Parallel routines

   This run was terminated on:  14: 5:14   6Aug2022

   JOB DONE.