     Program PWSCF v.6.4.1 starts on  5Aug2022 at 23:36: 6

     R & G space division:  proc/nbgrp/npool/nimage =       6
     Reading input from mn-8.76.in

     Current dimensions of program PWSCF are:
     Max number of different atomic species (ntypx) = 10
     Max number of k-points (npk) =  40000
     Max angular momentum in pseudopotentials (lmaxx) =  3
               file Mn.pbe-spn-rrkjus_psl.0.3.1.UPF: wavefunction(s)  3D renormalized

     Subspace diagonalization in iterative solution of the eigenvalue problem:
     a serial algorithm will be used

     Message from routine setup:
     DEPRECATED: symmetry with ibrav=0, use correct ibrav instead

     bravais-lattice index     =            0
     lattice parameter (alat)  =      14.3362  a.u.
     unit-cell volume          =    2268.1874 (a.u.)^3
     number of atoms/cell      =           29
     number of atomic types    =            1
     number of electrons       =       435.00
     number of Kohn-Sham states=          262
     kinetic-energy cutoff     =      70.0000  Ry
     charge density cutoff     =     700.0000  Ry
     convergence threshold     =      1.0E-06
     mixing beta               =       0.7000
     number of iterations used =            8  plain     mixing
     Exchange-correlation      = PBE ( 1  4  3  4 0 0)

     celldm(1)=  14.336185  celldm(2)=   0.000000  celldm(3)=   0.000000
     celldm(4)=   0.000000  celldm(5)=   0.000000  celldm(6)=   0.000000

     crystal axes: (cart. coord. in units of alat)
               a(1) = (  -0.577350   0.577350   0.577350 )
               a(2) = (   0.577350  -0.577350   0.577350 )
               a(3) = (   0.577350   0.577350  -0.577350 )

     reciprocal axes: (cart. coord. in units 2 pi/alat)
               b(1) = (  0.000000  0.866025  0.866025 )
               b(2) = (  0.866025  0.000000  0.866025 )
               b(3) = (  0.866025  0.866025  0.000000 )

     PseudoPot. # 1 for Mn read from file:
     /home/cristian/Escritorio/Proyecto_Grafeno/pseudopotenciales/Mn.pbe-spn-rrkjus_psl.0.3.1.UPF
     MD5 check sum: e1cac159bdd2ba70c18e85765a5d4279
     Pseudo is Ultrasoft + core correction, Zval = 15.0
     Generated using "atomic" code by A. Dal Corso v.6.2.2
     Using radial grid of 1187 points,  6 beta functions with:
                l(1) =   0
                l(2) =   0
                l(3) =   1
                l(4) =   1
                l(5) =   2
                l(6) =   2
     Q(r) pseudized with 0 coefficients

     atomic species   valence    mass     pseudopotential
        Mn            15.00    54.93804     Mn( 1.00)

     Starting magnetic structure
     atomic species   magnetization
        Mn           0.700

     24 Sym. Ops. (no inversion) found

   Cartesian axes

     site n.     atom                  positions (alat units)
         1           Mn  tau(   1) = (   0.0000000   0.0000000   0.0000000  )
         2           Mn  tau(   2) = (   0.3670447   0.3670447   0.3670447  )
         3           Mn  tau(   3) = (   0.2103056   0.2103056  -0.2103056  )
         4           Mn  tau(   4) = (   0.2103056  -0.2103056   0.2103056  )
         5           Mn  tau(   5) = (  -0.2103056   0.2103056   0.2103056  )
         6           Mn  tau(   6) = (   0.4739122   0.4739122  -0.2517940  )
         7           Mn  tau(   7) = (   0.1034381   0.1034381   0.3255563  )
         8           Mn  tau(   8) = (   0.1034381  -0.1034381   0.8291443  )
         9           Mn  tau(   9) = (  -0.1034381   0.1034381   0.8291443  )
        10           Mn  tau(  10) = (  -0.2517940   0.4739122   0.4739122  )
        11           Mn  tau(  11) = (   0.3255563   0.1034381   0.1034381  )
        12           Mn  tau(  12) = (   0.8291443   0.1034381  -0.1034381  )
        13           Mn  tau(  13) = (   0.8291443  -0.1034381   0.1034381  )
        14           Mn  tau(  14) = (   0.4739122  -0.2517940   0.4739122  )
        15           Mn  tau(  15) = (   0.1034381   0.3255563   0.1034381  )
        16           Mn  tau(  16) = (  -0.1034381   0.8291443   0.1034381  )
        17           Mn  tau(  17) = (   0.1034381   0.8291443  -0.1034381  )
        18           Mn  tau(  18) = (   0.1650529   0.1650529   0.6172683  )
        19           Mn  tau(  19) = (   0.4122974   0.4122974   0.0399180  )
        20           Mn  tau(  20) = (  -0.1650529   0.1650529   0.5374323  )
        21           Mn  tau(  21) = (   0.1650529  -0.1650529   0.5374323  )
        22           Mn  tau(  22) = (   0.6172683   0.1650529   0.1650529  )
        23           Mn  tau(  23) = (   0.0399180   0.4122974   0.4122974  )
        24           Mn  tau(  24) = (   0.5374323  -0.1650529   0.1650529  )
        25           Mn  tau(  25) = (   0.5374323   0.1650529  -0.1650529  )
        26           Mn  tau(  26) = (   0.1650529   0.6172683   0.1650529  )
        27           Mn  tau(  27) = (   0.4122974   0.0399180   0.4122974  )
        28           Mn  tau(  28) = (   0.1650529   0.5374323  -0.1650529  )
        29           Mn  tau(  29) = (  -0.1650529   0.5374323   0.1650529  )

     number of k points=    10  Methfessel-Paxton smearing, width (Ry)=  0.0300
                       cart. coord. in units 2pi/alat
        k(    1) = (   0.0000000   0.0000000   0.0000000), wk =   0.0080000
        k(    2) = (   0.1732051   0.1732051   0.0000000), wk =   0.0960000
        k(    3) = (   0.3464102   0.3464102   0.0000000), wk =   0.0960000
        k(    4) = (   0.3464102   0.1732051   0.1732051), wk =   0.1920000
        k(    5) = (   0.5196152   0.3464102   0.1732051), wk =   0.1920000
        k(    6) = (   0.3464102   0.3464102   0.3464102), wk =   0.0640000
        k(    7) = (   0.0000000   0.0000000   0.3464102), wk =   0.0480000
        k(    8) = (   0.0000000  -0.1732051   0.5196152), wk =   0.1920000
        k(    9) = (  -0.6928203  -0.1732051  -0.1732051), wk =   0.0640000
        k(   10) = (   0.0000000   0.0000000   0.6928203), wk =   0.0480000

     Check: negative core charge=   -0.000005

     Initial potential from superposition of free atoms

     starting charge  434.98555, renormalised to  435.00000
     Starting wfcs are  290 randomized atomic wfcs

     Self-consistent Calculation

     iteration #  1     ecut=    70.00 Ry     beta= 0.70
     Davidson diagonalization with overlap
     ethr =  1.00E-02,  avg # of iterations =  3.0

     total energy              =   -6195.20138922 Ry
     Harris-Foulkes estimate   =   -6168.86771965 Ry
     estimated scf accuracy    <      37.07265075 Ry

     total magnetization       =    89.00 Bohr mag/cell
     absolute magnetization    =    94.31 Bohr mag/cell

[...]

     iteration # 21     ecut=    70.00 Ry     beta= 0.70
     Davidson diagonalization with overlap
     c_bands:  1 eigenvalues not converged
     ethr =  1.77E-06,  avg # of iterations =  8.8

[...]

     total energy              =   -6201.44190472 Ry
     Harris-Foulkes estimate   =   -6201.44190601 Ry
     estimated scf accuracy    <       0.00000178 Ry

[...]

     iteration # 44     ecut=    70.00 Ry     beta= 0.70
     Davidson diagonalization with overlap
     ethr =  4.08E-10,  avg # of iterations =  4.2

     Magnetic moment per site:
     atom:    1    charge:   12.6093    magn:   -2.8753    constr:    0.0000
     atom:    2    charge:   12.6277    magn:   -2.6696    constr:    0.0000
     atom:    3    charge:   12.6277    magn:   -2.6696    constr:    0.0000
     atom:    4    charge:   12.6277    magn:   -2.6696    constr:    0.0000
     atom:    5    charge:   12.6277    magn:   -2.6696    constr:    0.0000
     atom:    6    charge:   12.7593    magn:   -0.4611    constr:    0.0000
     atom:    7    charge:   12.7593    magn:   -0.4611    constr:    0.0000
     atom:    8    charge:   12.7593    magn:   -0.4611    constr:    0.0000
     atom:    9    charge:   12.7593    magn:   -0.4611    constr:    0.0000
     atom:   10    charge:   12.7593    magn:   -0.4611    constr:    0.0000
     atom:   11    charge:   12.7593    magn:   -0.4611    constr:    0.0000
     atom:   12    charge:   12.7593    magn:   -0.4611    constr:    0.0000
     atom:   13    charge:   12.7593    magn:   -0.4611    constr:    0.0000
     atom:   14    charge:   12.7593    magn:   -0.4611    constr:    0.0000
     atom:   15    charge:   12.7593    magn:   -0.4611    constr:    0.0000
     atom:   16    charge:   12.7593    magn:   -0.4611    constr:    0.0000
     atom:   17    charge:   12.7593    magn:   -0.4611    constr:    0.0000
     atom:   18    charge:   12.6975    magn:    0.8526    constr:    0.0000
     atom:   19    charge:   12.6975    magn:    0.8526    constr:    0.0000
     atom:   20    charge:   12.6975    magn:    0.8526    constr:    0.0000
     atom:   21    charge:   12.6975    magn:    0.8526    constr:    0.0000
     atom:   22    charge:   12.6975    magn:    0.8526    constr:    0.0000
     atom:   23    charge:   12.6975    magn:    0.8526    constr:    0.0000
     atom:   24    charge:   12.6975    magn:    0.8526    constr:    0.0000
     atom:   25    charge:   12.6975    magn:    0.8526    constr:    0.0000
     atom:   26    charge:   12.6975    magn:    0.8526    constr:    0.0000
     atom:   27    charge:   12.6975    magn:    0.8526    constr:    0.0000
     atom:   28    charge:   12.6975    magn:    0.8526    constr:    0.0000
     atom:   29    charge:   12.6975    magn:    0.8526    constr:    0.0000

     End of self-consistent calculation

 ------ SPIN UP ------------

          k = 0.0000 0.0000 0.0000 ( 22231 PWs)   bands (ev):

   -61.2979 -61.2650 -61.2650 -61.2650 -61.2536 -61.2536 -61.2374 -61.2374
   -61.2374 -61.2352 -61.2352 -61.2352 -60.5304 -60.5050 -60.5050 -60.5050
   -60.4740 -60.4740 -60.4160 -60.4160 -60.4160 -60.3844 -60.3844 -60.3844
   -58.9790 -58.9790 -58.9790 -58.9788 -58.7192 -30.1541 -30.1541 -30.1494
   -30.1494 -30.1494 -30.1263 -30.1263 -30.1263 -30.1027 -30.1027 -30.1027
   -30.0807 -30.0807 -30.0773 -30.0515 -30.0515 -30.0515 -30.0442 -30.0442
   -30.0052 -29.9988 -29.9988 -29.9988 -29.9315 -29.9315 -29.9315 -29.8867
   -29.8867 -29.8867 -29.8459 -29.8459 -29.8459 -29.8385 -29.8170 -29.8170
   -29.8170 -29.6226 -29.5658 -29.5658 -29.5658 -29.4812 -29.4812 -29.2876
   -29.2875 -29.2875 -29.2875 -29.2709 -29.2709 -29.2709 -29.2630 -29.2630
   -29.2630 -29.2406 -29.2406 -29.1079 -29.1079 -29.1079 -29.0815 -29.0218
   -29.0218 -29.0155 -29.0155 -29.0155 -29.0084 -29.0084 -29.0084 -28.9954
   -28.9954 -28.9954 -28.9320 -28.9320 -28.9320 -27.8020 -27.8020 -27.8020
   -27.8006 -27.8006 -27.8006 -27.8006 -27.8006 -27.7114 -27.7114 -27.7114
   -27.7012 -27.5076 -27.5076 -27.5076  10.3597  13.6972  13.6972  13.6972
    13.7902  13.7902  13.7902  13.8164  13.8809  13.8809  13.8809  13.9782
    13.9782  14.4745  14.6459  14.6459  14.6459  14.7409  14.7409  14.9211
    14.9211  14.9211  15.0134  15.2500  15.2500  15.2500  15.4173  15.4173
    15.4173  15.4286  15.5653  15.5653  15.7540  15.7540  15.7540  15.7841
    15.7841  15.7841  15.9092  16.0133  16.0133  16.0133  16.0898  16.0898
    16.2224  16.2224  16.2224  16.4058  16.4058  16.4058  16.4248  16.4248
    16.4248  16.5198  16.5198  16.5198  16.5581  16.5581  16.7253  16.7253
    16.7253  16.7384  16.9562  16.9562  16.9562  16.9923  17.0955  17.0955
    17.0955  17.1159  17.1215  17.1215  17.2002  17.2002  17.2002  17.3323
    17.3323  17.3323  17.4225  17.4225  17.5044  17.5044  17.8032  17.8032
    17.8032  18.0112  18.0112  18.0112  18.1233  18.2872  18.2872  18.2872
    18.3084  18.3084  18.4667  18.4667  18.4667  18.5297  18.5297  18.5297
    18.6084  18.6084  18.9371  18.9371  18.9371  18.9966  18.9966  18.9966
    19.0145  19.0145  19.0145  19.0345  19.0345  19.2554  19.2554  19.2554
    19.4400  19.4400  19.4400  19.5659  19.5659  19.5659  19.6387  19.6387
    19.6387  19.6526  19.6526  19.7614  19.7614  19.7614  19.7790  19.8218
    19.8218  19.8685  19.8685  19.8685  20.1025  20.2076  20.2283  20.2283
    20.2283  20.3372  20.3372  20.3372  20.4432  20.4432

[...]

          k =-0.6928-0.1732-0.1732 ( 22434 PWs)   bands (ev):

[...]

 ------ SPIN DOWN ----------

[...]

          k =-0.6928-0.1732-0.1732 ( 22434 PWs)   bands (ev):

[...]

          k = 0.0000 0.0000 0.6928 ( 22470 PWs)   bands (ev):

   -62.2522 -62.2447 -62.2447 -62.2447 -62.2391 -61.1016 -61.0736 -61.0731
   -61.0731 -61.0451 -61.0447 -60.9864 -60.9864 -60.9864 -60.9552 -60.9552
   -60.9552 -60.2425 -60.2398 -60.2253 -60.2253 -60.2237 -60.2028 -60.2012
   -60.2002 -60.2002 -60.1974 -60.1974 -60.1974 -31.0169 -31.0169 -31.0168
   -30.9795 -30.9684 -30.9681 -30.9681 -30.9654 -30.9650 -30.9650 -30.9628
   -30.9626 -30.9342 -30.9341 -30.9341 -30.1448 -30.0642 -30.0623 -30.0623
   -30.0042 -30.0031 -29.9896 -29.9471 -29.9471 -29.9447 -29.8892 -29.8892
   -29.8875 -29.8670 -29.8662 -29.8569 -29.8569 -29.8558 -29.7302 -29.7302
   -29.7272 -29.7240 -29.7203 -29.7203 -29.6842 -29.6775 -29.6775 -29.6699
   -29.6658 -29.6627 -29.5248 -29.5248 -29.5236 -29.4230 -29.4225 -29.4225
   -29.1710 -29.0906 -29.0841 -29.0841 -29.0155 -29.0020 -29.0020 -29.0014
   -28.9943 -28.9908 -28.9900 -28.9756 -28.9751 -28.9579 -28.9579 -28.9462
   -28.9462 -28.9453 -28.9396 -28.9298 -28.9258 -28.9258 -28.9198 -28.9103
   -28.9035 -28.9035 -28.8822 -28.8585 -28.8583 -28.8583 -28.8467 -28.8467
   -28.8467 -28.8203 -28.8154 -28.8154  11.6424  12.3372  12.3372  12.3755
    12.4886  13.0234  13.8885  14.1395  14.2382  14.2735  14.2735  14.3310
    14.3310  14.3695  14.4876  14.5413  14.5433  14.5433  14.5618  14.6084
    14.6084  14.8276  14.9119  15.2385  15.2423  15.2423  15.2770  15.3408
    15.3408  15.3811  15.4275  15.4327  15.4327  15.5134  15.6423  15.6423
    15.6447  15.6595  15.7173  15.7643  15.8033  15.8218  15.8218  15.8584
    15.9207  15.9351  15.9351  16.0237  16.0237  16.0318  16.1469  16.1734
    16.1920  16.2167  16.2167  16.4158  16.4565  16.4731  16.4731  16.5620
    16.5928  16.5928  16.6793  16.7459  16.7535  16.7535  16.8538  17.0026
    17.0063  17.0254  17.0254  17.0263  17.0288  17.1364  17.1364  17.1645
    17.2199  17.2199  17.2368  17.2679  17.4156  17.4280  17.4280  17.4693
    17.5000  17.6125  17.6732  17.6732  17.6808  17.6836  17.7463  17.7463
    17.8690  17.9562  18.0219  18.0219  18.0232  18.0672  18.0953  18.0953
    18.1099  18.1732  18.2349  18.2349  18.3515  18.4820  18.5594  18.5594
    18.5633  18.5679  18.7868  18.7879  18.7879  18.8369  18.9401  18.9621
    18.9737  18.9737  19.0719  19.1617  19.1617  19.2929  19.3063  19.3063
    19.3267  19.3691  19.5146  19.5522  19.5522  19.5805  19.7149  19.7149
    19.7463  19.7541  19.8026  19.8259  19.8259  19.8825  19.9049  19.9115
    19.9115  19.9960  20.0324  20.0324  20.0529  20.0747

     the Fermi energy is    18.5001 ev

!    total energy              =   -6201.44190623 Ry
     Harris-Foulkes estimate   =   -6201.44190631 Ry
     estimated scf accuracy    <       0.00000019 Ry

     The total energy is the sum of the following terms:

     one-electron contribution =   -2509.43338368 Ry
     hartree contribution      =    1509.21695185 Ry
     xc contribution           =    -808.07831023 Ry
     ewald contribution        =   -4393.15987253 Ry
     smearing contrib. (-TS)   =       0.01270836 Ry

     total magnetization       =    -9.39 Bohr mag/cell
     absolute magnetization    =    32.46 Bohr mag/cell

     convergence has been achieved in  44 iterations

     Writing output data file mn-8.76.save/

     General routines

     Parallel routines

   This run was terminated on:   7:26:18   6Aug2022

   JOB DONE.