     Program PWSCF v.6.4.1 starts on  6Aug2022 at 20:55:22

     R & G space division:  proc/nbgrp/npool/nimage =       6
     Reading input from mn-8.91.in

     Current dimensions of program PWSCF are:
     Max number of different atomic species (ntypx) = 10
     Max number of k-points (npk) =  40000
     Max angular momentum in pseudopotentials (lmaxx) =  3
               file Mn.pbe-spn-rrkjus_psl.0.3.1.UPF: wavefunction(s)  3D renormalized

     Subspace diagonalization in iterative solution of the eigenvalue problem:
     a serial algorithm will be used

     Message from routine setup:
     DEPRECATED: symmetry with ibrav=0, use correct ibrav instead

     bravais-lattice index     =            0
     lattice parameter (alat)  =      14.5817  a.u.
     unit-cell volume          =    2386.7104 (a.u.)^3
     number of atoms/cell      =           29
     number of atomic types    =            1
     number of electrons       =       435.00
     number of Kohn-Sham states=          262
     kinetic-energy cutoff     =      70.0000  Ry
     charge density cutoff     =     700.0000  Ry
     convergence threshold     =      1.0E-05
     mixing beta               =       0.7000
     number of iterations used =            8  plain     mixing
     Exchange-correlation      = PBE ( 1  4  3  4 0 0)

     celldm(1)=  14.581668  celldm(2)=   0.000000  celldm(3)=   0.000000
     celldm(4)=   0.000000  celldm(5)=   0.000000  celldm(6)=   0.000000

     crystal axes: (cart. coord. in units of alat)
               a(1) = (  -0.577350   0.577350   0.577350 )
               a(2) = (   0.577350  -0.577350   0.577350 )
               a(3) = (   0.577350   0.577350  -0.577350 )

     reciprocal axes: (cart. coord. in units 2 pi/alat)
               b(1) = (  0.000000  0.866025  0.866025 )
               b(2) = (  0.866025  0.000000  0.866025 )
               b(3) = (  0.866025  0.866025  0.000000 )

     PseudoPot. # 1 for Mn read from file:
     /home/cristian/Escritorio/Proyecto_Grafeno/pseudopotenciales/Mn.pbe-spn-rrkjus_psl.0.3.1.UPF
     MD5 check sum: e1cac159bdd2ba70c18e85765a5d4279
     Pseudo is Ultrasoft + core correction, Zval = 15.0
     Generated using "atomic" code by A. Dal Corso v.6.2.2
     Using radial grid of 1187 points,  6 beta functions with:
                l(1) =   0
                l(2) =   0
                l(3) =   1
                l(4) =   1
                l(5) =   2
                l(6) =   2
     Q(r) pseudized with 0 coefficients

     atomic species   valence    mass     pseudopotential
        Mn            15.00    54.93804     Mn( 1.00)

     Starting magnetic structure
     atomic species   magnetization
        Mn           0.700

     24 Sym. Ops. (no inversion) found

   Cartesian axes

     site n.     atom                  positions (alat units)
         1           Mn  tau(   1) = (   0.0000000   0.0000000   0.0000000  )
         2           Mn  tau(   2) = (   0.3670447   0.3670447   0.3670447  )
         3           Mn  tau(   3) = (   0.2103056   0.2103056  -0.2103056  )
         4           Mn  tau(   4) = (   0.2103056  -0.2103056   0.2103056  )
         5           Mn  tau(   5) = (  -0.2103056   0.2103056   0.2103056  )
         6           Mn  tau(   6) = (   0.4739122   0.4739122  -0.2517940  )
         7           Mn  tau(   7) = (   0.1034381   0.1034381   0.3255563  )
         8           Mn  tau(   8) = (   0.1034381  -0.1034381   0.8291443  )
         9           Mn  tau(   9) = (  -0.1034381   0.1034381   0.8291443  )
        10           Mn  tau(  10) = (  -0.2517940   0.4739122   0.4739122  )
        11           Mn  tau(  11) = (   0.3255563   0.1034381   0.1034381  )
        12           Mn  tau(  12) = (   0.8291443   0.1034381  -0.1034381  )
        13           Mn  tau(  13) = (   0.8291443  -0.1034381   0.1034381  )
        14           Mn  tau(  14) = (   0.4739122  -0.2517940   0.4739122  )
        15           Mn  tau(  15) = (   0.1034381   0.3255563   0.1034381  )
        16           Mn  tau(  16) = (  -0.1034381   0.8291443   0.1034381  )
        17           Mn  tau(  17) = (   0.1034381   0.8291443  -0.1034381  )
        18           Mn  tau(  18) = (   0.1650529   0.1650529   0.6172683  )
        19           Mn  tau(  19) = (   0.4122974   0.4122974   0.0399180  )
        20           Mn  tau(  20) = (  -0.1650529   0.1650529   0.5374323  )
        21           Mn  tau(  21) = (   0.1650529  -0.1650529   0.5374323  )
        22           Mn  tau(  22) = (   0.6172683   0.1650529   0.1650529  )
        23           Mn  tau(  23) = (   0.0399180   0.4122974   0.4122974  )
        24           Mn  tau(  24) = (   0.5374323  -0.1650529   0.1650529  )
        25           Mn  tau(  25) = (   0.5374323   0.1650529  -0.1650529  )
        26           Mn  tau(  26) = (   0.1650529   0.6172683   0.1650529  )
        27           Mn  tau(  27) = (   0.4122974   0.0399180   0.4122974  )
        28           Mn  tau(  28) = (   0.1650529   0.5374323  -0.1650529  )
        29           Mn  tau(  29) = (  -0.1650529   0.5374323   0.1650529  )

     number of k points=    10  Methfessel-Paxton smearing, width (Ry)=  0.0300
                       cart. coord. in units 2pi/alat
        k(    1) = (   0.0000000   0.0000000   0.0000000), wk =   0.0080000
        k(    2) = (   0.1732051   0.1732051   0.0000000), wk =   0.0960000
        k(    3) = (   0.3464102   0.3464102   0.0000000), wk =   0.0960000
        k(    4) = (   0.3464102   0.1732051   0.1732051), wk =   0.1920000
        k(    5) = (   0.5196152   0.3464102   0.1732051), wk =   0.1920000
        k(    6) = (   0.3464102   0.3464102   0.3464102), wk =   0.0640000
        k(    7) = (   0.0000000   0.0000000   0.3464102), wk =   0.0480000
        k(    8) = (   0.0000000  -0.1732051   0.5196152), wk =   0.1920000
        k(    9) = (  -0.6928203  -0.1732051  -0.1732051), wk =   0.0640000
        k(   10) = (   0.0000000   0.0000000   0.6928203), wk =   0.0480000

     Check: negative core charge=   -0.000005

     Initial potential from superposition of free atoms

     starting charge  434.98555, renormalised to  435.00000
     Starting wfcs are  290 randomized atomic wfcs

     Self-consistent Calculation

     iteration #  1     ecut=    70.00 Ry     beta= 0.70
     Davidson diagonalization with overlap
     ethr =  1.00E-02,  avg # of iterations =  3.0

     total energy              =   -6195.44335208 Ry
     Harris-Foulkes estimate   =   -6169.32247765 Ry
     estimated scf accuracy    <      36.52916917 Ry

     total magnetization       =    89.00 Bohr mag/cell
     absolute magnetization    =    95.83 Bohr mag/cell

[...]

     total energy              =   -6201.31123807 Ry
     Harris-Foulkes estimate   =   -6201.31123675 Ry
     estimated scf accuracy    <       0.00001468 Ry

[...]

     iteration # 58     ecut=    70.00 Ry     beta= 0.70
     Davidson diagonalization with overlap
     ethr =  2.79E-09,  avg # of iterations =  1.0

     Magnetic moment per site:
     atom:    1    charge:   12.6561    magn:    0.1225    constr:    0.0000
     atom:    2    charge:   12.6816    magn:   -2.9328    constr:    0.0000
     atom:    3    charge:   12.6816    magn:   -2.9328    constr:    0.0000
     atom:    4    charge:   12.6816    magn:   -2.9328    constr:    0.0000
     atom:    5    charge:   12.6816    magn:   -2.9328    constr:    0.0000
     atom:    6    charge:   12.8179    magn:   -0.7590    constr:    0.0000
     atom:    7    charge:   12.8179    magn:   -0.7590    constr:    0.0000
     atom:    8    charge:   12.8179    magn:   -0.7590    constr:    0.0000
     atom:    9    charge:   12.8179    magn:   -0.7590    constr:    0.0000
     atom:   10    charge:   12.8179    magn:   -0.7590    constr:    0.0000
     atom:   11    charge:   12.8179    magn:   -0.7590    constr:    0.0000
     atom:   12    charge:   12.8179    magn:   -0.7590    constr:    0.0000
     atom:   13    charge:   12.8179    magn:   -0.7590    constr:    0.0000
     atom:   14    charge:   12.8179    magn:   -0.7590    constr:    0.0000
     atom:   15    charge:   12.8179    magn:   -0.7590    constr:    0.0000
     atom:   16    charge:   12.8179    magn:   -0.7590    constr:    0.0000
     atom:   17    charge:   12.8179    magn:   -0.7590    constr:    0.0000
     atom:   18    charge:   12.7557    magn:    1.3697    constr:    0.0000
     atom:   19    charge:   12.7557    magn:    1.3697    constr:    0.0000
     atom:   20    charge:   12.7557    magn:    1.3697    constr:    0.0000
     atom:   21    charge:   12.7557    magn:    1.3697    constr:    0.0000
     atom:   22    charge:   12.7557    magn:    1.3697    constr:    0.0000
     atom:   23    charge:   12.7557    magn:    1.3697    constr:    0.0000
     atom:   24    charge:   12.7557    magn:    1.3697    constr:    0.0000
     atom:   25    charge:   12.7557    magn:    1.3697    constr:    0.0000
     atom:   26    charge:   12.7557    magn:    1.3697    constr:    0.0000
     atom:   27    charge:   12.7557    magn:    1.3697    constr:    0.0000
     atom:   28    charge:   12.7557    magn:    1.3697    constr:    0.0000
     atom:   29    charge:   12.7557    magn:    1.3697    constr:    0.0000

     End of self-consistent calculation

 ------ SPIN UP ------------

          k = 0.0000 0.0000 0.0000 ( 23623 PWs)   bands (ev):

   -62.6304 -62.6057 -62.6057 -62.6057 -62.5970 -62.5970 -62.5842 -62.5842
   -62.5842 -62.5823 -62.5823 -62.5823 -61.8736 -61.3554 -61.3327 -61.3327
   -61.3327 -61.3074 -61.3074 -61.2585 -61.2585 -61.2585 -61.2328 -61.2328
   -61.2328 -59.9184 -59.9184 -59.9184 -59.9181 -31.4618 -31.4618 -31.4618
   -31.4537 -31.4537 -31.4523 -31.4523 -31.4523 -31.4220 -31.4220 -31.4220
   -31.3840 -31.3832 -31.3832 -31.3555 -31.3555 -31.3525 -31.3525 -31.3525
   -31.3458 -31.3183 -31.3183 -31.3183 -31.2580 -31.2580 -31.2580 -31.2341
   -31.2341 -31.2341 -31.1722 -31.1722 -31.1722 -31.1608 -31.1459 -31.1459
   -31.1459 -30.6014 -30.6014 -30.6014 -30.4516 -30.3800 -30.3800 -30.3800
   -30.3140 -30.3140 -30.1176 -30.1153 -30.1153 -30.1153 -30.0972 -30.0972
   -30.0972 -30.0842 -30.0842 -30.0842 -30.0634 -30.0634 -29.9430 -29.9430
   -29.9430 -29.9152 -29.8893 -29.8893 -29.8893 -29.8892 -29.8892 -29.8810
   -29.8810 -29.8810 -29.8804 -29.8804 -29.8804 -29.8218 -29.8218 -29.8218
   -28.7304 -28.7304 -28.7304 -28.7292 -28.7292 -28.7289 -28.7289 -28.7289
   -28.6711 -28.6711 -28.6711 -28.6704   9.4877  12.7070  12.7070  12.7070
    12.8578  12.8578  12.8578  12.8579  12.9109  12.9109  12.9109  12.9877
    12.9877  13.6082  13.7146  13.7146  13.7146  13.7863  13.7863  13.9820
    13.9820  13.9820  14.1506  14.2483  14.2483  14.2483  14.3987  14.5002
    14.5002  14.5002  14.5723  14.5723  14.8149  14.8149  14.8149  14.8663
    14.8663  14.8663  14.9608  14.9608  14.9608  15.0470  15.0566  15.0566
    15.2713  15.2713  15.2713  15.4121  15.4121  15.4121  15.4162  15.4162
    15.4162  15.5395  15.5395  15.5395  15.5485  15.5936  15.5936  15.6538
    15.6538  15.6538  15.8699  15.8699  15.8811  15.9128  15.9128  15.9128
    15.9633  15.9633  15.9633  16.0452  16.1214  16.1214  16.1214  16.2163
    16.2163  16.2163  16.2479  16.2479  16.5001  16.5001  16.7392  16.7392
    16.7392  16.7401  16.7401  16.7401  16.9972  16.9972  16.9972  17.0414
    17.2507  17.2507  17.3934  17.3934  17.3934  17.4560  17.4560  17.5333
    17.5333  17.5333  17.6324  17.6324  17.6324  17.7240  17.7240  17.7240
    17.7914  17.7914  17.7914  17.8586  17.8586  17.9523  17.9523  17.9523
    18.0501  18.0501  18.1638  18.1638  18.1638  18.4935  18.4935  18.4935
    18.5269  18.5269  18.5269  18.5762  18.5762  18.6930  18.6930  18.6930
    18.7642  18.7913  18.7913  18.7913  18.9246  19.0898  19.0898  19.0898
    19.1098  19.1098  19.1098  19.1934  19.2960  19.2960

[...]

          k =-0.6928-0.1732-0.1732 ( 23578 PWs)   bands (ev):

[...]

 ------ SPIN DOWN ----------

[...]

          k =-0.6928-0.1732-0.1732 ( 23578 PWs)   bands (ev):

[...]

          k = 0.0000 0.0000 0.6928 ( 23626 PWs)   bands (ev):

   -63.4754 -63.4753 -63.4753 -63.4753 -62.2707 -62.2468 -62.2466 -62.2466
   -62.2230 -62.2229 -62.1747 -62.1747 -62.1747 -62.1498 -62.1498 -62.1498
   -61.7593 -60.9642 -60.9619 -60.9497 -60.9497 -60.9483 -60.9306 -60.9293
   -60.9285 -60.9285 -60.9263 -60.9263 -60.9263 -32.2036 -32.2035 -32.2035
   -32.2014 -32.2012 -32.2012 -32.2003 -32.2001 -32.1798 -32.1797 -32.1797
   -32.1767 -31.2455 -31.1763 -31.1755 -31.1755 -31.1217 -31.1211 -31.1106
   -31.0928 -31.0928 -31.0913 -31.0504 -31.0504 -31.0497 -31.0248 -31.0225
   -31.0225 -31.0223 -31.0199 -30.8894 -30.8894 -30.8875 -30.8874 -30.8863
   -30.8863 -30.8755 -30.8733 -30.8733 -30.8588 -30.8569 -30.8553 -30.7083
   -30.7083 -30.7079 -30.6261 -30.6260 -30.6260 -30.4687 -30.4687 -30.4687
   -29.8815 -29.8150 -29.8114 -29.8114 -29.7717 -29.7582 -29.7582 -29.7578
   -29.7416 -29.7402 -29.7217 -29.7184 -29.7153 -29.7153 -29.7147 -29.6980
   -29.6928 -29.6928 -29.6870 -29.6772 -29.6737 -29.6737 -29.6551 -29.6489
   -29.6489 -29.6454 -29.6257 -29.6045 -29.6045 -29.6021 -29.5989 -29.5971
   -29.5971 -29.5696 -29.5661 -29.5661  10.7420  11.3892  11.3892  11.5269
    11.5556  12.0942  12.9950  13.2548  13.3347  13.3347  13.3936  13.4986
    13.5396  13.5396  13.6401  13.6401  13.6534  13.6641  13.7034  13.7285
    13.7285  14.0626  14.1515  14.2897  14.2897  14.3531  14.3571  14.3627
    14.3627  14.4519  14.5056  14.5056  14.5274  14.6152  14.6709  14.7264
    14.7480  14.7480  14.7841  14.7954  14.8618  14.9437  14.9437  14.9903
    15.0669  15.0669  15.1403  15.1634  15.1867  15.1867  15.2329  15.3055
    15.3055  15.3544  15.3997  15.4425  15.4488  15.4488  15.5333  15.6151
    15.6498  15.6498  15.6687  15.7596  15.7596  15.7719  15.8574  15.9100
    15.9772  16.0248  16.0248  16.0696  16.0855  16.0925  16.0925  16.1293
    16.1468  16.3416  16.3416  16.4022  16.4923  16.4923  16.5230  16.5318
    16.5326  16.6812  16.6840  16.6840  16.7037  16.8045  16.8277  16.8277
    16.9083  17.0087  17.0309  17.0309  17.0664  17.0664  17.0869  17.2231
    17.3039  17.3689  17.4262  17.4262  17.4739  17.5063  17.5063  17.5707
    17.5776  17.7530  17.8388  17.8388  17.8626  17.8867  17.9783  17.9880
    17.9982  17.9982  18.1600  18.1600  18.1798  18.2265  18.2612  18.2649
    18.2649  18.2999  18.4354  18.4967  18.5163  18.5163  18.6563  18.6785
    18.6785  18.7435  18.7628  18.7628  18.8415  18.8428  18.8578  18.8578
    18.9158  18.9448  18.9612  18.9622  18.9622  19.0705

     the Fermi energy is    17.4525 ev

!    total energy              =   -6201.31123680 Ry
     Harris-Foulkes estimate   =   -6201.31123874 Ry
     estimated scf accuracy    <       0.00000813 Ry

     The total energy is the sum of the following terms:

     one-electron contribution =   -2625.32335152 Ry
     hartree contribution      =    1550.58408337 Ry
     xc contribution           =    -807.37426992 Ry
     ewald contribution        =   -4319.20095211 Ry
     smearing contrib. (-TS)   =       0.00325337 Ry

     total magnetization       =    -4.70 Bohr mag/cell
     absolute magnetization    =    41.15 Bohr mag/cell

     convergence has been achieved in  58 iterations

     Writing output data file mn-8.91.save/

     General routines

     Parallel routines

   This run was terminated on:   5:39: 5   7Aug2022

   JOB DONE.