     Program PWSCF v.6.4.1 starts on 15Aug2022 at 12:46:11

     R & G space division:  proc/nbgrp/npool/nimage =       6
     Reading input from distance-3.0.in

     Current dimensions of program PWSCF are:
     Max number of different atomic species (ntypx) = 10
     Max number of k-points (npk) =  40000
     Max angular momentum in pseudopotentials (lmaxx) =  3

     IMPORTANT: XC functional enforced from input :
     Exchange-correlation      = RVV10 ( 1  4 13  4 3 0)
     Any further DFT definition will be discarded
     Please, verify this is what you really want

               file H.pbe-rrkjus.UPF: wavefunction(s)  1S renormalized
               file Cr.pbe-spn-rrkjus_psl.1.0.0.UPF: wavefunction(s)  3P renormalized

     Subspace diagonalization in iterative solution of the eigenvalue problem:
     a serial algorithm will be used

     bravais-lattice index     =            4
     lattice parameter (alat)  =      23.2937  a.u.
     unit-cell volume          =    8879.8548 (a.u.)^3
     number of atoms/cell      =           52
     number of atomic types    =            3
     number of electrons       =       212.00
     number of Kohn-Sham states=          127
     kinetic-energy cutoff     =      70.0000  Ry
     charge density cutoff     =     490.0000  Ry
     convergence threshold     =      1.0E-06
     mixing beta               =       0.7000
     number of iterations used =            8  plain     mixing
     Exchange-correlation      = RVV10 ( 1  4 13  4 3 0)

     celldm(1)=  23.293684  celldm(2)=   0.000000  celldm(3)=   0.811261
     celldm(4)=   0.000000  celldm(5)=   0.000000  celldm(6)=   0.000000

     crystal axes: (cart. coord. in units of alat)
               a(1) = (   1.000000   0.000000   0.000000 )
               a(2) = (  -0.500000   0.866025   0.000000 )
               a(3) = (   0.000000   0.000000   0.811261 )

     reciprocal axes: (cart. coord. in units 2 pi/alat)
               b(1) = (  1.000000  0.577350 -0.000000 )
               b(2) = (  0.000000  1.154701  0.000000 )
               b(3) = (  0.000000 -0.000000  1.232649 )

     PseudoPot. # 1 for H  read from file:
     /home/cristian/Escritorio/Proyecto_Grafeno/pseudopotenciales/H.pbe-rrkjus.UPF
     MD5 check sum: 7cc9d459525c9a0585f487a71c3c9563
     Pseudo is Ultrasoft, Zval =  1.0
     Generated by new atomic code, or converted to UPF format
     Using radial grid of 1061 points,  2 beta functions with:
                l(1) =   0
                l(2) =   0
     Q(r) pseudized with 0 coefficients

     PseudoPot. # 2 for C  read from file:
     /home/cristian/Escritorio/Proyecto_Grafeno/pseudopotenciales/C.pbe-n-rrkjus_psl.1.0.0.UPF
     MD5 check sum: 1fdd950c42eb37d8afe3dd2f8d12311e
     Pseudo is Ultrasoft + core correction, Zval =  4.0
     Generated using "atomic" code by A. Dal Corso v.6.3MaX
     Using radial grid of 1073 points,  4 beta functions with:
                l(1) =   0
                l(2) =   0
                l(3) =   1
                l(4) =   1
     Q(r) pseudized with 0 coefficients

     PseudoPot. # 3 for Cr read from file:
     /home/cristian/Escritorio/Proyecto_Grafeno/pseudopotenciales/Cr.pbe-spn-rrkjus_psl.1.0.0.UPF
     MD5 check sum: 793d051e4f89dd1e3290b85340a92c0a
     Pseudo is Ultrasoft + core correction, Zval = 14.0
     Generated using "atomic" code by A. Dal Corso v.6.2.2
     Using radial grid of 1183 points,  6 beta functions with:
                l(1) =   0
                l(2) =   0
                l(3) =   1
                l(4) =   1
                l(5) =   2
                l(6) =   2
     Q(r) pseudized with 0 coefficients

     vdW kernel table read from file rVV10_kernel_table
     MD5 check sum: b8e2538accc0c0b3206b45ba4daaba6c

     atomic species   valence    mass     pseudopotential
        H              1.00     1.00794     H ( 1.00)
        C              4.00    12.01070     C ( 1.00)
        Cr            14.00    51.99610     Cr( 1.00)

     Starting magnetic structure
     atomic species   magnetization
        H            0.500
        C            0.300
        Cr           0.800

      2 Sym. Ops. (no inversion) found

                                    s                        frac. trans.

      isym =  1     identity

 cryst.   s( 1) = (     1          0          0      )
                  (     0          1          0      )
                  (     0          0          1      )

 cart.    s( 1) = (  1.0000000  0.0000000  0.0000000 )
                  (  0.0000000  1.0000000  0.0000000 )
                  (  0.0000000  0.0000000  1.0000000 )

      isym =  2     inv. 180 deg rotation - cryst. axis [1,1,0]

 cryst.   s( 2) = (     0         -1          0      )
                  (    -1          0          0      )
                  (     0          0          1      )

 cart.    s( 2) = (  0.5000000 -0.8660254  0.0000000 )
                  ( -0.8660254 -0.5000000  0.0000000 )
                  (  0.0000000  0.0000000  1.0000000 )

     point group C_s (m)
     there are  2 classes
     the character table:

       E     s
A'     1.00  1.00
A''    1.00 -1.00

     the symmetry operations in each class and the name of the first element:

     E        1
          identity
     s        2
          inv. 180 deg rotation - cryst. axis [1,1,0]

   Cartesian axes

     site n.     atom                  positions (alat units)
         1           H   tau(   1) = (   0.2000000   0.4618802   0.2433783  )
         2           H   tau(   2) = (   0.2000000   0.4618802   0.3043910  )
         3           C   tau(   3) = (   0.0000000   0.0000000   0.0000000  )
         4           C   tau(   4) = (   0.0000000   0.1154701   0.0000000  )
         5           C   tau(   5) = (  -0.1000000   0.1732051   0.0000000  )
         6           C   tau(   6) = (  -0.1000000   0.2886751   0.0000000  )
         7           C   tau(   7) = (  -0.2000000   0.3464102   0.0000000  )
         8           C   tau(   8) = (  -0.2000000   0.4618802   0.0000000  )
         9           C   tau(   9) = (  -0.3000000   0.5196152   0.0000000  )
        10           C   tau(  10) = (  -0.3000000   0.6350853   0.0000000  )
        11           C   tau(  11) = (  -0.4000000   0.6928203   0.0000000  )
        12           C   tau(  12) = (  -0.4000000   0.8082904   0.0000000  )
        13           C   tau(  13) = (   0.2000000   0.0000000   0.0000000  )
        14           C   tau(  14) = (   0.2000000   0.1154701   0.0000000  )
        15           C   tau(  15) = (   0.1000000   0.1732051   0.0000000  )
        16           C   tau(  16) = (   0.1000000   0.2886751   0.0000000  )
        17           C   tau(  17) = (   0.0000000   0.3464102   0.0000000  )
        18           C   tau(  18) = (   0.0000000   0.4618802   0.0000000  )
        19           C   tau(  19) = (  -0.1000000   0.5196152   0.0000000  )
        20           C   tau(  20) = (  -0.1000000   0.6350853   0.0000000  )
        21           C   tau(  21) = (  -0.2000000   0.6928203   0.0000000  )
        22           C   tau(  22) = (  -0.2000000   0.8082904   0.0000000  )
        23           C   tau(  23) = (   0.4000000   0.0000000   0.0000000  )
        24           C   tau(  24) = (   0.4000000   0.1154701   0.0000000  )
        25           C   tau(  25) = (   0.3000000   0.1732051   0.0000000  )
        26           C   tau(  26) = (   0.3000000   0.2886751   0.0000000  )
        27           C   tau(  27) = (   0.2000000   0.3464102   0.0000000  )
        28           Cr  tau(  28) = (   0.2000000   0.4618802   0.0000000  )
        29           C   tau(  29) = (   0.1000000   0.5196152   0.0000000  )
        30           C   tau(  30) = (   0.1000000   0.6350853   0.0000000  )
        31           C   tau(  31) = (   0.0000000   0.6928203   0.0000000  )
        32           C   tau(  32) = (   0.0000000   0.8082904   0.0000000  )
        33           C   tau(  33) = (   0.6000000   0.0000000   0.0000000  )
        34           C   tau(  34) = (   0.6000000   0.1154701   0.0000000  )
        35           C   tau(  35) = (   0.5000000   0.1732051   0.0000000  )
        36           C   tau(  36) = (   0.5000000   0.2886751   0.0000000  )
        37           C   tau(  37) = (   0.4000000   0.3464102   0.0000000  )
        38           C   tau(  38) = (   0.4000000   0.4618802   0.0000000  )
        39           C   tau(  39) = (   0.3000000   0.5196152   0.0000000  )
        40           C   tau(  40) = (   0.3000000   0.6350853   0.0000000  )
        41           C   tau(  41) = (   0.2000000   0.6928203   0.0000000  )
        42           C   tau(  42) = (   0.2000000   0.8082904   0.0000000  )
        43           C   tau(  43) = (   0.8000000   0.0000000   0.0000000  )
        44           C   tau(  44) = (   0.8000000   0.1154701   0.0000000  )
        45           C   tau(  45) = (   0.7000000   0.1732051   0.0000000  )
        46           C   tau(  46) = (   0.7000000   0.2886751   0.0000000  )
        47           C   tau(  47) = (   0.6000000   0.3464102   0.0000000  )
        48           C   tau(  48) = (   0.6000000   0.4618802   0.0000000  )
        49           C   tau(  49) = (   0.5000000   0.5196152   0.0000000  )
        50           C   tau(  50) = (   0.5000000   0.6350853   0.0000000  )
        51           C   tau(  51) = (   0.4000000   0.6928203   0.0000000  )
        52           C   tau(  52) = (   0.4000000   0.8082904   0.0000000  )

   Crystallographic axes

     site n.     atom                  positions (cryst. coord.)
         1           H   tau(   1) = (  0.4666667  0.5333333  0.3000000  )
         2           H   tau(   2) = (  0.4666667  0.5333333  0.3752072  )
         3           C   tau(   3) = (  0.0000000  0.0000000  0.0000000  )
         4           C   tau(   4) = (  0.0666667  0.1333333  0.0000000  )
         5           C   tau(   5) = (  0.0000000  0.2000000  0.0000000  )
         6           C   tau(   6) = (  0.0666667  0.3333333  0.0000000  )
         7           C   tau(   7) = (  0.0000000  0.4000000  0.0000000  )
         8           C   tau(   8) = (  0.0666667  0.5333333  0.0000000  )
         9           C   tau(   9) = (  0.0000000  0.6000000  0.0000000  )
        10           C   tau(  10) = (  0.0666667  0.7333333  0.0000000  )
        11           C   tau(  11) = (  0.0000000  0.8000000  0.0000000  )
        12           C   tau(  12) = (  0.0666667  0.9333333  0.0000000  )
        13           C   tau(  13) = (  0.2000000  0.0000000  0.0000000  )
        14           C   tau(  14) = (  0.2666667  0.1333333  0.0000000  )
        15           C   tau(  15) = (  0.2000000  0.2000000  0.0000000  )
        16           C   tau(  16) = (  0.2666667  0.3333333  0.0000000  )
        17           C   tau(  17) = (  0.2000000  0.4000000  0.0000000  )
        18           C   tau(  18) = (  0.2666667  0.5333333  0.0000000  )
        19           C   tau(  19) = (  0.2000000  0.6000000  0.0000000  )
        20           C   tau(  20) = (  0.2666667  0.7333333  0.0000000  )
        21           C   tau(  21) = (  0.2000000  0.8000000  0.0000000  )
        22           C   tau(  22) = (  0.2666667  0.9333333  0.0000000  )
[...]
        42           C   tau(  42) = (  0.6666667  0.9333333  0.0000000  )
        43           C   tau(  43) = (  0.8000000  0.0000000  0.0000000  )
        44           C   tau(  44) = (  0.8666667  0.1333333  0.0000000  )
        45           C   tau(  45) = (  0.8000000  0.2000000  0.0000000  )
        46           C   tau(  46) = (  0.8666667  0.3333333  0.0000000  )
        47           C   tau(  47) = (  0.8000000  0.4000000  0.0000000  )
        48           C   tau(  48) = (  0.8666667  0.5333333  0.0000000  )
        49           C   tau(  49) = (  0.8000000  0.6000000  0.0000000  )
        50           C   tau(  50) = (  0.8666667  0.7333333  0.0000000  )
        51           C   tau(  51) = (  0.8000000  0.8000000  0.0000000  )
        52           C   tau(  52) = (  0.8666667  0.9333333  0.0000000  )

     number of k points=     1  Marzari-Vanderbilt smearing, width (Ry)=  0.0010
                       cart. coord. in units 2pi/alat
        k(    1) = (   0.0000000   0.0000000   0.0000000), wk =   1.0000000

                       cryst. coord.
        k(    1) = (   0.0000000   0.0000000   0.0000000), wk =   1.0000000

     Check: negative core charge=   -0.000002

     Initial potential from superposition of free atoms

     starting charge  211.80478, renormalised to  212.00000

     negative rho (up, down):  4.734E-04 2.117E-02

Carrying out rVV10 run using the following parameters:
Nqs =      20    Nr_points =    1024   r_max =   100.000
b_value =  6.30000    beta =  0.00901
     q_mesh =  0.00010000  0.00030000  0.00058939  0.00100810
               0.00161396  0.00249058  0.00375900  0.00559430
               0.00824984  0.01209221  0.01765183  0.02569619
               0.03733578  0.05417739  0.07854596  0.11380545
               0.16482331  0.23864234  0.34545298  0.50000000

Gradients computed in Reciprocal space

     Starting wfcs are  208 randomized atomic wfcs

     Self-consistent Calculation

     iteration #  1     ecut=    70.00 Ry     beta= 0.70
     Davidson diagonalization with overlap
     ethr =  1.00E-02,  avg # of iterations =  2.5

[...]

     total energy              =    -784.49258290 Ry
     Harris-Foulkes estimate   =    -786.13467772 Ry
     estimated scf accuracy    <       9.85988691 Ry

     total magnetization       =     4.00 Bohr mag/cell
     absolute magnetization    =     5.44 Bohr mag/cell

[...]

     Magnetic moment per site:
     atom:    1    charge:    0.2130    magn:   -0.0001    constr:    0.0000
     atom:    2    charge:    0.2089    magn:    0.0000    constr:    0.0000
     atom:    3    charge:    1.7181    magn:   -0.0133    constr:    0.0000
     atom:    4    charge:    1.7173    magn:    0.0188    constr:    0.0000
     atom:    5    charge:    1.7194    magn:   -0.0102    constr:    0.0000
     atom:    6    charge:    1.7165    magn:    0.0067    constr:    0.0000
     atom:    7    charge:    1.7173    magn:   -0.0100    constr:    0.0000
     atom:    8    charge:    1.7154    magn:    0.0187    constr:    0.0000
     atom:    9    charge:    1.7133    magn:   -0.0134    constr:    0.0000
     atom:   10    charge:    1.7129    magn:    0.0594    constr:    0.0000
     atom:   11    charge:    1.7153    magn:   -0.0189    constr:    0.0000
     atom:   12    charge:    1.7139    magn:    0.0593    constr:    0.0000
     atom:   13    charge:    1.7153    magn:   -0.0189    constr:    0.0000
     atom:   14    charge:    1.7163    magn:    0.0477    constr:    0.0000
     atom:   15    charge:    1.7165    magn:   -0.0165    constr:    0.0000
     atom:   16    charge:    1.7156    magn:    0.0648    constr:    0.0000
     atom:   17    charge:    1.7272    magn:   -0.0150    constr:    0.0000
     atom:   18    charge:    1.7151    magn:    0.0645    constr:    0.0000
     atom:   19    charge:    1.7142    magn:   -0.0159    constr:    0.0000
     atom:   20    charge:    1.7171    magn:    0.0470    constr:    0.0000
     atom:   21    charge:    1.7140    magn:   -0.0186    constr:    0.0000
     atom:   22    charge:    1.7129    magn:    0.0594    constr:    0.0000
     atom:   23    charge:    1.7133    magn:   -0.0134    constr:    0.0000
     atom:   24    charge:    1.7125    magn:    0.0189    constr:    0.0000
     atom:   25    charge:    1.7140    magn:   -0.0166    constr:    0.0000
     atom:   26    charge:    1.7136    magn:    0.0654    constr:    0.0000
     atom:   27    charge:    1.9147    magn:   -0.0312    constr:    0.0000
     atom:   28    charge:    8.8796    magn:    0.3505    constr:    0.0000
     atom:   29    charge:    1.9136    magn:   -0.0304    constr:    0.0000
     atom:   30    charge:    1.7151    magn:    0.0645    constr:    0.0000
     atom:   31    charge:    1.7142    magn:   -0.0159    constr:    0.0000
     atom:   32    charge:    1.7154    magn:    0.0187    constr:    0.0000
     atom:   33    charge:    1.7173    magn:   -0.0100    constr:    0.0000
     atom:   34    charge:    1.7145    magn:    0.0135    constr:    0.0000
     atom:   35    charge:    1.7146    magn:   -0.0101    constr:    0.0000
     atom:   36    charge:    1.7116    magn:    0.0067    constr:    0.0000
     atom:   37    charge:    1.7238    magn:   -0.0150    constr:    0.0000
     atom:   38    charge:    1.7136    magn:    0.0654    constr:    0.0000
     atom:   39    charge:    1.9147    magn:   -0.0312    constr:    0.0000
     atom:   40    charge:    1.7156    magn:    0.0648    constr:    0.0000
     atom:   41    charge:    1.7272    magn:   -0.0150    constr:    0.0000
     atom:   42    charge:    1.7165    magn:    0.0067    constr:    0.0000
     atom:   43    charge:    1.7194    magn:   -0.0102    constr:    0.0000
     atom:   44    charge:    1.7171    magn:    0.0136    constr:    0.0000
     atom:   45    charge:    1.7233    magn:   -0.0069    constr:    0.0000
     atom:   46    charge:    1.7145    magn:    0.0135    constr:    0.0000
     atom:   47    charge:    1.7146    magn:   -0.0101    constr:    0.0000
     atom:   48    charge:    1.7125    magn:    0.0189    constr:    0.0000
     atom:   49    charge:    1.7140    magn:   -0.0166    constr:    0.0000
     atom:   50    charge:    1.7163    magn:    0.0477    constr:    0.0000
     atom:   51    charge:    1.7165    magn:   -0.0165    constr:    0.0000
     atom:   52    charge:    1.7173    magn:    0.0188    constr:    0.0000

[...]

     total energy              =    -786.97252495 Ry
     Harris-Foulkes estimate   =    -786.97252003 Ry
     estimated scf accuracy    <       0.00000126 Ry

[...]

     iteration #266     ecut=    70.00 Ry     beta= 0.70
     Davidson diagonalization with overlap
     ethr =  5.96E-10,  avg # of iterations =  3.0

     negative rho (up, down):  4.016E-02 2.839E-02

     Magnetic moment per site:
     atom:    1    charge:    0.2127    magn:   -0.0000    constr:    0.0000
     atom:    2    charge:    0.2089    magn:   -0.0000    constr:    0.0000
     atom:    3    charge:    1.7170    magn:   -0.0122    constr:    0.0000
     atom:    4    charge:    1.7158    magn:    0.0180    constr:    0.0000
     atom:    5    charge:    1.7178    magn:   -0.0083    constr:    0.0000
     atom:    6    charge:    1.7142    magn:    0.0059    constr:    0.0000
     atom:    7    charge:    1.7177    magn:   -0.0083    constr:    0.0000
     atom:    8    charge:    1.7158    magn:    0.0181    constr:    0.0000
     atom:    9    charge:    1.7169    magn:   -0.0122    constr:    0.0000
     atom:   10    charge:    1.7162    magn:    0.0595    constr:    0.0000
     atom:   11    charge:    1.7173    magn:   -0.0183    constr:    0.0000
     atom:   12    charge:    1.7161    magn:    0.0592    constr:    0.0000
     atom:   13    charge:    1.7173    magn:   -0.0183    constr:    0.0000
     atom:   14    charge:    1.7164    magn:    0.0476    constr:    0.0000
     atom:   15    charge:    1.7146    magn:   -0.0160    constr:    0.0000
     atom:   16    charge:    1.7127    magn:    0.0644    constr:    0.0000
     atom:   17    charge:    1.7248    magn:   -0.0109    constr:    0.0000
     atom:   18    charge:    1.7125    magn:    0.0642    constr:    0.0000
     atom:   19    charge:    1.7146    magn:   -0.0159    constr:    0.0000
     atom:   20    charge:    1.7164    magn:    0.0474    constr:    0.0000
     atom:   21    charge:    1.7173    magn:   -0.0183    constr:    0.0000
     atom:   22    charge:    1.7162    magn:    0.0595    constr:    0.0000
     atom:   23    charge:    1.7169    magn:   -0.0122    constr:    0.0000
     atom:   24    charge:    1.7158    magn:    0.0181    constr:    0.0000
     atom:   25    charge:    1.7146    magn:   -0.0161    constr:    0.0000
     atom:   26    charge:    1.7127    magn:    0.0648    constr:    0.0000
     atom:   27    charge:    1.9073    magn:   -0.0269    constr:    0.0000
     atom:   28    charge:    8.9024    magn:    0.3471    constr:    0.0000
     atom:   29    charge:    1.9072    magn:   -0.0271    constr:    0.0000
     atom:   30    charge:    1.7125    magn:    0.0642    constr:    0.0000
     atom:   31    charge:    1.7146    magn:   -0.0159    constr:    0.0000
     atom:   32    charge:    1.7158    magn:    0.0181    constr:    0.0000
     atom:   33    charge:    1.7177    magn:   -0.0083    constr:    0.0000
     atom:   34    charge:    1.7143    magn:    0.0122    constr:    0.0000
     atom:   35    charge:    1.7177    magn:   -0.0083    constr:    0.0000
     atom:   36    charge:    1.7142    magn:    0.0059    constr:    0.0000
     atom:   37    charge:    1.7247    magn:   -0.0110    constr:    0.0000
     atom:   38    charge:    1.7127    magn:    0.0648    constr:    0.0000
     atom:   39    charge:    1.9073    magn:   -0.0269    constr:    0.0000
     atom:   40    charge:    1.7127    magn:    0.0644    constr:    0.0000
     atom:   41    charge:    1.7248    magn:   -0.0109    constr:    0.0000
     atom:   42    charge:    1.7142    magn:    0.0059    constr:    0.0000
     atom:   43    charge:    1.7178    magn:   -0.0083    constr:    0.0000
     atom:   44    charge:    1.7143    magn:    0.0122    constr:    0.0000
     atom:   45    charge:    1.7235    magn:   -0.0003    constr:    0.0000
     atom:   46    charge:    1.7143    magn:    0.0122    constr:    0.0000
     atom:   47    charge:    1.7177    magn:   -0.0083    constr:    0.0000
     atom:   48    charge:    1.7158    magn:    0.0181    constr:    0.0000
     atom:   49    charge:    1.7146    magn:   -0.0161    constr:    0.0000
     atom:   50    charge:    1.7164    magn:    0.0476    constr:    0.0000
     atom:   51    charge:    1.7146    magn:   -0.0160    constr:    0.0000
     atom:   52    charge:    1.7158    magn:    0.0180    constr:    0.0000

     End of self-consistent calculation

 ------ SPIN UP ------------

          k = 0.0000 0.0000 0.0000 ( 87777 PWs)   bands (ev):

   -72.1159 -44.5223 -44.4733 -43.6703 -19.6531 -18.8224 -18.8193 -18.7175
   -18.7163 -18.7152 -18.3630 -16.9674 -16.9669 -16.9595 -16.8675 -16.8666
   -16.5447 -16.1213 -16.1204 -16.0077 -15.9372 -15.9369 -15.2089 -13.9910
   -13.9899 -13.9568 -13.8674 -13.8669 -13.1941 -12.9495 -12.9493 -12.9238
   -12.5981 -12.5963 -12.1604 -11.7147 -11.7132 -11.5464 -11.2492 -11.2472
   -10.2706  -9.4952  -9.4935  -9.3360  -9.2056  -9.2056  -9.0975  -9.0732
    -9.0727  -9.0560  -8.5510  -8.5478  -8.0014  -8.0006  -7.9003  -7.8383
    -7.7131  -7.2955  -7.2931  -7.1160  -7.1114  -7.0781  -6.9853  -6.7162
    -6.7160  -6.7136  -6.7119  -6.7059  -6.6047  -6.4450  -6.4443  -6.4109
    -6.4068  -6.4018  -6.4009  -6.3553  -5.4708  -5.4658  -5.3460  -5.3405
    -5.0716  -5.0703  -4.8618  -4.7684  -4.6491  -4.6361  -4.6361  -4.3116
    -4.2753  -4.0824  -4.0818  -3.7893  -3.7885  -3.6810  -3.6360  -3.6090
    -3.5206  -3.5206  -2.9955  -2.5128  -2.5115  -1.8187  -1.6864  -1.6860
    -0.7921  -0.7877  -0.6754  -0.5306   0.9892   1.0703   1.0708   1.7222
     1.8055   1.8062   2.4765   2.8574   2.8583   2.9539   3.3217   3.3504
     3.4171   3.6940   3.7139   3.7314   3.7322   3.7332   3.7533

     occupation numbers
     1.0000   1.0000   1.0000   1.0000   1.0000   1.0000   1.0000   1.0000
     1.0000   1.0000   1.0000   1.0000   1.0000   1.0000   1.0000   1.0000
     1.0000   1.0000   1.0000   1.0000   1.0000   1.0000   1.0000   1.0000
     1.0000   1.0000   1.0000   1.0000   1.0000   1.0000   1.0000   1.0000
     1.0000   1.0000   1.0000   1.0000   1.0000   1.0000   1.0000   1.0000
     1.0000   1.0000   1.0000   1.0000   1.0000   1.0000   1.0000   1.0000
     1.0000   1.0000   1.0000   1.0000   1.0000   1.0000   1.0000   1.0000
     1.0000   1.0000   1.0000   1.0000   1.0000   1.0000   1.0000   1.0000
     1.0000   1.0000   1.0000   1.0000   1.0000   1.0000   1.0000   1.0000
     1.0000   1.0000   1.0000   1.0000   1.0000   1.0000   1.0000   1.0000
     1.0000   1.0000   1.0000   1.0000   1.0000   1.0000   1.0000   1.0000
     1.0000   1.0000   1.0000   1.0000   1.0000   1.0000   1.0000   1.0000
     1.0000   1.0000   1.0000   1.0000   1.0000   1.0000   1.0000   1.0000
     1.0000   1.0000   1.0388   0.0000   0.0000   0.0000   0.0000   0.0000
     0.0000   0.0000   0.0000   0.0000   0.0000   0.0000   0.0000   0.0000
     0.0000   0.0000   0.0000   0.0000   0.0000   0.0000   0.0000

 ------ SPIN DOWN ----------

          k = 0.0000 0.0000 0.0000 ( 87777 PWs)   bands (ev):

   -71.4721 -43.8448 -43.7611 -42.8105 -19.6100 -18.7747 -18.7713 -18.6903
   -18.6891 -18.6744 -18.2984 -16.9289 -16.9279 -16.9270 -16.8176 -16.8164
   -16.5146 -16.0693 -16.0686 -15.9734 -15.9048 -15.9042 -15.1830 -13.9312
   -13.9297 -13.8812 -13.8558 -13.8553 -13.1981 -12.9246 -12.9243 -12.8902
   -12.5964 -12.5950 -12.1283 -11.6774 -11.6759 -11.5210 -11.2472 -11.2458
   -10.2494  -9.4619  -9.4601  -9.3028  -9.1704  -9.1704  -9.0808  -9.0467
    -9.0463  -9.0372  -8.5642  -8.5615  -7.9760  -7.9750  -7.8868  -7.7353
    -7.6932  -7.2924  -7.2901  -7.0700  -6.9559  -6.9444  -6.9387  -6.6970
    -6.6951  -6.6541  -6.6539  -6.6037  -6.5859  -6.4232  -6.4224  -6.3947
    -6.3903  -6.3895  -6.3375  -6.2617  -5.3770  -5.3705  -5.2954  -5.2852
    -5.0574  -5.0562  -4.8466  -4.7573  -4.5686  -4.5315  -4.5314  -4.2657
    -4.1980  -3.9797  -3.9780  -3.7787  -3.7538  -3.6441  -3.6431  -3.5838
    -3.4942  -3.4942  -2.9325  -2.3468  -2.3414  -1.6574  -1.6570  -1.6317
    -0.6591  -0.2914  -0.2659  -0.2613   1.1149   1.1153   1.1529   1.8677
     1.9536   1.9583   2.4509   3.0027   3.0038   3.0348   3.0395   3.1016
     3.4151   3.5060   3.5205   3.7039   3.7062   3.7564   3.8945

     occupation numbers
     1.0000   1.0000   1.0000   1.0000   1.0000   1.0000   1.0000   1.0000
     1.0000   1.0000   1.0000   1.0000   1.0000   1.0000   1.0000   1.0000
     1.0000   1.0000   1.0000   1.0000   1.0000   1.0000   1.0000   1.0000
     1.0000   1.0000   1.0000   1.0000   1.0000   1.0000   1.0000   1.0000
     1.0000   1.0000   1.0000   1.0000   1.0000   1.0000   1.0000   1.0000
     1.0000   1.0000   1.0000   1.0000   1.0000   1.0000   1.0000   1.0000
     1.0000   1.0000   1.0000   1.0000   1.0000   1.0000   1.0000   1.0000
     1.0000   1.0000   1.0000   1.0000   1.0000   1.0000   1.0000   1.0000
     1.0000   1.0000   1.0000   1.0000   1.0000   1.0000   1.0000   1.0000
     1.0000   1.0000   1.0000   1.0000   1.0000   1.0000   1.0000   1.0000
     1.0000   1.0000   1.0000   1.0000   1.0000   1.0000   1.0000   1.0000
     1.0000   1.0000   1.0000   1.0000   1.0000   1.0000   1.0000   1.0000
     1.0000   1.0000   1.0000   1.0000   1.0000   1.0000   1.0000   1.0000
     0.9612   0.0000   0.0000   0.0000   0.0000   0.0000   0.0000   0.0000
     0.0000   0.0000   0.0000   0.0000   0.0000   0.0000   0.0000   0.0000
     0.0000   0.0000   0.0000   0.0000   0.0000   0.0000   0.0000

     the Fermi energy is    -0.6478 ev

!    total energy              =    -786.97257454 Ry
     Harris-Foulkes estimate   =    -786.97252585 Ry
     estimated scf accuracy    <       0.00000055 Ry

     The total energy is the sum of the following terms:

     one-electron contribution =   -2642.69562310 Ry
     hartree contribution      =    1367.11331948 Ry
     xc contribution           =    -254.58144334 Ry
     ewald contribution        =     743.19103272 Ry
     smearing contrib. (-TS)   =       0.00013970 Ry

     total magnetization       =     2.08 Bohr mag/cell
     absolute magnetization    =     3.51 Bohr mag/cell

     convergence has been achieved in 266 iterations

     Writing output data file distance-3.0.save/

     General routines

     Parallel routines

   This run was terminated on:  20:55:59  15Aug2022

   JOB DONE.