     Program PWSCF v.6.4.1 starts on 15Aug2022 at  8: 1:38

     R & G space division:  proc/nbgrp/npool/nimage =       6
     Reading input from distance-4.0.in

     Current dimensions of program PWSCF are:
     Max number of different atomic species (ntypx) = 10
     Max number of k-points (npk) =  40000
     Max angular momentum in pseudopotentials (lmaxx) =  3

     IMPORTANT: XC functional enforced from input :
     Exchange-correlation      = RVV10 ( 1  4 13  4 3 0)
     Any further DFT definition will be discarded
     Please, verify this is what you really want

               file H.pbe-rrkjus.UPF: wavefunction(s)  1S renormalized
               file Cr.pbe-spn-rrkjus_psl.1.0.0.UPF: wavefunction(s)  3P renormalized

     Subspace diagonalization in iterative solution of the eigenvalue problem:
     a serial algorithm will be used

     bravais-lattice index     =            4
     lattice parameter (alat)  =      23.2937  a.u.
     unit-cell volume          =    8879.8548 (a.u.)^3
     number of atoms/cell      =           52
     number of atomic types    =            3
     number of electrons       =       212.00
     number of Kohn-Sham states=          127
     kinetic-energy cutoff     =      70.0000  Ry
     charge density cutoff     =     490.0000  Ry
     convergence threshold     =      1.0E-06
     mixing beta               =       0.7000
     number of iterations used =            8  plain     mixing
     Exchange-correlation      = RVV10 ( 1  4 13  4 3 0)

     celldm(1)=  23.293684  celldm(2)=   0.000000  celldm(3)=   0.811261
     celldm(4)=   0.000000  celldm(5)=   0.000000  celldm(6)=   0.000000

     crystal axes: (cart. coord. in units of alat)
               a(1) = (   1.000000   0.000000   0.000000 )
               a(2) = (  -0.500000   0.866025   0.000000 )
               a(3) = (   0.000000   0.000000   0.811261 )

     reciprocal axes: (cart. coord. in units 2 pi/alat)
               b(1) = (  1.000000  0.577350 -0.000000 )
               b(2) = (  0.000000  1.154701  0.000000 )
               b(3) = (  0.000000 -0.000000  1.232649 )

     PseudoPot. # 1 for H  read from file:
     /home/cristian/Escritorio/Proyecto_Grafeno/pseudopotenciales/H.pbe-rrkjus.UPF
     MD5 check sum: 7cc9d459525c9a0585f487a71c3c9563
     Pseudo is Ultrasoft, Zval =  1.0
     Generated by new atomic code, or converted to UPF format
     Using radial grid of 1061 points,  2 beta functions with:
                l(1) =   0
                l(2) =   0
     Q(r) pseudized with 0 coefficients

     PseudoPot. # 2 for C  read from file:
     /home/cristian/Escritorio/Proyecto_Grafeno/pseudopotenciales/C.pbe-n-rrkjus_psl.1.0.0.UPF
     MD5 check sum: 1fdd950c42eb37d8afe3dd2f8d12311e
     Pseudo is Ultrasoft + core correction, Zval =  4.0
     Generated using "atomic" code by A. Dal Corso v.6.3MaX
     Using radial grid of 1073 points,  4 beta functions with:
                l(1) =   0
                l(2) =   0
                l(3) =   1
                l(4) =   1
     Q(r) pseudized with 0 coefficients

     PseudoPot. # 3 for Cr read from file:
     /home/cristian/Escritorio/Proyecto_Grafeno/pseudopotenciales/Cr.pbe-spn-rrkjus_psl.1.0.0.UPF
     MD5 check sum: 793d051e4f89dd1e3290b85340a92c0a
     Pseudo is Ultrasoft + core correction, Zval = 14.0
     Generated using "atomic" code by A. Dal Corso v.6.2.2
     Using radial grid of 1183 points,  6 beta functions with:
                l(1) =   0
                l(2) =   0
                l(3) =   1
                l(4) =   1
                l(5) =   2
                l(6) =   2
     Q(r) pseudized with 0 coefficients

     vdW kernel table read from file rVV10_kernel_table
     MD5 check sum: b8e2538accc0c0b3206b45ba4daaba6c

     atomic species   valence    mass     pseudopotential
        H              1.00     1.00794     H ( 1.00)
        C              4.00    12.01070     C ( 1.00)
        Cr            14.00    51.99610     Cr( 1.00)

     Starting magnetic structure
     atomic species   magnetization
        H            0.500
        C            0.300
        Cr           0.800

      2 Sym. Ops. (no inversion) found

                                    s                        frac. trans.

      isym =  1     identity

 cryst.   s( 1) = (     1          0          0      )
                  (     0          1          0      )
                  (     0          0          1      )

 cart.    s( 1) = (  1.0000000  0.0000000  0.0000000 )
                  (  0.0000000  1.0000000  0.0000000 )
                  (  0.0000000  0.0000000  1.0000000 )

      isym =  2     inv. 180 deg rotation - cryst. axis [1,1,0]

 cryst.   s( 2) = (     0         -1          0      )
                  (    -1          0          0      )
                  (     0          0          1      )

 cart.    s( 2) = (  0.5000000 -0.8660254  0.0000000 )
                  ( -0.8660254 -0.5000000  0.0000000 )
                  (  0.0000000  0.0000000  1.0000000 )

     point group C_s (m)
     there are  2 classes
     the character table:

       E     s
A'     1.00  1.00
A''    1.00 -1.00

     the symmetry operations in each class and the name of the first element:

     E        1
          identity
     s        2
          inv. 180 deg rotation - cryst. axis [1,1,0]

   Cartesian axes

     site n.     atom                  positions (alat units)
         1           H   tau(   1) = (   0.2000000   0.4618802   0.3245045  )
         2           H   tau(   2) = (   0.2000000   0.4618802   0.3855171  )
         3           C   tau(   3) = (   0.0000000   0.0000000   0.0000000  )
         4           C   tau(   4) = (   0.0000000   0.1154701   0.0000000  )
         5           C   tau(   5) = (  -0.1000000   0.1732051   0.0000000  )
         6           C   tau(   6) = (  -0.1000000   0.2886751   0.0000000  )
         7           C   tau(   7) = (  -0.2000000   0.3464102   0.0000000  )
         8           C   tau(   8) = (  -0.2000000   0.4618802   0.0000000  )
         9           C   tau(   9) = (  -0.3000000   0.5196152   0.0000000  )
        10           C   tau(  10) = (  -0.3000000   0.6350853   0.0000000  )
        11           C   tau(  11) = (  -0.4000000   0.6928203   0.0000000  )
        12           C   tau(  12) = (  -0.4000000   0.8082904   0.0000000  )
        13           C   tau(  13) = (   0.2000000   0.0000000   0.0000000  )
        14           C   tau(  14) = (   0.2000000   0.1154701   0.0000000  )
        15           C   tau(  15) = (   0.1000000   0.1732051   0.0000000  )
        16           C   tau(  16) = (   0.1000000   0.2886751   0.0000000  )
        17           C   tau(  17) = (   0.0000000   0.3464102   0.0000000  )
        18           C   tau(  18) = (   0.0000000   0.4618802   0.0000000  )
        19           C   tau(  19) = (  -0.1000000   0.5196152   0.0000000  )
        20           C   tau(  20) = (  -0.1000000   0.6350853   0.0000000  )
        21           C   tau(  21) = (  -0.2000000   0.6928203   0.0000000  )
        22           C   tau(  22) = (  -0.2000000   0.8082904   0.0000000  )
        23           C   tau(  23) = (   0.4000000   0.0000000   0.0000000  )
        24           C   tau(  24) = (   0.4000000   0.1154701   0.0000000  )
        25           C   tau(  25) = (   0.3000000   0.1732051   0.0000000  )
        26           C   tau(  26) = (   0.3000000   0.2886751   0.0000000  )
        27           C   tau(  27) = (   0.2000000   0.3464102   0.0000000  )
        28           Cr  tau(  28) = (   0.2000000   0.4618802   0.0000000  )
        29           C   tau(  29) = (   0.1000000   0.5196152   0.0000000  )
        30           C   tau(  30) = (   0.1000000   0.6350853   0.0000000  )
        31           C   tau(  31) = (   0.0000000   0.6928203   0.0000000  )
        32           C   tau(  32) = (   0.0000000   0.8082904   0.0000000  )
        33           C   tau(  33) = (   0.6000000   0.0000000   0.0000000  )
        34           C   tau(  34) = (   0.6000000   0.1154701   0.0000000  )
        35           C   tau(  35) = (   0.5000000   0.1732051   0.0000000  )
        36           C   tau(  36) = (   0.5000000   0.2886751   0.0000000  )
        37           C   tau(  37) = (   0.4000000   0.3464102   0.0000000  )
        38           C   tau(  38) = (   0.4000000   0.4618802   0.0000000  )
        39           C   tau(  39) = (   0.3000000   0.5196152   0.0000000  )
        40           C   tau(  40) = (   0.3000000   0.6350853   0.0000000  )
        41           C   tau(  41) = (   0.2000000   0.6928203   0.0000000  )
        42           C   tau(  42) = (   0.2000000   0.8082904   0.0000000  )
        43           C   tau(  43) = (   0.8000000   0.0000000   0.0000000  )
        44           C   tau(  44) = (   0.8000000   0.1154701   0.0000000  )
        45           C   tau(  45) = (   0.7000000   0.1732051   0.0000000  )
        46           C   tau(  46) = (   0.7000000   0.2886751   0.0000000  )
        47           C   tau(  47) = (   0.6000000   0.3464102   0.0000000  )
        48           C   tau(  48) = (   0.6000000   0.4618802   0.0000000  )
        49           C   tau(  49) = (   0.5000000   0.5196152   0.0000000  )
        50           C   tau(  50) = (   0.5000000   0.6350853   0.0000000  )
        51           C   tau(  51) = (   0.4000000   0.6928203   0.0000000  )
        52           C   tau(  52) = (   0.4000000   0.8082904   0.0000000  )

   Crystallographic axes

     site n.     atom                  positions (cryst. coord.)
         1           H   tau(   1) = (  0.4666667  0.5333333  0.4000000  )
         2           H   tau(   2) = (  0.4666667  0.5333333  0.4752072  )
         3           C   tau(   3) = (  0.0000000  0.0000000  0.0000000  )
         4           C   tau(   4) = (  0.0666667  0.1333333  0.0000000  )
         5           C   tau(   5) = (  0.0000000  0.2000000  0.0000000  )
         6           C   tau(   6) = (  0.0666667  0.3333333  0.0000000  )
         7           C   tau(   7) = (  0.0000000  0.4000000  0.0000000  )
         8           C   tau(   8) = (  0.0666667  0.5333333  0.0000000  )
         9           C   tau(   9) = (  0.0000000  0.6000000  0.0000000  )
        10           C   tau(  10) = (  0.0666667  0.7333333  0.0000000  )
        11           C   tau(  11) = (  0.0000000  0.8000000  0.0000000  )
        12           C   tau(  12) = (  0.0666667  0.9333333  0.0000000  )
        13           C   tau(  13) = (  0.2000000  0.0000000  0.0000000  )
        14           C   tau(  14) = (  0.2666667  0.1333333  0.0000000  )
        15           C   tau(  15) = (  0.2000000  0.2000000  0.0000000  )
        16           C   tau(  16) = (  0.2666667  0.3333333  0.0000000  )
        17           C   tau(  17) = (  0.2000000  0.4000000  0.0000000  )
        18           C   tau(  18) = (  0.2666667  0.5333333  0.0000000  )
        19           C   tau(  19) = (  0.2000000  0.6000000  0.0000000  )
        20           C   tau(  20) = (  0.2666667  0.7333333  0.0000000  )
        21           C   tau(  21) = (  0.2000000  0.8000000  0.0000000  )
        22           C   tau(  22) = (  0.2666667  0.9333333  0.0000000  )
        23           C   tau(  23) = (  0.4000000  0.0000000  0.0000000  )
        24           C   tau(  24) = (  0.4666667  0.1333333  0.0000000  )
        25           C   tau(  25) = (  0.4000000  0.2000000  0.0000000  )
        26           C   tau(  26) = (  0.4666667  0.3333333  0.0000000  )
        27           C   tau(  27) = (  0.4000000  0.4000000  0.0000000  )
        28           Cr  tau(  28) = (  0.4666667  0.5333333  0.0000000  )
        29           C   tau(  29) = (  0.4000000  0.6000000  0.0000000  )
        30           C   tau(  30) = (  0.4666667  0.7333333  0.0000000  )
        31           C   tau(  31) = (  0.4000000  0.8000000  0.0000000  )
        32           C   tau(  32) = (  0.4666667  0.9333333  0.0000000  )
        33           C   tau(  33) = (  0.6000000  0.0000000  0.0000000  )
        34           C   tau(  34) = (  0.6666667  0.1333333  0.0000000  )
        35           C   tau(  35) = (  0.6000000  0.2000000  0.0000000  )
        36           C   tau(  36) = (  0.6666667  0.3333333  0.0000000  )
        37           C   tau(  37) = (  0.6000000  0.4000000  0.0000000  )
        38           C   tau(  38) = (  0.6666667  0.5333333  0.0000000  )
        39           C   tau(  39) = (  0.6000000  0.6000000  0.0000000  )
        40           C   tau(  40) = (  0.6666667  0.7333333  0.0000000  )
        41           C   tau(  41) = (  0.6000000  0.8000000  0.0000000  )
        42           C   tau(  42) = (  0.6666667  0.9333333  0.0000000  )
        43           C   tau(  43) = (  0.8000000  0.0000000  0.0000000  )
        44           C   tau(  44) = (  0.8666667  0.1333333  0.0000000  )
        45           C   tau(  45) = (  0.8000000  0.2000000  0.0000000  )
        46           C   tau(  46) = (  0.8666667  0.3333333  0.0000000  )
        47           C   tau(  47) = (  0.8000000  0.4000000  0.0000000  )
        48           C   tau(  48) = (  0.8666667  0.5333333  0.0000000  )
        49           C   tau(  49) = (  0.8000000  0.6000000  0.0000000  )
        50           C   tau(  50) = (  0.8666667  0.7333333  0.0000000  )
        51           C   tau(  51) = (  0.8000000  0.8000000  0.0000000  )
        52           C   tau(  52) = (  0.8666667  0.9333333  0.0000000  )

     number of k points=     1  Marzari-Vanderbilt smearing, width (Ry)=  0.0010
                       cart. coord. in units 2pi/alat
        k(    1) = (   0.0000000   0.0000000   0.0000000), wk =   1.0000000

                       cryst. coord.
        k(    1) = (   0.0000000   0.0000000   0.0000000), wk =   1.0000000

     Check: negative core charge=   -0.000002

     Initial potential from superposition of free atoms

     starting charge  211.80478, renormalised to  212.00000

     negative rho (up, down):  4.336E-04 1.890E-02

Carrying out rVV10 run using the following parameters:
Nqs =      20    Nr_points =    1024   r_max =   100.000
b_value =  6.30000    beta =  0.00901
     q_mesh =  0.00010000  0.00030000  0.00058939  0.00100810
               0.00161396  0.00249058  0.00375900  0.00559430
               0.00824984  0.01209221  0.01765183  0.02569619
               0.03733578  0.05417739  0.07854596  0.11380545
               0.16482331  0.23864234  0.34545298  0.50000000

Gradients computed in Reciprocal space

     Starting wfcs are  208 randomized atomic wfcs

     Self-consistent Calculation

     iteration #  1     ecut=    70.00 Ry     beta= 0.70
     Davidson diagonalization with overlap
     ethr =  1.00E-02,  avg # of iterations =  2.5

[...]

     total energy              =    -784.63699004 Ry
     Harris-Foulkes estimate   =    -786.12399772 Ry
     estimated scf accuracy    <       9.67859847 Ry

     total magnetization       =     4.00 Bohr mag/cell
     absolute magnetization    =     5.44 Bohr mag/cell

[...]

     total energy              =    -786.97603269 Ry
     Harris-Foulkes estimate   =    -786.97603439 Ry
     estimated scf accuracy    <       0.00000191 Ry

[...]

     iteration # 52     ecut=    70.00 Ry     beta= 0.70
     Davidson diagonalization with overlap
     ethr =  9.00E-10,  avg # of iterations =  3.0

     negative rho (up, down):  3.591E-02 7.462E-03

     Magnetic moment per site:
     atom:    1    charge:    0.2114    magn:    0.0000    constr:    0.0000
     atom:    2    charge:    0.2111    magn:    0.0000    constr:    0.0000
     atom:    3    charge:    1.7169    magn:   -0.0119    constr:    0.0000
     atom:    4    charge:    1.7158    magn:    0.0179    constr:    0.0000
     atom:    5    charge:    1.7177    magn:   -0.0077    constr:    0.0000
     atom:    6    charge:    1.7142    magn:    0.0056    constr:    0.0000
     atom:    7    charge:    1.7177    magn:   -0.0077    constr:    0.0000
     atom:    8    charge:    1.7158    magn:    0.0179    constr:    0.0000
     atom:    9    charge:    1.7169    magn:   -0.0119    constr:    0.0000
     atom:   10    charge:    1.7162    magn:    0.0599    constr:    0.0000
     atom:   11    charge:    1.7173    magn:   -0.0183    constr:    0.0000
     atom:   12    charge:    1.7162    magn:    0.0599    constr:    0.0000
     atom:   13    charge:    1.7173    magn:   -0.0183    constr:    0.0000
     atom:   14    charge:    1.7164    magn:    0.0478    constr:    0.0000
     atom:   15    charge:    1.7145    magn:   -0.0158    constr:    0.0000
     atom:   16    charge:    1.7127    magn:    0.0620    constr:    0.0000
     atom:   17    charge:    1.7248    magn:   -0.0092    constr:    0.0000
     atom:   18    charge:    1.7127    magn:    0.0620    constr:    0.0000
     atom:   19    charge:    1.7146    magn:   -0.0158    constr:    0.0000
     atom:   20    charge:    1.7165    magn:    0.0478    constr:    0.0000
     atom:   21    charge:    1.7173    magn:   -0.0183    constr:    0.0000
     atom:   22    charge:    1.7162    magn:    0.0599    constr:    0.0000
     atom:   23    charge:    1.7169    magn:   -0.0119    constr:    0.0000
     atom:   24    charge:    1.7158    magn:    0.0179    constr:    0.0000
     atom:   25    charge:    1.7145    magn:   -0.0158    constr:    0.0000
     atom:   26    charge:    1.7127    magn:    0.0620    constr:    0.0000
     atom:   27    charge:    1.9074    magn:   -0.0168    constr:    0.0000
     atom:   28    charge:    8.9042    magn:    0.3244    constr:    0.0000
     atom:   29    charge:    1.9075    magn:   -0.0168    constr:    0.0000
     atom:   30    charge:    1.7127    magn:    0.0620    constr:    0.0000
     atom:   31    charge:    1.7146    magn:   -0.0158    constr:    0.0000
     atom:   32    charge:    1.7158    magn:    0.0179    constr:    0.0000
     atom:   33    charge:    1.7177    magn:   -0.0077    constr:    0.0000
     atom:   34    charge:    1.7143    magn:    0.0120    constr:    0.0000
     atom:   35    charge:    1.7177    magn:   -0.0077    constr:    0.0000
     atom:   36    charge:    1.7142    magn:    0.0056    constr:    0.0000
     atom:   37    charge:    1.7248    magn:   -0.0092    constr:    0.0000
     atom:   38    charge:    1.7127    magn:    0.0620    constr:    0.0000
     atom:   39    charge:    1.9074    magn:   -0.0168    constr:    0.0000
     atom:   40    charge:    1.7127    magn:    0.0620    constr:    0.0000
     atom:   41    charge:    1.7248    magn:   -0.0092    constr:    0.0000
     atom:   42    charge:    1.7142    magn:    0.0056    constr:    0.0000
     atom:   43    charge:    1.7177    magn:   -0.0077    constr:    0.0000
     atom:   44    charge:    1.7143    magn:    0.0120    constr:    0.0000
     atom:   45    charge:    1.7235    magn:    0.0020    constr:    0.0000
     atom:   46    charge:    1.7143    magn:    0.0120    constr:    0.0000
     atom:   47    charge:    1.7177    magn:   -0.0077    constr:    0.0000
     atom:   48    charge:    1.7158    magn:    0.0179    constr:    0.0000
     atom:   49    charge:    1.7145    magn:   -0.0158    constr:    0.0000
     atom:   50    charge:    1.7164    magn:    0.0478    constr:    0.0000
     atom:   51    charge:    1.7145    magn:   -0.0158    constr:    0.0000
     atom:   52    charge:    1.7158    magn:    0.0179    constr:    0.0000

     End of self-consistent calculation

 ------ SPIN UP ------------

          k = 0.0000 0.0000 0.0000 ( 87777 PWs)   bands (ev):

   -72.1384 -44.4483 -44.4482 -43.6461 -19.6593 -18.8286 -18.8282 -18.7235
   -18.7231 -18.7209 -18.3711 -16.9736 -16.9736 -16.9655 -16.8767 -16.8767
   -16.5510 -16.1272 -16.1272 -16.0141 -15.9479 -15.9478 -15.2172 -14.0015
   -14.0015 -13.9626 -13.8727 -13.8727 -13.2017 -12.9559 -12.9559 -12.9296
   -12.6105 -12.6105 -12.1677 -11.7209 -11.7208 -11.5532 -11.2637 -11.2636
   -10.2798  -9.5054  -9.5054  -9.3423  -9.2122  -9.2121  -9.1031  -9.0786
    -9.0786  -9.0617  -8.5659  -8.5659  -8.0090  -8.0089  -7.9077  -7.8392
    -7.7186  -7.3053  -7.3052  -7.1244  -7.1241  -6.9986  -6.7676  -6.7254
    -6.7253  -6.7223  -6.7220  -6.7161  -6.6111  -6.4510  -6.4508  -6.4416
    -6.4121  -6.4070  -6.4069  -6.3614  -5.4800  -5.4798  -5.3669  -5.3668
    -5.0858  -5.0858  -4.8680  -4.7740  -4.6554  -4.6433  -4.6432  -4.3315
    -4.2823  -4.0891  -4.0889  -3.7954  -3.7954  -3.7237  -3.7235  -3.6883
    -3.5294  -3.5294  -3.0018  -2.5201  -2.5201  -1.8254  -1.6919  -1.6919
    -0.7945  -0.7944  -0.6753  -0.5391   0.9824   1.0642   1.0643   1.7253
     1.8001   1.8002   2.4771   2.8514   2.8514   2.9455   3.2234   3.2238
     3.3204   3.5710   3.5712   3.7011   3.7012   3.7280   3.7281

     occupation numbers
     1.0000   1.0000   1.0000   1.0000   1.0000   1.0000   1.0000   1.0000
     1.0000   1.0000   1.0000   1.0000   1.0000   1.0000   1.0000   1.0000
     1.0000   1.0000   1.0000   1.0000   1.0000   1.0000   1.0000   1.0000
     1.0000   1.0000   1.0000   1.0000   1.0000   1.0000   1.0000   1.0000
     1.0000   1.0000   1.0000   1.0000   1.0000   1.0000   1.0000   1.0000
     1.0000   1.0000   1.0000   1.0000   1.0000   1.0000   1.0000   1.0000
     1.0000   1.0000   1.0000   1.0000   1.0000   1.0000   1.0000   1.0000
     1.0000   1.0000   1.0000   1.0000   1.0000   1.0000   1.0000   1.0000
     1.0000   1.0000   1.0000   1.0000   1.0000   1.0000   1.0000   1.0000
     1.0000   1.0000   1.0000   1.0000   1.0000   1.0000   1.0000   1.0000
     1.0000   1.0000   1.0000   1.0000   1.0000   1.0000   1.0000   1.0000
     1.0000   1.0000   1.0000   1.0000   1.0000   1.0000   1.0000   1.0000
     1.0000   1.0000   1.0000   1.0000   1.0000   1.0000   1.0000   1.0000
     1.0000   1.0000   1.0534   0.0000   0.0000   0.0000   0.0000   0.0000
     0.0000   0.0000   0.0000   0.0000   0.0000   0.0000   0.0000   0.0000
     0.0000   0.0000   0.0000   0.0000   0.0000   0.0000   0.0000

 ------ SPIN DOWN ----------

          k = 0.0000 0.0000 0.0000 ( 87777 PWs)   bands (ev):

   -71.5793 -43.9375 -43.9373 -42.8739 -19.6157 -18.7790 -18.7787 -18.6951
   -18.6948 -18.6788 -18.3056 -16.9351 -16.9335 -16.9335 -16.8209 -16.8209
   -16.5197 -16.0757 -16.0756 -15.9781 -15.9076 -15.9075 -15.1891 -13.9346
   -13.9345 -13.8886 -13.8610 -13.8610 -13.2021 -12.9307 -12.9307 -12.8967
   -12.5958 -12.5958 -12.1336 -11.6837 -11.6837 -11.5264 -11.2449 -11.2449
   -10.2530  -9.4679  -9.4678  -9.3121  -9.1767  -9.1766  -9.0866  -9.0517
    -9.0516  -9.0422  -8.5587  -8.5587  -7.9831  -7.9830  -7.8918  -7.7347
    -7.7004  -7.2918  -7.2917  -6.9630  -6.9499  -6.9496  -6.7647  -6.6986
    -6.6985  -6.6586  -6.6582  -6.6079  -6.5941  -6.4287  -6.4285  -6.4004
    -6.3958  -6.3957  -6.3426  -6.2921  -5.3593  -5.3592  -5.3015  -5.3013
    -5.0585  -5.0585  -4.8533  -4.7633  -4.5744  -4.5360  -4.5359  -4.2551
    -4.2035  -3.9847  -3.9845  -3.6929  -3.6928  -3.6489  -3.6488  -3.5868
    -3.4992  -3.4991  -2.9426  -2.3536  -2.3536  -1.6619  -1.6619  -1.6379
    -0.6607  -0.3260  -0.2901  -0.2900   1.1103   1.1103   1.1464   1.8690
     1.9453   1.9453   2.4819   2.9987   2.9988   3.0302   3.2302   3.2304
     3.3583   3.5613   3.5613   3.7013   3.7013   3.7464   3.8856

     occupation numbers
     1.0000   1.0000   1.0000   1.0000   1.0000   1.0000   1.0000   1.0000
     1.0000   1.0000   1.0000   1.0000   1.0000   1.0000   1.0000   1.0000
     1.0000   1.0000   1.0000   1.0000   1.0000   1.0000   1.0000   1.0000
     1.0000   1.0000   1.0000   1.0000   1.0000   1.0000   1.0000   1.0000
     1.0000   1.0000   1.0000   1.0000   1.0000   1.0000   1.0000   1.0000
     1.0000   1.0000   1.0000   1.0000   1.0000   1.0000   1.0000   1.0000
     1.0000   1.0000   1.0000   1.0000   1.0000   1.0000   1.0000   1.0000
     1.0000   1.0000   1.0000   1.0000   1.0000   1.0000   1.0000   1.0000
     1.0000   1.0000   1.0000   1.0000   1.0000   1.0000   1.0000   1.0000
     1.0000   1.0000   1.0000   1.0000   1.0000   1.0000   1.0000   1.0000
     1.0000   1.0000   1.0000   1.0000   1.0000   1.0000   1.0000   1.0000
     1.0000   1.0000   1.0000   1.0000   1.0000   1.0000   1.0000   1.0000
     1.0000   1.0000   1.0000   1.0000   1.0000   1.0000   1.0000   1.0000
     0.9466   0.0000   0.0000   0.0000   0.0000   0.0000   0.0000   0.0000
     0.0000   0.0000   0.0000   0.0000   0.0000   0.0000   0.0000   0.0000
     0.0000   0.0000   0.0000   0.0000   0.0000   0.0000   0.0000

     the Fermi energy is    -0.6499 ev

!    total energy              =    -786.97603252 Ry
     Harris-Foulkes estimate   =    -786.97603307 Ry
     estimated scf accuracy    <       0.00000064 Ry

     The total energy is the sum of the following terms:

     one-electron contribution =   -2631.66502146 Ry
     hartree contribution      =    1361.53258777 Ry
     xc contribution           =    -254.54537304 Ry
     ewald contribution        =     737.70161797 Ry
     smearing contrib. (-TS)   =       0.00015624 Ry

     total magnetization       =     2.11 Bohr mag/cell
     absolute magnetization    =     3.23 Bohr mag/cell

     convergence has been achieved in  52 iterations

     Writing output data file distance-4.0.save/

     General routines

     Parallel routines

   This run was terminated on:   9:34:49  15Aug2022

   JOB DONE.