     Program PWSCF v.6.4.1 starts on 17Aug2022 at 11:21:45

     R & G space division:  proc/nbgrp/npool/nimage =       8
     Reading input from distance-2.2.in

     Current dimensions of program PWSCF are:
     Max number of different atomic species (ntypx) = 10
     Max number of k-points (npk) =  40000
     Max angular momentum in pseudopotentials (lmaxx) =  3

     IMPORTANT: XC functional enforced from input :
     Exchange-correlation      = RVV10 ( 1  4 13  4 3 0)
     Any further DFT definition will be discarded
     Please, verify this is what you really want

               file H.pbe-rrkjus.UPF: wavefunction(s)  1S renormalized
               file Cr.pbe-spn-rrkjus_psl.1.0.0.UPF: wavefunction(s)  3P renormalized

     Subspace diagonalization in iterative solution of the eigenvalue problem:
     one sub-group per band group will be used

     bravais-lattice index     =            4
     lattice parameter (alat)  =      23.2937  a.u.
     unit-cell volume          =    8879.8548 (a.u.)^3
     number of atoms/cell      =           52
     number of atomic types    =            3
     number of electrons       =       212.00
     number of Kohn-Sham states=          127
     kinetic-energy cutoff     =      70.0000  Ry
     charge density cutoff     =     490.0000  Ry
     convergence threshold     =      1.0E-06
     mixing beta               =       0.7000
     number of iterations used =            8  plain     mixing
     Exchange-correlation      = RVV10 ( 1  4 13  4 3 0)

     celldm(1)=  23.293684  celldm(2)=   0.000000  celldm(3)=   0.811261
     celldm(4)=   0.000000  celldm(5)=   0.000000  celldm(6)=   0.000000

     crystal axes: (cart. coord. in units of alat)
               a(1) = (   1.000000   0.000000   0.000000 )
               a(2) = (  -0.500000   0.866025   0.000000 )
               a(3) = (   0.000000   0.000000   0.811261 )

     reciprocal axes: (cart. coord. in units 2 pi/alat)
               b(1) = (  1.000000  0.577350 -0.000000 )
               b(2) = (  0.000000  1.154701  0.000000 )
               b(3) = (  0.000000 -0.000000  1.232649 )

     PseudoPot. # 1 for H  read from file:
     /home/cristian/Escritorio/Proyecto_Grafeno/pseudopotenciales/H.pbe-rrkjus.UPF
     MD5 check sum: 7cc9d459525c9a0585f487a71c3c9563
     Pseudo is Ultrasoft, Zval =  1.0
     Generated by new atomic code, or converted to UPF format
     Using radial grid of 1061 points,  2 beta functions with:
                l(1) =   0
                l(2) =   0
     Q(r) pseudized with 0 coefficients

     PseudoPot. # 2 for C  read from file:
     /home/cristian/Escritorio/Proyecto_Grafeno/pseudopotenciales/C.pbe-n-rrkjus_psl.1.0.0.UPF
     MD5 check sum: 1fdd950c42eb37d8afe3dd2f8d12311e
     Pseudo is Ultrasoft + core correction, Zval =  4.0
     Generated using "atomic" code by A. Dal Corso v.6.3MaX
     Using radial grid of 1073 points,  4 beta functions with:
                l(1) =   0
                l(2) =   0
                l(3) =   1
                l(4) =   1
     Q(r) pseudized with 0 coefficients

     PseudoPot. # 3 for Cr read from file:
     /home/cristian/Escritorio/Proyecto_Grafeno/pseudopotenciales/Cr.pbe-spn-rrkjus_psl.1.0.0.UPF
     MD5 check sum: 793d051e4f89dd1e3290b85340a92c0a
     Pseudo is Ultrasoft + core correction, Zval = 14.0
     Generated using "atomic" code by A. Dal Corso v.6.2.2
     Using radial grid of 1183 points,  6 beta functions with:
                l(1) =   0
                l(2) =   0
                l(3) =   1
                l(4) =   1
                l(5) =   2
                l(6) =   2
     Q(r) pseudized with 0 coefficients

     vdW kernel table read from file rVV10_kernel_table
     MD5 check sum: b8e2538accc0c0b3206b45ba4daaba6c

     atomic species   valence    mass     pseudopotential
        H              1.00     1.00794     H ( 1.00)
        C              4.00    12.01070     C ( 1.00)
        Cr            14.00    51.99610     Cr( 1.00)

     Starting magnetic structure
     atomic species   magnetization
        H            0.500
        C            0.300
        Cr           0.800

      2 Sym. Ops. (no inversion) found

                                    s                        frac. trans.

      isym =  1     identity

 cryst.   s( 1) = (     1          0          0      )
                  (     0          1          0      )
                  (     0          0          1      )

 cart.    s( 1) = (  1.0000000  0.0000000  0.0000000 )
                  (  0.0000000  1.0000000  0.0000000 )
                  (  0.0000000  0.0000000  1.0000000 )

      isym =  2     inv. 180 deg rotation - cryst. axis [1,1,0]

 cryst.   s( 2) = (     0         -1          0      )
                  (    -1          0          0      )
                  (     0          0          1      )

 cart.    s( 2) = (  0.5000000 -0.8660254  0.0000000 )
                  ( -0.8660254 -0.5000000  0.0000000 )
                  (  0.0000000  0.0000000  1.0000000 )

     point group C_s (m)
     there are  2 classes
     the character table:

       E     s
A'     1.00  1.00
A''    1.00 -1.00

     the symmetry operations in each class and the name of the first element:

     E        1
          identity
     s        2
          inv. 180 deg rotation - cryst. axis [1,1,0]

   Cartesian axes

     site n.     atom                  positions (alat units)
         1           H   tau(   1) = (   0.2000000   0.4618802   0.1784775  )
         2           H   tau(   2) = (   0.2000000   0.4618802   0.2394901  )
         3           C   tau(   3) = (   0.0000000   0.0000000   0.0000000  )
         4           C   tau(   4) = (   0.0000000   0.1154701   0.0000000  )
         5           C   tau(   5) = (  -0.1000000   0.1732051   0.0000000  )
         6           C   tau(   6) = (  -0.1000000   0.2886751   0.0000000  )
         7           C   tau(   7) = (  -0.2000000   0.3464102   0.0000000  )
         8           C   tau(   8) = (  -0.2000000   0.4618802   0.0000000  )
         9           C   tau(   9) = (  -0.3000000   0.5196152   0.0000000  )
        10           C   tau(  10) = (  -0.3000000   0.6350853   0.0000000  )
        11           C   tau(  11) = (  -0.4000000   0.6928203   0.0000000  )
        12           C   tau(  12) = (  -0.4000000   0.8082904   0.0000000  )
        13           C   tau(  13) = (   0.2000000   0.0000000   0.0000000  )
        14           C   tau(  14) = (   0.2000000   0.1154701   0.0000000  )
        15           C   tau(  15) = (   0.1000000   0.1732051   0.0000000  )
        16           C   tau(  16) = (   0.1000000   0.2886751   0.0000000  )
        17           C   tau(  17) = (   0.0000000   0.3464102   0.0000000  )
        18           C   tau(  18) = (   0.0000000   0.4618802   0.0000000  )
        19           C   tau(  19) = (  -0.1000000   0.5196152   0.0000000  )
        20           C   tau(  20) = (  -0.1000000   0.6350853   0.0000000  )
        21           C   tau(  21) = (  -0.2000000   0.6928203   0.0000000  )
        22           C   tau(  22) = (  -0.2000000   0.8082904   0.0000000  )
        23           C   tau(  23) = (   0.4000000   0.0000000   0.0000000  )
        24           C   tau(  24) = (   0.4000000   0.1154701   0.0000000  )
        25           C   tau(  25) = (   0.3000000   0.1732051   0.0000000  )
        26           C   tau(  26) = (   0.3000000   0.2886751   0.0000000  )
        27           C   tau(  27) = (   0.2000000   0.3464102   0.0000000  )
        28           Cr  tau(  28) = (   0.2000000   0.4618802   0.0000000  )
        29           C   tau(  29) = (   0.1000000   0.5196152   0.0000000  )
        30           C   tau(  30) = (   0.1000000   0.6350853   0.0000000  )
        31           C   tau(  31) = (   0.0000000   0.6928203   0.0000000  )
        32           C   tau(  32) = (   0.0000000   0.8082904   0.0000000  )
        33           C   tau(  33) = (   0.6000000   0.0000000   0.0000000  )
        34           C   tau(  34) = (   0.6000000   0.1154701   0.0000000  )
        35           C   tau(  35) = (   0.5000000   0.1732051   0.0000000  )
        36           C   tau(  36) = (   0.5000000   0.2886751   0.0000000  )
        37           C   tau(  37) = (   0.4000000   0.3464102   0.0000000  )
        38           C   tau(  38) = (   0.4000000   0.4618802   0.0000000  )
        39           C   tau(  39) = (   0.3000000   0.5196152   0.0000000  )
        40           C   tau(  40) = (   0.3000000   0.6350853   0.0000000  )
        41           C   tau(  41) = (   0.2000000   0.6928203   0.0000000  )
        42           C   tau(  42) = (   0.2000000   0.8082904   0.0000000  )
        43           C   tau(  43) = (   0.8000000   0.0000000   0.0000000  )
        44           C   tau(  44) = (   0.8000000   0.1154701   0.0000000  )
        45           C   tau(  45) = (   0.7000000   0.1732051   0.0000000  )
        46           C   tau(  46) = (   0.7000000   0.2886751   0.0000000  )
        47           C   tau(  47) = (   0.6000000   0.3464102   0.0000000  )
        48           C   tau(  48) = (   0.6000000   0.4618802   0.0000000  )
        49           C   tau(  49) = (   0.5000000   0.5196152   0.0000000  )
        50           C   tau(  50) = (   0.5000000   0.6350853   0.0000000  )
        51           C   tau(  51) = (   0.4000000   0.6928203   0.0000000  )
        52           C   tau(  52) = (   0.4000000   0.8082904   0.0000000  )

   Crystallographic axes

     site n.     atom                  positions (cryst. coord.)
         1           H   tau(   1) = (  0.4666667  0.5333333  0.2200000  )
         2           H   tau(   2) = (  0.4666667  0.5333333  0.2952072  )
         3           C   tau(   3) = (  0.0000000  0.0000000  0.0000000  )
         4           C   tau(   4) = (  0.0666667  0.1333333  0.0000000  )
         5           C   tau(   5) = (  0.0000000  0.2000000  0.0000000  )
         6           C   tau(   6) = (  0.0666667  0.3333333  0.0000000  )
         7           C   tau(   7) = (  0.0000000  0.4000000  0.0000000  )
         8           C   tau(   8) = (  0.0666667  0.5333333  0.0000000  )
         9           C   tau(   9) = (  0.0000000  0.6000000  0.0000000  )
        10           C   tau(  10) = (  0.0666667  0.7333333  0.0000000  )
        11           C   tau(  11) = (  0.0000000  0.8000000  0.0000000  )
        12           C   tau(  12) = (  0.0666667  0.9333333  0.0000000  )
        13           C   tau(  13) = (  0.2000000  0.0000000  0.0000000  )
        14           C   tau(  14) = (  0.2666667  0.1333333  0.0000000  )
        15           C   tau(  15) = (  0.2000000  0.2000000  0.0000000  )
        16           C   tau(  16) = (  0.2666667  0.3333333  0.0000000  )
        17           C   tau(  17) = (  0.2000000  0.4000000  0.0000000  )
        18           C   tau(  18) = (  0.2666667  0.5333333  0.0000000  )
        19           C   tau(  19) = (  0.2000000  0.6000000  0.0000000  )
        20           C   tau(  20) = (  0.2666667  0.7333333  0.0000000  )
        21           C   tau(  21) = (  0.2000000  0.8000000  0.0000000  )
        22           C   tau(  22) = (  0.2666667  0.9333333  0.0000000  )
        23           C   tau(  23) = (  0.4000000  0.0000000  0.0000000  )
        24           C   tau(  24) = (  0.4666667  0.1333333  0.0000000  )
        25           C   tau(  25) = (  0.4000000  0.2000000  0.0000000  )
        26           C   tau(  26) = (  0.4666667  0.3333333  0.0000000  )
        27           C   tau(  27) = (  0.4000000  0.4000000  0.0000000  )
        28           Cr  tau(  28) = (  0.4666667  0.5333333  0.0000000  )
        29           C   tau(  29) = (  0.4000000  0.6000000  0.0000000  )
        30           C   tau(  30) = (  0.4666667  0.7333333  0.0000000  )
        31           C   tau(  31) = (  0.4000000  0.8000000  0.0000000  )
        32           C   tau(  32) = (  0.4666667  0.9333333  0.0000000  )
        33           C   tau(  33) = (  0.6000000  0.0000000  0.0000000  )
        34           C   tau(  34) = (  0.6666667  0.1333333  0.0000000  )
        35           C   tau(  35) = (  0.6000000  0.2000000  0.0000000  )
        36           C   tau(  36) = (  0.6666667  0.3333333  0.0000000  )
        37           C   tau(  37) = (  0.6000000  0.4000000  0.0000000  )
        38           C   tau(  38) = (  0.6666667  0.5333333  0.0000000  )
        39           C   tau(  39) = (  0.6000000  0.6000000  0.0000000  )
        40           C   tau(  40) = (  0.6666667  0.7333333  0.0000000  )
        41           C   tau(  41) = (  0.6000000  0.8000000  0.0000000  )
        42           C   tau(  42) = (  0.6666667  0.9333333  0.0000000  )
        43           C   tau(  43) = (  0.8000000  0.0000000  0.0000000  )
        44           C   tau(  44) = (  0.8666667  0.1333333  0.0000000  )
        45           C   tau(  45) = (  0.8000000  0.2000000  0.0000000  )
        46           C   tau(  46) = (  0.8666667  0.3333333  0.0000000  )
        47           C   tau(  47) = (  0.8000000  0.4000000  0.0000000  )
        48           C   tau(  48) = (  0.8666667  0.5333333  0.0000000  )
        49           C   tau(  49) = (  0.8000000  0.6000000  0.0000000  )
        50           C   tau(  50) = (  0.8666667  0.7333333  0.0000000  )
        51           C   tau(  51) = (  0.8000000  0.8000000  0.0000000  )
        52           C   tau(  52) = (  0.8666667  0.9333333  0.0000000  )

     number of k points=     1  Marzari-Vanderbilt smearing, width (Ry)=  0.0010
                       cart. coord. in units 2pi/alat
        k(    1) = (   0.0000000   0.0000000   0.0000000), wk =   1.0000000

                       cryst. coord.
        k(    1) = (   0.0000000   0.0000000   0.0000000), wk =   1.0000000

     Check: negative core charge=   -0.000002

     Initial potential from superposition of free atoms

     starting charge  211.80478, renormalised to  212.00000

     negative rho (up, down):  5.488E-04 2.481E-02

Carrying out rVV10 run using the following parameters:
Nqs =      20    Nr_points =    1024   r_max =   100.000
b_value =  6.30000    beta =  0.00901
     q_mesh =  0.00010000  0.00030000  0.00058939  0.00100810
               0.00161396  0.00249058  0.00375900  0.00559430
               0.00824984  0.01209221  0.01765183  0.02569619
               0.03733578  0.05417739  0.07854596  0.11380545
               0.16482331  0.23864234  0.34545298  0.50000000

Gradients computed in Reciprocal space

     Starting wfcs are  208 randomized atomic wfcs

     Self-consistent Calculation

     iteration #  1     ecut=    70.00 Ry     beta= 0.70
     Davidson diagonalization with overlap
     ethr =  1.00E-02,  avg # of iterations =  2.5

[...]

     total energy              =    -782.04489896 Ry
     Harris-Foulkes estimate   =    -786.22079703 Ry
     estimated scf accuracy    <      12.36093991 Ry

     total magnetization       =     6.45 Bohr mag/cell
     absolute magnetization    =     6.94 Bohr mag/cell

[...]

     total energy              =    -786.96772448 Ry
     Harris-Foulkes estimate   =    -786.96772645 Ry
     estimated scf accuracy    <       0.00000103 Ry

[...]

     iteration # 52     ecut=    70.00 Ry     beta= 0.70
     Davidson diagonalization with overlap
     ethr =  4.72E-10,  avg # of iterations =  4.0

     negative rho (up, down):  2.846E-03 5.170E-03

     Magnetic moment per site:
     atom:    1    charge:    0.2167    magn:    0.0001    constr:    0.0000
     atom:    2    charge:    0.2032    magn:   -0.0016    constr:    0.0000
     atom:    3    charge:    1.7169    magn:   -0.0133    constr:    0.0000
     atom:    4    charge:    1.7159    magn:    0.0185    constr:    0.0000
     atom:    5    charge:    1.7178    magn:   -0.0098    constr:    0.0000
     atom:    6    charge:    1.7143    magn:    0.0062    constr:    0.0000
     atom:    7    charge:    1.7177    magn:   -0.0098    constr:    0.0000
     atom:    8    charge:    1.7159    magn:    0.0185    constr:    0.0000
     atom:    9    charge:    1.7169    magn:   -0.0133    constr:    0.0000
     atom:   10    charge:    1.7163    magn:    0.0603    constr:    0.0000
     atom:   11    charge:    1.7173    magn:   -0.0187    constr:    0.0000
     atom:   12    charge:    1.7163    magn:    0.0603    constr:    0.0000
     atom:   13    charge:    1.7173    magn:   -0.0187    constr:    0.0000
     atom:   14    charge:    1.7165    magn:    0.0479    constr:    0.0000
     atom:   15    charge:    1.7146    magn:   -0.0160    constr:    0.0000
     atom:   16    charge:    1.7142    magn:    0.0612    constr:    0.0000
     atom:   17    charge:    1.7244    magn:   -0.0140    constr:    0.0000
     atom:   18    charge:    1.7143    magn:    0.0612    constr:    0.0000
     atom:   19    charge:    1.7146    magn:   -0.0160    constr:    0.0000
     atom:   20    charge:    1.7165    magn:    0.0479    constr:    0.0000
     atom:   21    charge:    1.7172    magn:   -0.0187    constr:    0.0000
     atom:   22    charge:    1.7163    magn:    0.0603    constr:    0.0000
     atom:   23    charge:    1.7169    magn:   -0.0133    constr:    0.0000
     atom:   24    charge:    1.7159    magn:    0.0185    constr:    0.0000
     atom:   25    charge:    1.7146    magn:   -0.0160    constr:    0.0000
     atom:   26    charge:    1.7142    magn:    0.0612    constr:    0.0000
     atom:   27    charge:    1.8997    magn:   -0.0158    constr:    0.0000
     atom:   28    charge:    8.9293    magn:    0.3138    constr:    0.0000
     atom:   29    charge:    1.8997    magn:   -0.0158    constr:    0.0000
     atom:   30    charge:    1.7143    magn:    0.0612    constr:    0.0000
     atom:   31    charge:    1.7146    magn:   -0.0160    constr:    0.0000
     atom:   32    charge:    1.7159    magn:    0.0185    constr:    0.0000
     atom:   33    charge:    1.7177    magn:   -0.0098    constr:    0.0000
     atom:   34    charge:    1.7145    magn:    0.0131    constr:    0.0000
     atom:   35    charge:    1.7178    magn:   -0.0098    constr:    0.0000
     atom:   36    charge:    1.7143    magn:    0.0062    constr:    0.0000
     atom:   37    charge:    1.7244    magn:   -0.0140    constr:    0.0000
     atom:   38    charge:    1.7142    magn:    0.0612    constr:    0.0000
     atom:   39    charge:    1.8997    magn:   -0.0158    constr:    0.0000
     atom:   40    charge:    1.7142    magn:    0.0612    constr:    0.0000
     atom:   41    charge:    1.7244    magn:   -0.0140    constr:    0.0000
     atom:   42    charge:    1.7143    magn:    0.0062    constr:    0.0000
     atom:   43    charge:    1.7178    magn:   -0.0098    constr:    0.0000
     atom:   44    charge:    1.7145    magn:    0.0131    constr:    0.0000
     atom:   45    charge:    1.7232    magn:   -0.0066    constr:    0.0000
     atom:   46    charge:    1.7145    magn:    0.0131    constr:    0.0000
     atom:   47    charge:    1.7178    magn:   -0.0098    constr:    0.0000
     atom:   48    charge:    1.7159    magn:    0.0185    constr:    0.0000
     atom:   49    charge:    1.7146    magn:   -0.0160    constr:    0.0000
     atom:   50    charge:    1.7165    magn:    0.0479    constr:    0.0000
     atom:   51    charge:    1.7146    magn:   -0.0160    constr:    0.0000
     atom:   52    charge:    1.7159    magn:    0.0185    constr:    0.0000

     End of self-consistent calculation

 ------ SPIN UP ------------

          k = 0.0000 0.0000 0.0000 ( 87777 PWs)   bands (ev):

   -72.0214 -44.2829 -44.2829 -43.2958 -19.6212 -18.7840 -18.7840 -18.6888
   -18.6857 -18.6856 -18.3272 -16.9339 -16.9339 -16.9251 -16.8308 -16.8308
   -16.5160 -16.0861 -16.0861 -15.9785 -15.9004 -15.9004 -15.1788 -13.9540
   -13.9540 -13.9185 -13.8376 -13.8376 -13.1664 -12.9169 -12.9169 -12.8909
   -12.5603 -12.5603 -12.1292 -11.6817 -11.6816 -11.5146 -11.2077 -11.2077
   -10.2452  -9.4625  -9.4624  -9.2971  -9.1696  -9.1695  -9.0676  -9.0426
    -9.0426  -9.0274  -8.5102  -8.5101  -8.1993  -7.9710  -7.9710  -7.8630
    -7.7304  -7.6789  -7.2590  -7.2590  -7.0813  -7.0812  -6.9576  -6.6884
    -6.6883  -6.6821  -6.6821  -6.6766  -6.5682  -6.4093  -6.4093  -6.3773
    -6.3719  -6.3718  -6.3340  -6.3258  -5.4397  -5.4395  -5.3010  -5.3009
    -5.0403  -5.0403  -4.8281  -4.7365  -4.6172  -4.6051  -4.6050  -4.2573
    -4.2374  -4.0548  -4.0548  -3.7570  -3.7569  -3.6524  -3.5324  -3.5322
    -3.4838  -3.4838  -2.9572  -2.4756  -2.4756  -1.7820  -1.6588  -1.6588
    -0.7383  -0.7383  -0.6557  -0.4094   1.0249   1.0988   1.0988   1.7392
     1.8416   1.8416   2.4104   2.8895   2.8895   2.9838   3.3591   3.3592
     3.4153   3.7040   3.7040   3.7452   3.7655   3.7655   3.8684

     occupation numbers
     1.0000   1.0000   1.0000   1.0000   1.0000   1.0000   1.0000   1.0000
     1.0000   1.0000   1.0000   1.0000   1.0000   1.0000   1.0000   1.0000
     1.0000   1.0000   1.0000   1.0000   1.0000   1.0000   1.0000   1.0000
     1.0000   1.0000   1.0000   1.0000   1.0000   1.0000   1.0000   1.0000
     1.0000   1.0000   1.0000   1.0000   1.0000   1.0000   1.0000   1.0000
     1.0000   1.0000   1.0000   1.0000   1.0000   1.0000   1.0000   1.0000
     1.0000   1.0000   1.0000   1.0000   1.0000   1.0000   1.0000   1.0000
     1.0000   1.0000   1.0000   1.0000   1.0000   1.0000   1.0000   1.0000
     1.0000   1.0000   1.0000   1.0000   1.0000   1.0000   1.0000   1.0000
     1.0000   1.0000   1.0000   1.0000   1.0000   1.0000   1.0000   1.0000
     1.0000   1.0000   1.0000   1.0000   1.0000   1.0000   1.0000   1.0000
     1.0000   1.0000   1.0000   1.0000   1.0000   1.0000   1.0000   1.0000
     1.0000   1.0000   1.0000   1.0000   1.0000   1.0000   1.0000   1.0000
     1.0000   1.0000   1.0000   0.0000   0.0000   0.0000   0.0000   0.0000
     0.0000   0.0000   0.0000   0.0000   0.0000   0.0000   0.0000   0.0000
     0.0000   0.0000   0.0000   0.0000   0.0000   0.0000   0.0000

 ------ SPIN DOWN ----------

          k = 0.0000 0.0000 0.0000 ( 87777 PWs)   bands (ev):

   -71.5113 -43.8521 -43.8519 -42.5873 -19.5799 -18.7361 -18.7360 -18.6589
   -18.6588 -18.6500 -18.2653 -16.8970 -16.8970 -16.8956 -16.7747 -16.7747
   -16.4879 -16.0356 -16.0356 -15.9475 -15.8581 -15.8580 -15.1525 -13.8845
   -13.8845 -13.8478 -13.8267 -13.8266 -13.1767 -12.8930 -12.8930 -12.8594
   -12.5415 -12.5414 -12.0960 -11.6465 -11.6465 -11.4906 -11.1823 -11.1823
   -10.2196  -9.4254  -9.4254  -9.2688  -9.1359  -9.1359  -9.0520  -9.0173
    -9.0172  -9.0100  -8.4942  -8.4942  -8.1970  -7.9449  -7.9448  -7.8464
    -7.6627  -7.6514  -7.2416  -7.2415  -6.9217  -6.9164  -6.9163  -6.6526
    -6.6526  -6.6292  -6.6291  -6.5814  -6.5523  -6.3891  -6.3891  -6.3664
    -6.3605  -6.3605  -6.3101  -6.1957  -5.2860  -5.2859  -5.2695  -5.2694
    -5.0072  -5.0072  -4.8148  -4.7265  -4.5377  -4.5061  -4.5061  -4.1789
    -4.1662  -3.9562  -3.9561  -3.6141  -3.6141  -3.5637  -3.4944  -3.4944
    -3.3527  -3.3525  -2.9178  -2.3239  -2.3239  -1.6310  -1.6310  -1.6008
    -0.6824  -0.2457  -0.2456  -0.2269   1.1412   1.1412   1.1843   1.8648
     1.9774   1.9774   2.4226   3.0303   3.0304   3.0587   3.4016   3.4018
     3.4624   3.7109   3.7110   3.7560   3.9125   3.9126   3.9273

     occupation numbers
     1.0000   1.0000   1.0000   1.0000   1.0000   1.0000   1.0000   1.0000
     1.0000   1.0000   1.0000   1.0000   1.0000   1.0000   1.0000   1.0000
     1.0000   1.0000   1.0000   1.0000   1.0000   1.0000   1.0000   1.0000
     1.0000   1.0000   1.0000   1.0000   1.0000   1.0000   1.0000   1.0000
     1.0000   1.0000   1.0000   1.0000   1.0000   1.0000   1.0000   1.0000
     1.0000   1.0000   1.0000   1.0000   1.0000   1.0000   1.0000   1.0000
     1.0000   1.0000   1.0000   1.0000   1.0000   1.0000   1.0000   1.0000
     1.0000   1.0000   1.0000   1.0000   1.0000   1.0000   1.0000   1.0000
     1.0000   1.0000   1.0000   1.0000   1.0000   1.0000   1.0000   1.0000
     1.0000   1.0000   1.0000   1.0000   1.0000   1.0000   1.0000   1.0000
     1.0000   1.0000   1.0000   1.0000   1.0000   1.0000   1.0000   1.0000
     1.0000   1.0000   1.0000   1.0000   1.0000   1.0000   1.0000   1.0000
     1.0000   1.0000   1.0000   1.0000   1.0000   1.0000   1.0000   1.0000
     1.0000   0.0000   0.0000   0.0000   0.0000   0.0000   0.0000   0.0000
     0.0000   0.0000   0.0000   0.0000   0.0000   0.0000   0.0000   0.0000
     0.0000   0.0000   0.0000   0.0000   0.0000   0.0000   0.0000

     the Fermi energy is    -0.4988 ev

!    total energy              =    -786.96772699 Ry
     Harris-Foulkes estimate   =    -786.96772603 Ry
     estimated scf accuracy    <       0.00000063 Ry

     The total energy is the sum of the following terms:

     one-electron contribution =   -2659.92171193 Ry
     hartree contribution      =    1375.83341799 Ry
     xc contribution           =    -254.38790359 Ry
     ewald contribution        =     751.50847054 Ry
     smearing contrib. (-TS)   =      -0.00000000 Ry

     total magnetization       =     2.00 Bohr mag/cell
     absolute magnetization    =     3.29 Bohr mag/cell

     convergence has been achieved in  52 iterations

     Writing output data file distance-2.2.save/

     General routines

     Parallel routines

   This run was terminated on:  12:50: 4  17Aug2022

   JOB DONE.