     Program PWSCF v.6.4.1 starts on 15Aug2022 at  5:33:49

     R & G space division:  proc/nbgrp/npool/nimage =       6
     Reading input from distance-4.5.in

     Current dimensions of program PWSCF are:
     Max number of different atomic species (ntypx) = 10
     Max number of k-points (npk) =  40000
     Max angular momentum in pseudopotentials (lmaxx) =  3

     IMPORTANT: XC functional enforced from input :
     Exchange-correlation      = RVV10 ( 1  4 13  4 3 0)
     Any further DFT definition will be discarded
     Please, verify this is what you really want

               file H.pbe-rrkjus.UPF: wavefunction(s)  1S renormalized
               file Cr.pbe-spn-rrkjus_psl.1.0.0.UPF: wavefunction(s)  3P renormalized

     Subspace diagonalization in iterative solution of the eigenvalue problem:
     a serial algorithm will be used

     bravais-lattice index     =            4
     lattice parameter (alat)  =      23.2937  a.u.
     unit-cell volume          =    8879.8548 (a.u.)^3
     number of atoms/cell      =           52
     number of atomic types    =            3
     number of electrons       =       212.00
     number of Kohn-Sham states=          127
     kinetic-energy cutoff     =      70.0000  Ry
     charge density cutoff     =     490.0000  Ry
     convergence threshold     =      1.0E-06
     mixing beta               =       0.7000
     number of iterations used =            8  plain     mixing
     Exchange-correlation      = RVV10 ( 1  4 13  4 3 0)

     celldm(1)=  23.293684  celldm(2)=   0.000000  celldm(3)=   0.811261
     celldm(4)=   0.000000  celldm(5)=   0.000000  celldm(6)=   0.000000

     crystal axes: (cart. coord. in units of alat)
               a(1) = (   1.000000   0.000000   0.000000 )
               a(2) = (  -0.500000   0.866025   0.000000 )
               a(3) = (   0.000000   0.000000   0.811261 )

     reciprocal axes: (cart. coord. in units 2 pi/alat)
               b(1) = (  1.000000  0.577350 -0.000000 )
               b(2) = (  0.000000  1.154701  0.000000 )
               b(3) = (  0.000000 -0.000000  1.232649 )

     PseudoPot. # 1 for H  read from file:
     /home/cristian/Escritorio/Proyecto_Grafeno/pseudopotenciales/H.pbe-rrkjus.UPF
     MD5 check sum: 7cc9d459525c9a0585f487a71c3c9563
     Pseudo is Ultrasoft, Zval =  1.0
     Generated by new atomic code, or converted to UPF format
     Using radial grid of 1061 points,  2 beta functions with:
                l(1) =   0
                l(2) =   0
     Q(r) pseudized with 0 coefficients

     PseudoPot. # 2 for C  read from file:
     /home/cristian/Escritorio/Proyecto_Grafeno/pseudopotenciales/C.pbe-n-rrkjus_psl.1.0.0.UPF
     MD5 check sum: 1fdd950c42eb37d8afe3dd2f8d12311e
     Pseudo is Ultrasoft + core correction, Zval =  4.0
     Generated using "atomic" code by A. Dal Corso v.6.3MaX
     Using radial grid of 1073 points,  4 beta functions with:
                l(1) =   0
                l(2) =   0
                l(3) =   1
                l(4) =   1
     Q(r) pseudized with 0 coefficients

     PseudoPot. # 3 for Cr read from file:
     /home/cristian/Escritorio/Proyecto_Grafeno/pseudopotenciales/Cr.pbe-spn-rrkjus_psl.1.0.0.UPF
     MD5 check sum: 793d051e4f89dd1e3290b85340a92c0a
     Pseudo is Ultrasoft + core correction, Zval = 14.0
     Generated using "atomic" code by A. Dal Corso v.6.2.2
     Using radial grid of 1183 points,  6 beta functions with:
                l(1) =   0
                l(2) =   0
                l(3) =   1
                l(4) =   1
                l(5) =   2
                l(6) =   2
     Q(r) pseudized with 0 coefficients

     vdW kernel table read from file rVV10_kernel_table
     MD5 check sum: b8e2538accc0c0b3206b45ba4daaba6c

     atomic species   valence    mass     pseudopotential
        H              1.00     1.00794     H ( 1.00)
        C              4.00    12.01070     C ( 1.00)
        Cr            14.00    51.99610     Cr( 1.00)

     Starting magnetic structure
     atomic species   magnetization
        H            0.500
        C            0.300
        Cr           0.800

      2 Sym. Ops. (no inversion) found

                                    s                        frac. trans.

      isym =  1     identity

 cryst.   s( 1) = (     1          0          0      )
                  (     0          1          0      )
                  (     0          0          1      )

 cart.    s( 1) = (  1.0000000  0.0000000  0.0000000 )
                  (  0.0000000  1.0000000  0.0000000 )
                  (  0.0000000  0.0000000  1.0000000 )

      isym =  2     inv. 180 deg rotation - cryst. axis [1,1,0]

 cryst.   s( 2) = (     0         -1          0      )
                  (    -1          0          0      )
                  (     0          0          1      )

 cart.    s( 2) = (  0.5000000 -0.8660254  0.0000000 )
                  ( -0.8660254 -0.5000000  0.0000000 )
                  (  0.0000000  0.0000000  1.0000000 )

     point group C_s (m)
     there are  2 classes
     the character table:

       E     s
A'     1.00  1.00
A''    1.00 -1.00

     the symmetry operations in each class and the name of the first element:

     E        1
          identity
     s        2
          inv. 180 deg rotation - cryst. axis [1,1,0]

   Cartesian axes

     site n.     atom                  positions (alat units)
         1           H   tau(   1) = (   0.2000000   0.4618802   0.3650675  )
         2           H   tau(   2) = (   0.2000000   0.4618802   0.4260802  )
         3           C   tau(   3) = (   0.0000000   0.0000000   0.0000000  )
         4           C   tau(   4) = (   0.0000000   0.1154701   0.0000000  )
         5           C   tau(   5) = (  -0.1000000   0.1732051   0.0000000  )
         6           C   tau(   6) = (  -0.1000000   0.2886751   0.0000000  )
         7           C   tau(   7) = (  -0.2000000   0.3464102   0.0000000  )
         8           C   tau(   8) = (  -0.2000000   0.4618802   0.0000000  )
         9           C   tau(   9) = (  -0.3000000   0.5196152   0.0000000  )
        10           C   tau(  10) = (  -0.3000000   0.6350853   0.0000000  )
        11           C   tau(  11) = (  -0.4000000   0.6928203   0.0000000  )
        12           C   tau(  12) = (  -0.4000000   0.8082904   0.0000000  )
        13           C   tau(  13) = (   0.2000000   0.0000000   0.0000000  )
        14           C   tau(  14) = (   0.2000000   0.1154701   0.0000000  )
        15           C   tau(  15) = (   0.1000000   0.1732051   0.0000000  )
        16           C   tau(  16) = (   0.1000000   0.2886751   0.0000000  )
        17           C   tau(  17) = (   0.0000000   0.3464102   0.0000000  )
        18           C   tau(  18) = (   0.0000000   0.4618802   0.0000000  )
        19           C   tau(  19) = (  -0.1000000   0.5196152   0.0000000  )
        20           C   tau(  20) = (  -0.1000000   0.6350853   0.0000000  )
        21           C   tau(  21) = (  -0.2000000   0.6928203   0.0000000  )
        22           C   tau(  22) = (  -0.2000000   0.8082904   0.0000000  )
        23           C   tau(  23) = (   0.4000000   0.0000000   0.0000000  )
        24           C   tau(  24) = (   0.4000000   0.1154701   0.0000000  )
        25           C   tau(  25) = (   0.3000000   0.1732051   0.0000000  )
        26           C   tau(  26) = (   0.3000000   0.2886751   0.0000000  )
        27           C   tau(  27) = (   0.2000000   0.3464102   0.0000000  )
        28           Cr  tau(  28) = (   0.2000000   0.4618802   0.0000000  )
        29           C   tau(  29) = (   0.1000000   0.5196152   0.0000000  )
        30           C   tau(  30) = (   0.1000000   0.6350853   0.0000000  )
        31           C   tau(  31) = (   0.0000000   0.6928203   0.0000000  )
        32           C   tau(  32) = (   0.0000000   0.8082904   0.0000000  )
        33           C   tau(  33) = (   0.6000000   0.0000000   0.0000000  )
        34           C   tau(  34) = (   0.6000000   0.1154701   0.0000000  )
        35           C   tau(  35) = (   0.5000000   0.1732051   0.0000000  )
        36           C   tau(  36) = (   0.5000000   0.2886751   0.0000000  )
        37           C   tau(  37) = (   0.4000000   0.3464102   0.0000000  )
        38           C   tau(  38) = (   0.4000000   0.4618802   0.0000000  )
        39           C   tau(  39) = (   0.3000000   0.5196152   0.0000000  )
        40           C   tau(  40) = (   0.3000000   0.6350853   0.0000000  )
        41           C   tau(  41) = (   0.2000000   0.6928203   0.0000000  )
        42           C   tau(  42) = (   0.2000000   0.8082904   0.0000000  )
        43           C   tau(  43) = (   0.8000000   0.0000000   0.0000000  )
        44           C   tau(  44) = (   0.8000000   0.1154701   0.0000000  )
        45           C   tau(  45) = (   0.7000000   0.1732051   0.0000000  )
        46           C   tau(  46) = (   0.7000000   0.2886751   0.0000000  )
        47           C   tau(  47) = (   0.6000000   0.3464102   0.0000000  )
        48           C   tau(  48) = (   0.6000000   0.4618802   0.0000000  )
        49           C   tau(  49) = (   0.5000000   0.5196152   0.0000000  )
        50           C   tau(  50) = (   0.5000000   0.6350853   0.0000000  )
        51           C   tau(  51) = (   0.4000000   0.6928203   0.0000000  )
        52           C   tau(  52) = (   0.4000000   0.8082904   0.0000000  )

   Crystallographic axes

     site n.     atom                  positions (cryst. coord.)
         1           H   tau(   1) = (  0.4666667  0.5333333  0.4500000  )
         2           H   tau(   2) = (  0.4666667  0.5333333  0.5252072  )
         3           C   tau(   3) = (  0.0000000  0.0000000  0.0000000  )
         4           C   tau(   4) = (  0.0666667  0.1333333  0.0000000  )
         5           C   tau(   5) = (  0.0000000  0.2000000  0.0000000  )
         6           C   tau(   6) = (  0.0666667  0.3333333  0.0000000  )
         7           C   tau(   7) = (  0.0000000  0.4000000  0.0000000  )
         8           C   tau(   8) = (  0.0666667  0.5333333  0.0000000  )
         9           C   tau(   9) = (  0.0000000  0.6000000  0.0000000  )
        10           C   tau(  10) = (  0.0666667  0.7333333  0.0000000  )
        11           C   tau(  11) = (  0.0000000  0.8000000  0.0000000  )
        12           C   tau(  12) = (  0.0666667  0.9333333  0.0000000  )
        13           C   tau(  13) = (  0.2000000  0.0000000  0.0000000  )
        14           C   tau(  14) = (  0.2666667  0.1333333  0.0000000  )
        15           C   tau(  15) = (  0.2000000  0.2000000  0.0000000  )
        16           C   tau(  16) = (  0.2666667  0.3333333  0.0000000  )
        17           C   tau(  17) = (  0.2000000  0.4000000  0.0000000  )
        18           C   tau(  18) = (  0.2666667  0.5333333  0.0000000  )
        19           C   tau(  19) = (  0.2000000  0.6000000  0.0000000  )
        20           C   tau(  20) = (  0.2666667  0.7333333  0.0000000  )
        21           C   tau(  21) = (  0.2000000  0.8000000  0.0000000  )
        22           C   tau(  22) = (  0.2666667  0.9333333  0.0000000  )
        23           C   tau(  23) = (  0.4000000  0.0000000  0.0000000  )
        24           C   tau(  24) = (  0.4666667  0.1333333  0.0000000  )
        25           C   tau(  25) = (  0.4000000  0.2000000  0.0000000  )
        26           C   tau(  26) = (  0.4666667  0.3333333  0.0000000  )
        27           C   tau(  27) = (  0.4000000  0.4000000  0.0000000  )
        28           Cr  tau(  28) = (  0.4666667  0.5333333  0.0000000  )
        29           C   tau(  29) = (  0.4000000  0.6000000  0.0000000  )
        30           C   tau(  30) = (  0.4666667  0.7333333  0.0000000  )
        31           C   tau(  31) = (  0.4000000  0.8000000  0.0000000  )
        32           C   tau(  32) = (  0.4666667  0.9333333  0.0000000  )
        33           C   tau(  33) = (  0.6000000  0.0000000  0.0000000  )
        34           C   tau(  34) = (  0.6666667  0.1333333  0.0000000  )
        35           C   tau(  35) = (  0.6000000  0.2000000  0.0000000  )
        36           C   tau(  36) = (  0.6666667  0.3333333  0.0000000  )
        37           C   tau(  37) = (  0.6000000  0.4000000  0.0000000  )
        38           C   tau(  38) = (  0.6666667  0.5333333  0.0000000  )
        39           C   tau(  39) = (  0.6000000  0.6000000  0.0000000  )
        40           C   tau(  40) = (  0.6666667  0.7333333  0.0000000  )
        41           C   tau(  41) = (  0.6000000  0.8000000  0.0000000  )
        42           C   tau(  42) = (  0.6666667  0.9333333  0.0000000  )
        43           C   tau(  43) = (  0.8000000  0.0000000  0.0000000  )
        44           C   tau(  44) = (  0.8666667  0.1333333  0.0000000  )
        45           C   tau(  45) = (  0.8000000  0.2000000  0.0000000  )
        46           C   tau(  46) = (  0.8666667  0.3333333  0.0000000  )
        47           C   tau(  47) = (  0.8000000  0.4000000  0.0000000  )
        48           C   tau(  48) = (  0.8666667  0.5333333  0.0000000  )
        49           C   tau(  49) = (  0.8000000  0.6000000  0.0000000  )
        50           C   tau(  50) = (  0.8666667  0.7333333  0.0000000  )
        51           C   tau(  51) = (  0.8000000  0.8000000  0.0000000  )
        52           C   tau(  52) = (  0.8666667  0.9333333  0.0000000  )

     number of k points=     1  Marzari-Vanderbilt smearing, width (Ry)=  0.0010
                       cart. coord. in units 2pi/alat
        k(    1) = (   0.0000000   0.0000000   0.0000000), wk =   1.0000000

                       cryst. coord.
        k(    1) = (   0.0000000   0.0000000   0.0000000), wk =   1.0000000

     Check: negative core charge=   -0.000002

     Initial potential from superposition of free atoms

     starting charge  211.80478, renormalised to  212.00000

     negative rho (up, down):  4.274E-04 1.873E-02

Carrying out rVV10 run using the following parameters:
Nqs =      20    Nr_points =    1024   r_max =   100.000
b_value =  6.30000    beta =  0.00901
     q_mesh =  0.00010000  0.00030000  0.00058939  0.00100810
               0.00161396  0.00249058  0.00375900  0.00559430
               0.00824984  0.01209221  0.01765183  0.02569619
               0.03733578  0.05417739  0.07854596  0.11380545
               0.16482331  0.23864234  0.34545298  0.50000000

Gradients computed in Reciprocal space

     Starting wfcs are  208 randomized atomic wfcs

     Self-consistent Calculation

     iteration #  1     ecut=    70.00 Ry     beta= 0.70
     Davidson diagonalization with overlap
     ethr =  1.00E-02,  avg # of iterations =  2.5

[...]

     total energy              =    -784.65317097 Ry
     Harris-Foulkes estimate   =    -786.12303550 Ry
     estimated scf accuracy    <       9.65832584 Ry

     total magnetization       =     4.00 Bohr mag/cell
     absolute magnetization    =     5.43 Bohr mag/cell

[...]

     total energy              =    -786.97491916 Ry
     Harris-Foulkes estimate   =    -786.97492062 Ry
     estimated scf accuracy    <       0.00001027 Ry

[...]

     iteration # 80     ecut=    70.00 Ry     beta= 0.70
     Davidson diagonalization with overlap
     ethr =  4.85E-09,  avg # of iterations =  2.5

     negative rho (up, down):  2.683E-02 1.731E-02

     Magnetic moment per site:
     atom:    1    charge:    0.2115    magn:    0.0000    constr:    0.0000
     atom:    2    charge:    0.2111    magn:    0.0000    constr:    0.0000
     atom:    3    charge:    1.7169    magn:   -0.0123    constr:    0.0000
     atom:    4    charge:    1.7158    magn:    0.0181    constr:    0.0000
     atom:    5    charge:    1.7178    magn:   -0.0083    constr:    0.0000
     atom:    6    charge:    1.7142    magn:    0.0058    constr:    0.0000
     atom:    7    charge:    1.7178    magn:   -0.0083    constr:    0.0000
     atom:    8    charge:    1.7158    magn:    0.0181    constr:    0.0000
     atom:    9    charge:    1.7169    magn:   -0.0123    constr:    0.0000
     atom:   10    charge:    1.7162    magn:    0.0597    constr:    0.0000
     atom:   11    charge:    1.7173    magn:   -0.0184    constr:    0.0000
     atom:   12    charge:    1.7162    magn:    0.0597    constr:    0.0000
     atom:   13    charge:    1.7173    magn:   -0.0184    constr:    0.0000
     atom:   14    charge:    1.7164    magn:    0.0477    constr:    0.0000
     atom:   15    charge:    1.7146    magn:   -0.0160    constr:    0.0000
     atom:   16    charge:    1.7129    magn:    0.0636    constr:    0.0000
     atom:   17    charge:    1.7248    magn:   -0.0110    constr:    0.0000
     atom:   18    charge:    1.7129    magn:    0.0636    constr:    0.0000
     atom:   19    charge:    1.7145    magn:   -0.0160    constr:    0.0000
     atom:   20    charge:    1.7164    magn:    0.0477    constr:    0.0000
     atom:   21    charge:    1.7173    magn:   -0.0184    constr:    0.0000
     atom:   22    charge:    1.7162    magn:    0.0597    constr:    0.0000
     atom:   23    charge:    1.7169    magn:   -0.0123    constr:    0.0000
     atom:   24    charge:    1.7158    magn:    0.0181    constr:    0.0000
     atom:   25    charge:    1.7146    magn:   -0.0160    constr:    0.0000
     atom:   26    charge:    1.7130    magn:    0.0636    constr:    0.0000
     atom:   27    charge:    1.9061    magn:   -0.0243    constr:    0.0000
     atom:   28    charge:    8.9101    magn:    0.3438    constr:    0.0000
     atom:   29    charge:    1.9060    magn:   -0.0243    constr:    0.0000
     atom:   30    charge:    1.7129    magn:    0.0636    constr:    0.0000
     atom:   31    charge:    1.7145    magn:   -0.0160    constr:    0.0000
     atom:   32    charge:    1.7158    magn:    0.0181    constr:    0.0000
     atom:   33    charge:    1.7178    magn:   -0.0083    constr:    0.0000
     atom:   34    charge:    1.7144    magn:    0.0122    constr:    0.0000
     atom:   35    charge:    1.7178    magn:   -0.0083    constr:    0.0000
     atom:   36    charge:    1.7142    magn:    0.0058    constr:    0.0000
     atom:   37    charge:    1.7249    magn:   -0.0110    constr:    0.0000
     atom:   38    charge:    1.7130    magn:    0.0636    constr:    0.0000
     atom:   39    charge:    1.9061    magn:   -0.0243    constr:    0.0000
     atom:   40    charge:    1.7129    magn:    0.0636    constr:    0.0000
     atom:   41    charge:    1.7248    magn:   -0.0110    constr:    0.0000
     atom:   42    charge:    1.7142    magn:    0.0058    constr:    0.0000
     atom:   43    charge:    1.7178    magn:   -0.0083    constr:    0.0000
     atom:   44    charge:    1.7143    magn:    0.0122    constr:    0.0000
     atom:   45    charge:    1.7236    magn:   -0.0004    constr:    0.0000
     atom:   46    charge:    1.7144    magn:    0.0122    constr:    0.0000
     atom:   47    charge:    1.7178    magn:   -0.0083    constr:    0.0000
     atom:   48    charge:    1.7158    magn:    0.0181    constr:    0.0000
     atom:   49    charge:    1.7146    magn:   -0.0160    constr:    0.0000
     atom:   50    charge:    1.7164    magn:    0.0477    constr:    0.0000
     atom:   51    charge:    1.7146    magn:   -0.0160    constr:    0.0000
     atom:   52    charge:    1.7158    magn:    0.0181    constr:    0.0000

     End of self-consistent calculation

 ------ SPIN UP ------------

          k = 0.0000 0.0000 0.0000 ( 87777 PWs)   bands (ev):

   -72.1885 -44.4793 -44.4777 -43.6380 -19.6585 -18.8262 -18.8262 -18.7223
   -18.7223 -18.7205 -18.3703 -16.9728 -16.9727 -16.9645 -16.8729 -16.8729
   -16.5503 -16.1265 -16.1265 -16.0133 -15.9431 -15.9430 -15.2166 -13.9977
   -13.9976 -13.9622 -13.8722 -13.8721 -13.2007 -12.9551 -12.9551 -12.9290
   -12.6031 -12.6030 -12.1666 -11.7205 -11.7205 -11.5523 -11.2542 -11.2540
   -10.2783  -9.5037  -9.5036  -9.3424  -9.2109  -9.2109  -9.1027  -9.0779
    -9.0779  -9.0611  -8.5550  -8.5548  -8.0087  -8.0087  -7.9061  -7.8388
    -7.7185  -7.2995  -7.2995  -7.1248  -7.1247  -6.9975  -6.7360  -6.7213
    -6.7212  -6.7207  -6.7207  -6.7174  -6.6110  -6.4496  -6.4496  -6.4469
    -6.4119  -6.4066  -6.4065  -6.3609  -5.4836  -5.4834  -5.3488  -5.3485
    -5.0795  -5.0795  -4.8673  -4.7734  -4.6543  -4.6419  -4.6419  -4.3278
    -4.2833  -4.0895  -4.0894  -3.7944  -3.7943  -3.6867  -3.6393  -3.6378
    -3.5284  -3.5283  -3.0080  -2.5234  -2.5233  -1.8244  -1.6912  -1.6912
    -0.8016  -0.8015  -0.6845  -0.5673   0.9836   1.0651   1.0651   1.7211
     1.7971   1.7971   2.4953   2.8527   2.8527   2.9471   3.3137   3.3584
     3.3600   3.6987   3.6999   3.7242   3.7242   3.7402   3.7430

     occupation numbers
     1.0000   1.0000   1.0000   1.0000   1.0000   1.0000   1.0000   1.0000
     1.0000   1.0000   1.0000   1.0000   1.0000   1.0000   1.0000   1.0000
     1.0000   1.0000   1.0000   1.0000   1.0000   1.0000   1.0000   1.0000
     1.0000   1.0000   1.0000   1.0000   1.0000   1.0000   1.0000   1.0000
     1.0000   1.0000   1.0000   1.0000   1.0000   1.0000   1.0000   1.0000
     1.0000   1.0000   1.0000   1.0000   1.0000   1.0000   1.0000   1.0000
     1.0000   1.0000   1.0000   1.0000   1.0000   1.0000   1.0000   1.0000
     1.0000   1.0000   1.0000   1.0000   1.0000   1.0000   1.0000   1.0000
     1.0000   1.0000   1.0000   1.0000   1.0000   1.0000   1.0000   1.0000
     1.0000   1.0000   1.0000   1.0000   1.0000   1.0000   1.0000   1.0000
     1.0000   1.0000   1.0000   1.0000   1.0000   1.0000   1.0000   1.0000
     1.0000   1.0000   1.0000   1.0000   1.0000   1.0000   1.0000   1.0000
     1.0000   1.0000   1.0000   1.0000   1.0000   1.0000   1.0000   1.0000
     1.0000   1.0000   1.0369   0.0000   0.0000   0.0000   0.0000   0.0000
     0.0000   0.0000   0.0000   0.0000   0.0000   0.0000   0.0000   0.0000
     0.0000   0.0000   0.0000   0.0000   0.0000   0.0000   0.0000

 ------ SPIN DOWN ----------

          k = 0.0000 0.0000 0.0000 ( 87777 PWs)   bands (ev):

   -71.5535 -43.8820 -43.8801 -42.7920 -19.6154 -18.7779 -18.7778 -18.6949
   -18.6949 -18.6793 -18.3058 -16.9339 -16.9332 -16.9332 -16.8210 -16.8210
   -16.5200 -16.0749 -16.0749 -15.9787 -15.9078 -15.9078 -15.1900 -13.9354
   -13.9353 -13.8873 -13.8607 -13.8606 -13.2042 -12.9302 -12.9302 -12.8958
   -12.5968 -12.5967 -12.1336 -11.6837 -11.6837 -11.5266 -11.2460 -11.2459
   -10.2544  -9.4694  -9.4693  -9.3107  -9.1757  -9.1757  -9.0861  -9.0514
    -9.0514  -9.0422  -8.5601  -8.5600  -7.9834  -7.9834  -7.8914  -7.7352
    -7.6995  -7.2921  -7.2921  -6.9644  -6.9510  -6.9509  -6.7354  -6.7003
    -6.7003  -6.6589  -6.6587  -6.6092  -6.5932  -6.4277  -6.4277  -6.4000
    -6.3953  -6.3953  -6.3429  -6.2964  -5.3626  -5.3624  -5.3038  -5.3036
    -5.0604  -5.0604  -4.8524  -4.7626  -4.5737  -4.5367  -4.5367  -4.2564
    -4.2051  -3.9852  -3.9852  -3.7100  -3.7090  -3.6487  -3.6486  -3.5887
    -3.4999  -3.4998  -2.9463  -2.3533  -2.3531  -1.6621  -1.6621  -1.6372
    -0.6679  -0.3219  -0.2829  -0.2828   1.1100   1.1100   1.1474   1.8684
     1.9480   1.9480   2.4945   2.9987   2.9988   3.0279   3.2197   3.2218
     3.3368   3.5561   3.5570   3.7095   3.7098   3.7564   3.8891

     occupation numbers
     1.0000   1.0000   1.0000   1.0000   1.0000   1.0000   1.0000   1.0000
     1.0000   1.0000   1.0000   1.0000   1.0000   1.0000   1.0000   1.0000
     1.0000   1.0000   1.0000   1.0000   1.0000   1.0000   1.0000   1.0000
     1.0000   1.0000   1.0000   1.0000   1.0000   1.0000   1.0000   1.0000
     1.0000   1.0000   1.0000   1.0000   1.0000   1.0000   1.0000   1.0000
     1.0000   1.0000   1.0000   1.0000   1.0000   1.0000   1.0000   1.0000
     1.0000   1.0000   1.0000   1.0000   1.0000   1.0000   1.0000   1.0000
     1.0000   1.0000   1.0000   1.0000   1.0000   1.0000   1.0000   1.0000
     1.0000   1.0000   1.0000   1.0000   1.0000   1.0000   1.0000   1.0000
     1.0000   1.0000   1.0000   1.0000   1.0000   1.0000   1.0000   1.0000
     1.0000   1.0000   1.0000   1.0000   1.0000   1.0000   1.0000   1.0000
     1.0000   1.0000   1.0000   1.0000   1.0000   1.0000   1.0000   1.0000
     1.0000   1.0000   1.0000   1.0000   1.0000   1.0000   1.0000   1.0000
     0.9631   0.0000   0.0000   0.0000   0.0000   0.0000   0.0000   0.0000
     0.0000   0.0000   0.0000   0.0000   0.0000   0.0000   0.0000   0.0000
     0.0000   0.0000   0.0000   0.0000   0.0000   0.0000   0.0000

     the Fermi energy is    -0.6566 ev

!    total energy              =    -786.97491315 Ry
     Harris-Foulkes estimate   =    -786.97492087 Ry
     estimated scf accuracy    <       0.00000081 Ry

     The total energy is the sum of the following terms:

     one-electron contribution =   -2629.91778675 Ry
     hartree contribution      =    1360.64670496 Ry
     xc contribution           =    -254.50904977 Ry
     ewald contribution        =     736.80508100 Ry
     smearing contrib. (-TS)   =       0.00013741 Ry

     total magnetization       =     2.07 Bohr mag/cell
     absolute magnetization    =     3.39 Bohr mag/cell

     convergence has been achieved in  80 iterations

     Writing output data file distance-4.5.save/

     General routines

     Parallel routines

   This run was terminated on:   8: 1:38  15Aug2022

   JOB DONE.