     Program PWSCF v.6.4.1 starts on 17Aug2022 at 12:50: 4

     R & G space division:  proc/nbgrp/npool/nimage =       8
     Reading input from distance-2.0.in

     Current dimensions of program PWSCF are:
     Max number of different atomic species (ntypx) = 10
     Max number of k-points (npk) =  40000
     Max angular momentum in pseudopotentials (lmaxx) =  3

     IMPORTANT: XC functional enforced from input :
     Exchange-correlation      = RVV10 ( 1  4 13  4 3 0)
     Any further DFT definition will be discarded
     Please, verify this is what you really want

               file H.pbe-rrkjus.UPF: wavefunction(s)  1S renormalized
               file Cr.pbe-spn-rrkjus_psl.1.0.0.UPF: wavefunction(s)  3P renormalized

     Subspace diagonalization in iterative solution of the eigenvalue problem:
     one sub-group per band group will be used

     bravais-lattice index     =            4
     lattice parameter (alat)  =      23.2937  a.u.
     unit-cell volume          =    8879.8548 (a.u.)^3
     number of atoms/cell      =           52
     number of atomic types    =            3
     number of electrons       =       212.00
     number of Kohn-Sham states=          127
     kinetic-energy cutoff     =      70.0000  Ry
     charge density cutoff     =     490.0000  Ry
     convergence threshold     =      1.0E-06
     mixing beta               =       0.7000
     number of iterations used =            8  plain     mixing
     Exchange-correlation      = RVV10 ( 1  4 13  4 3 0)

     celldm(1)=  23.293684  celldm(2)=   0.000000  celldm(3)=   0.811261
     celldm(4)=   0.000000  celldm(5)=   0.000000  celldm(6)=   0.000000

     crystal axes: (cart. coord. in units of alat)
               a(1) = (   1.000000   0.000000   0.000000 )
               a(2) = (  -0.500000   0.866025   0.000000 )
               a(3) = (   0.000000   0.000000   0.811261 )

     reciprocal axes: (cart. coord. in units 2 pi/alat)
               b(1) = (  1.000000  0.577350 -0.000000 )
               b(2) = (  0.000000  1.154701  0.000000 )
               b(3) = (  0.000000 -0.000000  1.232649 )

     PseudoPot. # 1 for H  read from file:
     /home/cristian/Escritorio/Proyecto_Grafeno/pseudopotenciales/H.pbe-rrkjus.UPF
     MD5 check sum: 7cc9d459525c9a0585f487a71c3c9563
     Pseudo is Ultrasoft, Zval =  1.0
     Generated by new atomic code, or converted to UPF format
     Using radial grid of 1061 points,  2 beta functions with:
                l(1) =   0
                l(2) =   0
     Q(r) pseudized with 0 coefficients

     PseudoPot. # 2 for C  read from file:
     /home/cristian/Escritorio/Proyecto_Grafeno/pseudopotenciales/C.pbe-n-rrkjus_psl.1.0.0.UPF
     MD5 check sum: 1fdd950c42eb37d8afe3dd2f8d12311e
     Pseudo is Ultrasoft + core correction, Zval =  4.0
     Generated using "atomic" code by A. Dal Corso v.6.3MaX
     Using radial grid of 1073 points,  4 beta functions with:
                l(1) =   0
                l(2) =   0
                l(3) =   1
                l(4) =   1
     Q(r) pseudized with 0 coefficients

     PseudoPot. # 3 for Cr read from file:
     /home/cristian/Escritorio/Proyecto_Grafeno/pseudopotenciales/Cr.pbe-spn-rrkjus_psl.1.0.0.UPF
     MD5 check sum: 793d051e4f89dd1e3290b85340a92c0a
     Pseudo is Ultrasoft + core correction, Zval = 14.0
     Generated using "atomic" code by A. Dal Corso v.6.2.2
     Using radial grid of 1183 points,  6 beta functions with:
                l(1) =   0
                l(2) =   0
                l(3) =   1
                l(4) =   1
                l(5) =   2
                l(6) =   2
     Q(r) pseudized with 0 coefficients

     vdW kernel table read from file rVV10_kernel_table
     MD5 check sum: b8e2538accc0c0b3206b45ba4daaba6c

     atomic species   valence    mass     pseudopotential
        H              1.00     1.00794     H ( 1.00)
        C              4.00    12.01070     C ( 1.00)
        Cr            14.00    51.99610     Cr( 1.00)

     Starting magnetic structure
     atomic species   magnetization
        H            0.500
        C            0.300
        Cr           0.800

      2 Sym. Ops. (no inversion) found

                                    s                        frac. trans.

      isym =  1     identity

 cryst.   s( 1) = (     1          0          0      )
                  (     0          1          0      )
                  (     0          0          1      )

 cart.    s( 1) = (  1.0000000  0.0000000  0.0000000 )
                  (  0.0000000  1.0000000  0.0000000 )
                  (  0.0000000  0.0000000  1.0000000 )

      isym =  2     inv. 180 deg rotation - cryst. axis [1,1,0]

 cryst.   s( 2) = (     0         -1          0      )
                  (    -1          0          0      )
                  (     0          0          1      )

 cart.    s( 2) = (  0.5000000 -0.8660254  0.0000000 )
                  ( -0.8660254 -0.5000000  0.0000000 )
                  (  0.0000000  0.0000000  1.0000000 )

     point group C_s (m)
     there are  2 classes
     the character table:

       E     s
A'     1.00  1.00
A''    1.00 -1.00

     the symmetry operations in each class and the name of the first element:

     E        1
          identity
     s        2
          inv. 180 deg rotation - cryst. axis [1,1,0]

   Cartesian axes

     site n.     atom                  positions (alat units)
         1           H   tau(   1) = (   0.2000000   0.4618802   0.1622522  )
         2           H   tau(   2) = (   0.2000000   0.4618802   0.2232649  )
         3           C   tau(   3) = (   0.0000000   0.0000000   0.0000000  )
         4           C   tau(   4) = (   0.0000000   0.1154701   0.0000000  )
         5           C   tau(   5) = (  -0.1000000   0.1732051   0.0000000  )
         6           C   tau(   6) = (  -0.1000000   0.2886751   0.0000000  )
         7           C   tau(   7) = (  -0.2000000   0.3464102   0.0000000  )
         8           C   tau(   8) = (  -0.2000000   0.4618802   0.0000000  )
         9           C   tau(   9) = (  -0.3000000   0.5196152   0.0000000  )
        10           C   tau(  10) = (  -0.3000000   0.6350853   0.0000000  )
        11           C   tau(  11) = (  -0.4000000   0.6928203   0.0000000  )
        12           C   tau(  12) = (  -0.4000000   0.8082904   0.0000000  )
        13           C   tau(  13) = (   0.2000000   0.0000000   0.0000000  )
        14           C   tau(  14) = (   0.2000000   0.1154701   0.0000000  )
        15           C   tau(  15) = (   0.1000000   0.1732051   0.0000000  )
        16           C   tau(  16) = (   0.1000000   0.2886751   0.0000000  )
        17           C   tau(  17) = (   0.0000000   0.3464102   0.0000000  )
        18           C   tau(  18) = (   0.0000000   0.4618802   0.0000000  )
        19           C   tau(  19) = (  -0.1000000   0.5196152   0.0000000  )
        20           C   tau(  20) = (  -0.1000000   0.6350853   0.0000000  )
        21           C   tau(  21) = (  -0.2000000   0.6928203   0.0000000  )
        22           C   tau(  22) = (  -0.2000000   0.8082904   0.0000000  )
        23           C   tau(  23) = (   0.4000000   0.0000000   0.0000000  )
        24           C   tau(  24) = (   0.4000000   0.1154701   0.0000000  )
        25           C   tau(  25) = (   0.3000000   0.1732051   0.0000000  )
        26           C   tau(  26) = (   0.3000000   0.2886751   0.0000000  )
        27           C   tau(  27) = (   0.2000000   0.3464102   0.0000000  )
        28           Cr  tau(  28) = (   0.2000000   0.4618802   0.0000000  )
        29           C   tau(  29) = (   0.1000000   0.5196152   0.0000000  )
        30           C   tau(  30) = (   0.1000000   0.6350853   0.0000000  )
        31           C   tau(  31) = (   0.0000000   0.6928203   0.0000000  )
        32           C   tau(  32) = (   0.0000000   0.8082904   0.0000000  )
        33           C   tau(  33) = (   0.6000000   0.0000000   0.0000000  )
        34           C   tau(  34) = (   0.6000000   0.1154701   0.0000000  )
        35           C   tau(  35) = (   0.5000000   0.1732051   0.0000000  )
        36           C   tau(  36) = (   0.5000000   0.2886751   0.0000000  )
        37           C   tau(  37) = (   0.4000000   0.3464102   0.0000000  )
        38           C   tau(  38) = (   0.4000000   0.4618802   0.0000000  )
        39           C   tau(  39) = (   0.3000000   0.5196152   0.0000000  )
        40           C   tau(  40) = (   0.3000000   0.6350853   0.0000000  )
        41           C   tau(  41) = (   0.2000000   0.6928203   0.0000000  )
        42           C   tau(  42) = (   0.2000000   0.8082904   0.0000000  )
        43           C   tau(  43) = (   0.8000000   0.0000000   0.0000000  )
        44           C   tau(  44) = (   0.8000000   0.1154701   0.0000000  )
        45           C   tau(  45) = (   0.7000000   0.1732051   0.0000000  )
        46           C   tau(  46) = (   0.7000000   0.2886751   0.0000000  )
        47           C   tau(  47) = (   0.6000000   0.3464102   0.0000000  )
        48           C   tau(  48) = (   0.6000000   0.4618802   0.0000000  )
        49           C   tau(  49) = (   0.5000000   0.5196152   0.0000000  )
        50           C   tau(  50) = (   0.5000000   0.6350853   0.0000000  )
        51           C   tau(  51) = (   0.4000000   0.6928203   0.0000000  )
        52           C   tau(  52) = (   0.4000000   0.8082904   0.0000000  )

   Crystallographic axes

     site n.     atom                  positions (cryst. coord.)
         1           H   tau(   1) = (  0.4666667  0.5333333  0.2000000  )
         2           H   tau(   2) = (  0.4666667  0.5333333  0.2752072  )
         3           C   tau(   3) = (  0.0000000  0.0000000  0.0000000  )
         4           C   tau(   4) = (  0.0666667  0.1333333  0.0000000  )
         5           C   tau(   5) = (  0.0000000  0.2000000  0.0000000  )
         6           C   tau(   6) = (  0.0666667  0.3333333  0.0000000  )
         7           C   tau(   7) = (  0.0000000  0.4000000  0.0000000  )
         8           C   tau(   8) = (  0.0666667  0.5333333  0.0000000  )
         9           C   tau(   9) = (  0.0000000  0.6000000  0.0000000  )
        10           C   tau(  10) = (  0.0666667  0.7333333  0.0000000  )
        11           C   tau(  11) = (  0.0000000  0.8000000  0.0000000  )
        12           C   tau(  12) = (  0.0666667  0.9333333  0.0000000  )
        13           C   tau(  13) = (  0.2000000  0.0000000  0.0000000  )
        14           C   tau(  14) = (  0.2666667  0.1333333  0.0000000  )
        15           C   tau(  15) = (  0.2000000  0.2000000  0.0000000  )
        16           C   tau(  16) = (  0.2666667  0.3333333  0.0000000  )
        17           C   tau(  17) = (  0.2000000  0.4000000  0.0000000  )
        18           C   tau(  18) = (  0.2666667  0.5333333  0.0000000  )
        19           C   tau(  19) = (  0.2000000  0.6000000  0.0000000  )
        20           C   tau(  20) = (  0.2666667  0.7333333  0.0000000  )
        21           C   tau(  21) = (  0.2000000  0.8000000  0.0000000  )
        22           C   tau(  22) = (  0.2666667  0.9333333  0.0000000  )
        23           C   tau(  23) = (  0.4000000  0.0000000  0.0000000  )
        24           C   tau(  24) = (  0.4666667  0.1333333  0.0000000  )
        25           C   tau(  25) = (  0.4000000  0.2000000  0.0000000  )
        26           C   tau(  26) = (  0.4666667  0.3333333  0.0000000  )
        27           C   tau(  27) = (  0.4000000  0.4000000  0.0000000  )
        28           Cr  tau(  28) = (  0.4666667  0.5333333  0.0000000  )
        29           C   tau(  29) = (  0.4000000  0.6000000  0.0000000  )
        30           C   tau(  30) = (  0.4666667  0.7333333  0.0000000  )
        31           C   tau(  31) = (  0.4000000  0.8000000  0.0000000  )
        32           C   tau(  32) = (  0.4666667  0.9333333  0.0000000  )
        33           C   tau(  33) = (  0.6000000  0.0000000  0.0000000  )
        34           C   tau(  34) = (  0.6666667  0.1333333  0.0000000  )
        35           C   tau(  35) = (  0.6000000  0.2000000  0.0000000  )
        36           C   tau(  36) = (  0.6666667  0.3333333  0.0000000  )
        37           C   tau(  37) = (  0.6000000  0.4000000  0.0000000  )
        38           C   tau(  38) = (  0.6666667  0.5333333  0.0000000  )
        39           C   tau(  39) = (  0.6000000  0.6000000  0.0000000  )
        40           C   tau(  40) = (  0.6666667  0.7333333  0.0000000  )
        41           C   tau(  41) = (  0.6000000  0.8000000  0.0000000  )
        42           C   tau(  42) = (  0.6666667  0.9333333  0.0000000  )
        43           C   tau(  43) = (  0.8000000  0.0000000  0.0000000  )
        44           C   tau(  44) = (  0.8666667  0.1333333  0.0000000  )
        45           C   tau(  45) = (  0.8000000  0.2000000  0.0000000  )
        46           C   tau(  46) = (  0.8666667  0.3333333  0.0000000  )
        47           C   tau(  47) = (  0.8000000  0.4000000  0.0000000  )
        48           C   tau(  48) = (  0.8666667  0.5333333  0.0000000  )
        49           C   tau(  49) = (  0.8000000  0.6000000  0.0000000  )
        50           C   tau(  50) = (  0.8666667  0.7333333  0.0000000  )
        51           C   tau(  51) = (  0.8000000  0.8000000  0.0000000  )
        52           C   tau(  52) = (  0.8666667  0.9333333  0.0000000  )

     number of k points=     1  Marzari-Vanderbilt smearing, width (Ry)=  0.0010
                       cart. coord. in units 2pi/alat
        k(    1) = (   0.0000000   0.0000000   0.0000000), wk =   1.0000000

                       cryst. coord.
        k(    1) = (   0.0000000   0.0000000   0.0000000), wk =   1.0000000

     Check: negative core charge=   -0.000002

     Initial potential from superposition of free atoms

     starting charge  211.80478, renormalised to  212.00000

     negative rho (up, down):  5.786E-04 2.618E-02

Carrying out rVV10 run using the following parameters:
Nqs =      20    Nr_points =    1024   r_max =   100.000
b_value =  6.30000    beta =  0.00901
     q_mesh =  0.00010000  0.00030000  0.00058939  0.00100810
               0.00161396  0.00249058  0.00375900  0.00559430
               0.00824984  0.01209221  0.01765183  0.02569619
               0.03733578  0.05417739  0.07854596  0.11380545
               0.16482331  0.23864234  0.34545298  0.50000000

Gradients computed in Reciprocal space

     Starting wfcs are  208 randomized atomic wfcs

     Self-consistent Calculation

     iteration #  1     ecut=    70.00 Ry     beta= 0.70
     Davidson diagonalization with overlap
     ethr =  1.00E-02,  avg # of iterations =  2.5

[...]

     total energy              =    -780.10102099 Ry
     Harris-Foulkes estimate   =    -786.30304159 Ry
     estimated scf accuracy    <      14.48695962 Ry

     total magnetization       =     8.00 Bohr mag/cell
     absolute magnetization    =     8.24 Bohr mag/cell

[...]

     total energy              =    -786.96597072 Ry
     Harris-Foulkes estimate   =    -786.96597027 Ry
     estimated scf accuracy    <       0.00000107 Ry

[...]

     iteration # 46     ecut=    70.00 Ry     beta= 0.70
     Davidson diagonalization with overlap
     ethr =  4.79E-10,  avg # of iterations =  3.5

     negative rho (up, down):  2.884E-03 5.364E-03

     Magnetic moment per site:
     atom:    1    charge:    0.2197    magn:    0.0001    constr:    0.0000
     atom:    2    charge:    0.2008    magn:   -0.0020    constr:    0.0000
     atom:    3    charge:    1.7169    magn:   -0.0134    constr:    0.0000
     atom:    4    charge:    1.7159    magn:    0.0186    constr:    0.0000
     atom:    5    charge:    1.7178    magn:   -0.0099    constr:    0.0000
     atom:    6    charge:    1.7143    magn:    0.0063    constr:    0.0000
     atom:    7    charge:    1.7178    magn:   -0.0099    constr:    0.0000
     atom:    8    charge:    1.7159    magn:    0.0186    constr:    0.0000
     atom:    9    charge:    1.7169    magn:   -0.0134    constr:    0.0000
     atom:   10    charge:    1.7164    magn:    0.0604    constr:    0.0000
     atom:   11    charge:    1.7173    magn:   -0.0188    constr:    0.0000
     atom:   12    charge:    1.7164    magn:    0.0604    constr:    0.0000
     atom:   13    charge:    1.7173    magn:   -0.0188    constr:    0.0000
     atom:   14    charge:    1.7166    magn:    0.0480    constr:    0.0000
     atom:   15    charge:    1.7147    magn:   -0.0161    constr:    0.0000
     atom:   16    charge:    1.7143    magn:    0.0614    constr:    0.0000
     atom:   17    charge:    1.7244    magn:   -0.0143    constr:    0.0000
     atom:   18    charge:    1.7143    magn:    0.0614    constr:    0.0000
     atom:   19    charge:    1.7147    magn:   -0.0161    constr:    0.0000
     atom:   20    charge:    1.7166    magn:    0.0480    constr:    0.0000
     atom:   21    charge:    1.7173    magn:   -0.0188    constr:    0.0000
     atom:   22    charge:    1.7164    magn:    0.0604    constr:    0.0000
     atom:   23    charge:    1.7169    magn:   -0.0134    constr:    0.0000
     atom:   24    charge:    1.7159    magn:    0.0186    constr:    0.0000
     atom:   25    charge:    1.7147    magn:   -0.0161    constr:    0.0000
     atom:   26    charge:    1.7143    magn:    0.0614    constr:    0.0000
     atom:   27    charge:    1.8995    magn:   -0.0163    constr:    0.0000
     atom:   28    charge:    8.9288    magn:    0.3148    constr:    0.0000
     atom:   29    charge:    1.8994    magn:   -0.0163    constr:    0.0000
     atom:   30    charge:    1.7143    magn:    0.0614    constr:    0.0000
     atom:   31    charge:    1.7147    magn:   -0.0161    constr:    0.0000
     atom:   32    charge:    1.7159    magn:    0.0186    constr:    0.0000
     atom:   33    charge:    1.7178    magn:   -0.0099    constr:    0.0000
     atom:   34    charge:    1.7145    magn:    0.0133    constr:    0.0000
     atom:   35    charge:    1.7178    magn:   -0.0099    constr:    0.0000
     atom:   36    charge:    1.7143    magn:    0.0063    constr:    0.0000
     atom:   37    charge:    1.7244    magn:   -0.0143    constr:    0.0000
     atom:   38    charge:    1.7143    magn:    0.0614    constr:    0.0000
     atom:   39    charge:    1.8995    magn:   -0.0163    constr:    0.0000
     atom:   40    charge:    1.7143    magn:    0.0614    constr:    0.0000
     atom:   41    charge:    1.7244    magn:   -0.0143    constr:    0.0000
     atom:   42    charge:    1.7143    magn:    0.0063    constr:    0.0000
     atom:   43    charge:    1.7178    magn:   -0.0099    constr:    0.0000
     atom:   44    charge:    1.7145    magn:    0.0133    constr:    0.0000
     atom:   45    charge:    1.7233    magn:   -0.0071    constr:    0.0000
     atom:   46    charge:    1.7145    magn:    0.0133    constr:    0.0000
     atom:   47    charge:    1.7178    magn:   -0.0099    constr:    0.0000
     atom:   48    charge:    1.7159    magn:    0.0186    constr:    0.0000
     atom:   49    charge:    1.7147    magn:   -0.0161    constr:    0.0000
     atom:   50    charge:    1.7166    magn:    0.0480    constr:    0.0000
     atom:   51    charge:    1.7147    magn:   -0.0161    constr:    0.0000
     atom:   52    charge:    1.7159    magn:    0.0186    constr:    0.0000

     End of self-consistent calculation

 ------ SPIN UP ------------

          k = 0.0000 0.0000 0.0000 ( 87777 PWs)   bands (ev):

   -71.9791 -44.2434 -44.2434 -43.2550 -19.6102 -18.7723 -18.7721 -18.6789
   -18.6749 -18.6749 -18.3145 -16.9225 -16.9224 -16.9141 -16.8191 -16.8190
   -16.5055 -16.0744 -16.0744 -15.9680 -15.8885 -15.8885 -15.1671 -13.9409
   -13.9409 -13.9064 -13.8272 -13.8271 -13.1558 -12.9055 -12.9055 -12.8798
   -12.5488 -12.5487 -12.1188 -11.6694 -11.6694 -11.5033 -11.1957 -11.1957
   -10.2391  -9.4484  -9.4484  -9.2837  -9.1579  -9.1578  -9.0569  -9.0321
    -9.0321  -9.0170  -8.6510  -8.4987  -8.4987  -7.9584  -7.9584  -7.8511
    -7.7440  -7.6670  -7.2481  -7.2481  -7.0694  -7.0693  -6.9448  -6.6788
    -6.6787  -6.6695  -6.6695  -6.6663  -6.5553  -6.3979  -6.3979  -6.3667
    -6.3613  -6.3612  -6.3173  -6.3038  -5.4271  -5.4270  -5.2893  -5.2892
    -5.0276  -5.0276  -4.8164  -4.7256  -4.6070  -4.5950  -4.5949  -4.2365
    -4.2179  -4.0444  -4.0444  -3.7467  -3.7467  -3.6425  -3.5147  -3.5147
    -3.4664  -3.4664  -2.9305  -2.4629  -2.4629  -1.7711  -1.6491  -1.6491
    -0.7237  -0.7236  -0.6329  -0.3055   1.0357   1.1086   1.1086   1.7503
     1.8541   1.8541   2.3927   2.8997   2.8997   2.9941   3.3510   3.3511
     3.4001   3.7049   3.7049   3.7482   3.7782   3.7783   3.8771

     occupation numbers
     1.0000   1.0000   1.0000   1.0000   1.0000   1.0000   1.0000   1.0000
     1.0000   1.0000   1.0000   1.0000   1.0000   1.0000   1.0000   1.0000
     1.0000   1.0000   1.0000   1.0000   1.0000   1.0000   1.0000   1.0000
     1.0000   1.0000   1.0000   1.0000   1.0000   1.0000   1.0000   1.0000
     1.0000   1.0000   1.0000   1.0000   1.0000   1.0000   1.0000   1.0000
     1.0000   1.0000   1.0000   1.0000   1.0000   1.0000   1.0000   1.0000
     1.0000   1.0000   1.0000   1.0000   1.0000   1.0000   1.0000   1.0000
     1.0000   1.0000   1.0000   1.0000   1.0000   1.0000   1.0000   1.0000
     1.0000   1.0000   1.0000   1.0000   1.0000   1.0000   1.0000   1.0000
     1.0000   1.0000   1.0000   1.0000   1.0000   1.0000   1.0000   1.0000
     1.0000   1.0000   1.0000   1.0000   1.0000   1.0000   1.0000   1.0000
     1.0000   1.0000   1.0000   1.0000   1.0000   1.0000   1.0000   1.0000
     1.0000   1.0000   1.0000   1.0000   1.0000   1.0000   1.0000   1.0000
     1.0000   1.0000   1.0000   0.0000   0.0000   0.0000   0.0000   0.0000
     0.0000   0.0000   0.0000   0.0000   0.0000   0.0000   0.0000   0.0000
     0.0000   0.0000   0.0000   0.0000   0.0000   0.0000   0.0000

 ------ SPIN DOWN ----------

          k = 0.0000 0.0000 0.0000 ( 87777 PWs)   bands (ev):

   -71.4661 -43.8101 -43.8101 -42.5429 -19.5691 -18.7246 -18.7245 -18.6481
   -18.6480 -18.6404 -18.2528 -16.8858 -16.8857 -16.8845 -16.7631 -16.7630
   -16.4776 -16.0239 -16.0239 -15.9372 -15.8462 -15.8462 -15.1410 -13.8714
   -13.8714 -13.8358 -13.8163 -13.8162 -13.1669 -12.8817 -12.8817 -12.8483
   -12.5301 -12.5300 -12.0856 -11.6344 -11.6344 -11.4794 -11.1704 -11.1704
   -10.2137  -9.4116  -9.4115  -9.2553  -9.1242  -9.1242  -9.0414  -9.0068
    -9.0068  -8.9998  -8.6602  -8.4828  -8.4828  -7.9321  -7.9321  -7.8351
    -7.6555  -7.6509  -7.2306  -7.2306  -6.9088  -6.9055  -6.9054  -6.6400
    -6.6400  -6.6198  -6.6198  -6.5723  -6.5393  -6.3780  -6.3779  -6.3558
    -6.3498  -6.3497  -6.2995  -6.1657  -5.2775  -5.2775  -5.2549  -5.2548
    -4.9946  -4.9945  -4.8032  -4.7154  -4.5276  -4.4966  -4.4965  -4.1616
    -4.1426  -3.9462  -3.9462  -3.6040  -3.6040  -3.5547  -3.4832  -3.4832
    -3.3270  -3.3270  -2.8897  -2.3121  -2.3121  -1.6214  -1.6213  -1.5902
    -0.6608  -0.2304  -0.2304  -0.1279   1.1508   1.1508   1.1949   1.8734
     1.9895   1.9896   2.4070   3.0399   3.0400   3.0686   3.3959   3.3960
     3.4455   3.7121   3.7121   3.7588   3.9250   3.9250   3.9389

     occupation numbers
     1.0000   1.0000   1.0000   1.0000   1.0000   1.0000   1.0000   1.0000
     1.0000   1.0000   1.0000   1.0000   1.0000   1.0000   1.0000   1.0000
     1.0000   1.0000   1.0000   1.0000   1.0000   1.0000   1.0000   1.0000
     1.0000   1.0000   1.0000   1.0000   1.0000   1.0000   1.0000   1.0000
     1.0000   1.0000   1.0000   1.0000   1.0000   1.0000   1.0000   1.0000
     1.0000   1.0000   1.0000   1.0000   1.0000   1.0000   1.0000   1.0000
     1.0000   1.0000   1.0000   1.0000   1.0000   1.0000   1.0000   1.0000
     1.0000   1.0000   1.0000   1.0000   1.0000   1.0000   1.0000   1.0000
     1.0000   1.0000   1.0000   1.0000   1.0000   1.0000   1.0000   1.0000
     1.0000   1.0000   1.0000   1.0000   1.0000   1.0000   1.0000   1.0000
     1.0000   1.0000   1.0000   1.0000   1.0000   1.0000   1.0000   1.0000
     1.0000   1.0000   1.0000   1.0000   1.0000   1.0000   1.0000   1.0000
     1.0000   1.0000   1.0000   1.0000   1.0000   1.0000   1.0000   1.0000
     1.0000   0.0000   0.0000   0.0000   0.0000   0.0000   0.0000   0.0000
     0.0000   0.0000   0.0000   0.0000   0.0000   0.0000   0.0000   0.0000
     0.0000   0.0000   0.0000   0.0000   0.0000   0.0000   0.0000

     the Fermi energy is    -0.4854 ev

!    total energy              =    -786.96597272 Ry
     Harris-Foulkes estimate   =    -786.96597221 Ry
     estimated scf accuracy    <       0.00000094 Ry

     The total energy is the sum of the following terms:

     one-electron contribution =   -2665.50093396 Ry
     hartree contribution      =    1378.69304311 Ry
     xc contribution           =    -254.40078236 Ry
     ewald contribution        =     754.24270049 Ry
     smearing contrib. (-TS)   =       0.00000000 Ry

     total magnetization       =     2.00 Bohr mag/cell
     absolute magnetization    =     3.31 Bohr mag/cell

     convergence has been achieved in  46 iterations

     Writing output data file distance-2.0.save/

     General routines

     Parallel routines

   This run was terminated on:  14:13:21  17Aug2022

   JOB DONE.