     Program PWSCF v.6.4.1 starts on 16Aug2022 at 16: 2: 1

     R & G space division:  proc/nbgrp/npool/nimage =       8
     Reading input from distance-2.8.in

     Current dimensions of program PWSCF are:
     Max number of different atomic species (ntypx) = 10
     Max number of k-points (npk) =  40000
     Max angular momentum in pseudopotentials (lmaxx) =  3

     IMPORTANT: XC functional enforced from input :
     Exchange-correlation      = RVV10 ( 1  4 13  4 3 0)
     Any further DFT definition will be discarded
     Please, verify this is what you really want

               file H.pbe-rrkjus.UPF: wavefunction(s)  1S renormalized
               file Cr.pbe-spn-rrkjus_psl.1.0.0.UPF: wavefunction(s)  3P renormalized

     Subspace diagonalization in iterative solution of the eigenvalue problem:
     one sub-group per band group will be used

     bravais-lattice index     =            4
     lattice parameter (alat)  =      23.2937  a.u.
     unit-cell volume          =    8879.8548 (a.u.)^3
     number of atoms/cell      =           52
     number of atomic types    =            3
     number of electrons       =       212.00
     number of Kohn-Sham states=          127
     kinetic-energy cutoff     =      70.0000  Ry
     charge density cutoff     =     490.0000  Ry
     convergence threshold     =      1.0E-06
     mixing beta               =       0.7000
     number of iterations used =            8  plain     mixing
     Exchange-correlation      = RVV10 ( 1  4 13  4 3 0)

     celldm(1)=  23.293684  celldm(2)=   0.000000  celldm(3)=   0.811261
     celldm(4)=   0.000000  celldm(5)=   0.000000  celldm(6)=   0.000000

     crystal axes: (cart. coord. in units of alat)
               a(1) = (   1.000000   0.000000   0.000000 )
               a(2) = (  -0.500000   0.866025   0.000000 )
               a(3) = (   0.000000   0.000000   0.811261 )

     reciprocal axes: (cart. coord. in units 2 pi/alat)
               b(1) = (  1.000000  0.577350 -0.000000 )
               b(2) = (  0.000000  1.154701  0.000000 )
               b(3) = (  0.000000 -0.000000  1.232649 )

     PseudoPot. # 1 for H  read from file:
     /home/cristian/Escritorio/Proyecto_Grafeno/pseudopotenciales/H.pbe-rrkjus.UPF
     MD5 check sum: 7cc9d459525c9a0585f487a71c3c9563
     Pseudo is Ultrasoft, Zval =  1.0
     Generated by new atomic code, or converted to UPF format
     Using radial grid of 1061 points,  2 beta functions with:
                l(1) =   0
                l(2) =   0
     Q(r) pseudized with 0 coefficients

     PseudoPot. # 2 for C  read from file:
     /home/cristian/Escritorio/Proyecto_Grafeno/pseudopotenciales/C.pbe-n-rrkjus_psl.1.0.0.UPF
     MD5 check sum: 1fdd950c42eb37d8afe3dd2f8d12311e
     Pseudo is Ultrasoft + core correction, Zval =  4.0
     Generated using "atomic" code by A. Dal Corso v.6.3MaX
     Using radial grid of 1073 points,  4 beta functions with:
                l(1) =   0
                l(2) =   0
                l(3) =   1
                l(4) =   1
     Q(r) pseudized with 0 coefficients

     PseudoPot. # 3 for Cr read from file:
     /home/cristian/Escritorio/Proyecto_Grafeno/pseudopotenciales/Cr.pbe-spn-rrkjus_psl.1.0.0.UPF
     MD5 check sum: 793d051e4f89dd1e3290b85340a92c0a
     Pseudo is Ultrasoft + core correction, Zval = 14.0
     Generated using "atomic" code by A. Dal Corso v.6.2.2
     Using radial grid of 1183 points,  6 beta functions with:
                l(1) =   0
                l(2) =   0
                l(3) =   1
                l(4) =   1
                l(5) =   2
                l(6) =   2
     Q(r) pseudized with 0 coefficients

     vdW kernel table read from file rVV10_kernel_table
     MD5 check sum: b8e2538accc0c0b3206b45ba4daaba6c

     atomic species   valence    mass     pseudopotential
        H              1.00     1.00794     H ( 1.00)
        C              4.00    12.01070     C ( 1.00)
        Cr            14.00    51.99610     Cr( 1.00)

     Starting magnetic structure
     atomic species   magnetization
        H            0.500
        C            0.300
        Cr           0.800

      2 Sym. Ops. (no inversion) found

                                    s                        frac. trans.

      isym =  1     identity

 cryst.   s( 1) = (     1          0          0      )
                  (     0          1          0      )
                  (     0          0          1      )

 cart.    s( 1) = (  1.0000000  0.0000000  0.0000000 )
                  (  0.0000000  1.0000000  0.0000000 )
                  (  0.0000000  0.0000000  1.0000000 )

      isym =  2     inv. 180 deg rotation - cryst. axis [1,1,0]

 cryst.   s( 2) = (     0         -1          0      )
                  (    -1          0          0      )
                  (     0          0          1      )

 cart.    s( 2) = (  0.5000000 -0.8660254  0.0000000 )
                  ( -0.8660254 -0.5000000  0.0000000 )
                  (  0.0000000  0.0000000  1.0000000 )

     point group C_s (m)
     there are  2 classes
     the character table:

       E     s
A'     1.00  1.00
A''    1.00 -1.00

     the symmetry operations in each class and the name of the first element:

     E        1
          identity
     s        2
          inv. 180 deg rotation - cryst. axis [1,1,0]

   Cartesian axes

     site n.     atom                  positions (alat units)
         1           H   tau(   1) = (   0.2000000   0.4618802   0.2271531  )
         2           H   tau(   2) = (   0.2000000   0.4618802   0.2881658  )
         3           C   tau(   3) = (   0.0000000   0.0000000   0.0000000  )
         4           C   tau(   4) = (   0.0000000   0.1154701   0.0000000  )
         5           C   tau(   5) = (  -0.1000000   0.1732051   0.0000000  )
         6           C   tau(   6) = (  -0.1000000   0.2886751   0.0000000  )
         7           C   tau(   7) = (  -0.2000000   0.3464102   0.0000000  )
         8           C   tau(   8) = (  -0.2000000   0.4618802   0.0000000  )
         9           C   tau(   9) = (  -0.3000000   0.5196152   0.0000000  )
        10           C   tau(  10) = (  -0.3000000   0.6350853   0.0000000  )
        11           C   tau(  11) = (  -0.4000000   0.6928203   0.0000000  )
        12           C   tau(  12) = (  -0.4000000   0.8082904   0.0000000  )
        13           C   tau(  13) = (   0.2000000   0.0000000   0.0000000  )
        14           C   tau(  14) = (   0.2000000   0.1154701   0.0000000  )
        15           C   tau(  15) = (   0.1000000   0.1732051   0.0000000  )
        16           C   tau(  16) = (   0.1000000   0.2886751   0.0000000  )
        17           C   tau(  17) = (   0.0000000   0.3464102   0.0000000  )
        18           C   tau(  18) = (   0.0000000   0.4618802   0.0000000  )
        19           C   tau(  19) = (  -0.1000000   0.5196152   0.0000000  )
        20           C   tau(  20) = (  -0.1000000   0.6350853   0.0000000  )
        21           C   tau(  21) = (  -0.2000000   0.6928203   0.0000000  )
        22           C   tau(  22) = (  -0.2000000   0.8082904   0.0000000  )
        23           C   tau(  23) = (   0.4000000   0.0000000   0.0000000  )
        24           C   tau(  24) = (   0.4000000   0.1154701   0.0000000  )
        25           C   tau(  25) = (   0.3000000   0.1732051   0.0000000  )
        26           C   tau(  26) = (   0.3000000   0.2886751   0.0000000  )
        27           C   tau(  27) = (   0.2000000   0.3464102   0.0000000  )
        28           Cr  tau(  28) = (   0.2000000   0.4618802   0.0000000  )
        29           C   tau(  29) = (   0.1000000   0.5196152   0.0000000  )
        30           C   tau(  30) = (   0.1000000   0.6350853   0.0000000  )
        31           C   tau(  31) = (   0.0000000   0.6928203   0.0000000  )
        32           C   tau(  32) = (   0.0000000   0.8082904   0.0000000  )
        33           C   tau(  33) = (   0.6000000   0.0000000   0.0000000  )
        34           C   tau(  34) = (   0.6000000   0.1154701   0.0000000  )
        35           C   tau(  35) = (   0.5000000   0.1732051   0.0000000  )
        36           C   tau(  36) = (   0.5000000   0.2886751   0.0000000  )
        37           C   tau(  37) = (   0.4000000   0.3464102   0.0000000  )
        38           C   tau(  38) = (   0.4000000   0.4618802   0.0000000  )
        39           C   tau(  39) = (   0.3000000   0.5196152   0.0000000  )
        40           C   tau(  40) = (   0.3000000   0.6350853   0.0000000  )
        41           C   tau(  41) = (   0.2000000   0.6928203   0.0000000  )
        42           C   tau(  42) = (   0.2000000   0.8082904   0.0000000  )
        43           C   tau(  43) = (   0.8000000   0.0000000   0.0000000  )
        44           C   tau(  44) = (   0.8000000   0.1154701   0.0000000  )
        45           C   tau(  45) = (   0.7000000   0.1732051   0.0000000  )
        46           C   tau(  46) = (   0.7000000   0.2886751   0.0000000  )
        47           C   tau(  47) = (   0.6000000   0.3464102   0.0000000  )
        48           C   tau(  48) = (   0.6000000   0.4618802   0.0000000  )
        49           C   tau(  49) = (   0.5000000   0.5196152   0.0000000  )
        50           C   tau(  50) = (   0.5000000   0.6350853   0.0000000  )
        51           C   tau(  51) = (   0.4000000   0.6928203   0.0000000  )
        52           C   tau(  52) = (   0.4000000   0.8082904   0.0000000  )

   Crystallographic axes

     site n.     atom                  positions (cryst. coord.)
         1           H   tau(   1) = (  0.4666667  0.5333333  0.2800000  )
         2           H   tau(   2) = (  0.4666667  0.5333333  0.3552072  )
         3           C   tau(   3) = (  0.0000000  0.0000000  0.0000000  )
         4           C   tau(   4) = (  0.0666667  0.1333333  0.0000000  )
         5           C   tau(   5) = (  0.0000000  0.2000000  0.0000000  )
         6           C   tau(   6) = (  0.0666667  0.3333333  0.0000000  )
         7           C   tau(   7) = (  0.0000000  0.4000000  0.0000000  )
         8           C   tau(   8) = (  0.0666667  0.5333333  0.0000000  )
         9           C   tau(   9) = (  0.0000000  0.6000000  0.0000000  )
        10           C   tau(  10) = (  0.0666667  0.7333333  0.0000000  )
        11           C   tau(  11) = (  0.0000000  0.8000000  0.0000000  )
        12           C   tau(  12) = (  0.0666667  0.9333333  0.0000000  )
        13           C   tau(  13) = (  0.2000000  0.0000000  0.0000000  )
        14           C   tau(  14) = (  0.2666667  0.1333333  0.0000000  )
        15           C   tau(  15) = (  0.2000000  0.2000000  0.0000000  )
        16           C   tau(  16) = (  0.2666667  0.3333333  0.0000000  )
        17           C   tau(  17) = (  0.2000000  0.4000000  0.0000000  )
        18           C   tau(  18) = (  0.2666667  0.5333333  0.0000000  )
        19           C   tau(  19) = (  0.2000000  0.6000000  0.0000000  )
        20           C   tau(  20) = (  0.2666667  0.7333333  0.0000000  )
        21           C   tau(  21) = (  0.2000000  0.8000000  0.0000000  )
        22           C   tau(  22) = (  0.2666667  0.9333333  0.0000000  )
        23           C   tau(  23) = (  0.4000000  0.0000000  0.0000000  )
        24           C   tau(  24) = (  0.4666667  0.1333333  0.0000000  )
        25           C   tau(  25) = (  0.4000000  0.2000000  0.0000000  )
        26           C   tau(  26) = (  0.4666667  0.3333333  0.0000000  )
        27           C   tau(  27) = (  0.4000000  0.4000000  0.0000000  )
        28           Cr  tau(  28) = (  0.4666667  0.5333333  0.0000000  )
        29           C   tau(  29) = (  0.4000000  0.6000000  0.0000000  )
        30           C   tau(  30) = (  0.4666667  0.7333333  0.0000000  )
        31           C   tau(  31) = (  0.4000000  0.8000000  0.0000000  )
        32           C   tau(  32) = (  0.4666667  0.9333333  0.0000000  )
        33           C   tau(  33) = (  0.6000000  0.0000000  0.0000000  )
        34           C   tau(  34) = (  0.6666667  0.1333333  0.0000000  )
        35           C   tau(  35) = (  0.6000000  0.2000000  0.0000000  )
        36           C   tau(  36) = (  0.6666667  0.3333333  0.0000000  )
        37           C   tau(  37) = (  0.6000000  0.4000000  0.0000000  )
        38           C   tau(  38) = (  0.6666667  0.5333333  0.0000000  )
        39           C   tau(  39) = (  0.6000000  0.6000000  0.0000000  )
        40           C   tau(  40) = (  0.6666667  0.7333333  0.0000000  )
        41           C   tau(  41) = (  0.6000000  0.8000000  0.0000000  )
        42           C   tau(  42) = (  0.6666667  0.9333333  0.0000000  )
        43           C   tau(  43) = (  0.8000000  0.0000000  0.0000000  )
        44           C   tau(  44) = (  0.8666667  0.1333333  0.0000000  )
        45           C   tau(  45) = (  0.8000000  0.2000000  0.0000000  )
        46           C   tau(  46) = (  0.8666667  0.3333333  0.0000000  )
        47           C   tau(  47) = (  0.8000000  0.4000000  0.0000000  )
        48           C   tau(  48) = (  0.8666667  0.5333333  0.0000000  )
        49           C   tau(  49) = (  0.8000000  0.6000000  0.0000000  )
        50           C   tau(  50) = (  0.8666667  0.7333333  0.0000000  )
        51           C   tau(  51) = (  0.8000000  0.8000000  0.0000000  )
        52           C   tau(  52) = (  0.8666667  0.9333333  0.0000000  )

     number of k points=     1  Marzari-Vanderbilt smearing, width (Ry)=  0.0010
                       cart. coord. in units 2pi/alat
        k(    1) = (   0.0000000   0.0000000   0.0000000), wk =   1.0000000

                       cryst. coord.
        k(    1) = (   0.0000000   0.0000000   0.0000000), wk =   1.0000000

     Check: negative core charge=   -0.000002

     Initial potential from superposition of free atoms

     starting charge  211.80478, renormalised to  212.00000

     negative rho (up, down):  4.887E-04 2.176E-02

Carrying out rVV10 run using the following parameters:
Nqs =      20    Nr_points =    1024   r_max =   100.000
b_value =  6.30000    beta =  0.00901
     q_mesh =  0.00010000  0.00030000  0.00058939  0.00100810
               0.00161396  0.00249058  0.00375900  0.00559430
               0.00824984  0.01209221  0.01765183  0.02569619
               0.03733578  0.05417739  0.07854596  0.11380545
               0.16482331  0.23864234  0.34545298  0.50000000

Gradients computed in Reciprocal space

     Starting wfcs are  208 randomized atomic wfcs

     Self-consistent Calculation

     iteration #  1     ecut=    70.00 Ry     beta= 0.70
     Davidson diagonalization with overlap
     ethr =  1.00E-02,  avg # of iterations =  2.5

[...]

     total energy              =    -784.42710781 Ry
     Harris-Foulkes estimate   =    -786.14469866 Ry
     estimated scf accuracy    <       9.94914438 Ry

     total magnetization       =     4.00 Bohr mag/cell
     absolute magnetization    =     5.44 Bohr mag/cell

[...]

     total energy              =    -786.97958728 Ry
     Harris-Foulkes estimate   =    -786.97958755 Ry
     estimated scf accuracy    <       0.00000122 Ry

[...]

     iteration # 67     ecut=    70.00 Ry     beta= 0.70
     Davidson diagonalization with overlap
     ethr =  5.77E-10,  avg # of iterations =  3.0

     negative rho (up, down):  3.621E-02 8.690E-03

     Magnetic moment per site:
     atom:    1    charge:    0.2130    magn:   -0.0000    constr:    0.0000
     atom:    2    charge:    0.2080    magn:   -0.0001    constr:    0.0000
     atom:    3    charge:    1.7170    magn:   -0.0118    constr:    0.0000
     atom:    4    charge:    1.7158    magn:    0.0177    constr:    0.0000
     atom:    5    charge:    1.7178    magn:   -0.0076    constr:    0.0000
     atom:    6    charge:    1.7141    magn:    0.0054    constr:    0.0000
     atom:    7    charge:    1.7177    magn:   -0.0076    constr:    0.0000
     atom:    8    charge:    1.7158    magn:    0.0177    constr:    0.0000
     atom:    9    charge:    1.7169    magn:   -0.0117    constr:    0.0000
     atom:   10    charge:    1.7162    magn:    0.0598    constr:    0.0000
     atom:   11    charge:    1.7173    magn:   -0.0181    constr:    0.0000
     atom:   12    charge:    1.7162    magn:    0.0598    constr:    0.0000
     atom:   13    charge:    1.7173    magn:   -0.0181    constr:    0.0000
     atom:   14    charge:    1.7165    magn:    0.0477    constr:    0.0000
     atom:   15    charge:    1.7146    magn:   -0.0156    constr:    0.0000
     atom:   16    charge:    1.7127    magn:    0.0619    constr:    0.0000
     atom:   17    charge:    1.7247    magn:   -0.0092    constr:    0.0000
     atom:   18    charge:    1.7127    magn:    0.0619    constr:    0.0000
     atom:   19    charge:    1.7145    magn:   -0.0156    constr:    0.0000
     atom:   20    charge:    1.7164    magn:    0.0477    constr:    0.0000
     atom:   21    charge:    1.7173    magn:   -0.0181    constr:    0.0000
     atom:   22    charge:    1.7162    magn:    0.0598    constr:    0.0000
     atom:   23    charge:    1.7169    magn:   -0.0117    constr:    0.0000
     atom:   24    charge:    1.7158    magn:    0.0177    constr:    0.0000
     atom:   25    charge:    1.7146    magn:   -0.0156    constr:    0.0000
     atom:   26    charge:    1.7127    magn:    0.0619    constr:    0.0000
     atom:   27    charge:    1.9074    magn:   -0.0168    constr:    0.0000
     atom:   28    charge:    8.9040    magn:    0.3239    constr:    0.0000
     atom:   29    charge:    1.9074    magn:   -0.0168    constr:    0.0000
     atom:   30    charge:    1.7127    magn:    0.0619    constr:    0.0000
     atom:   31    charge:    1.7145    magn:   -0.0156    constr:    0.0000
     atom:   32    charge:    1.7158    magn:    0.0177    constr:    0.0000
     atom:   33    charge:    1.7177    magn:   -0.0076    constr:    0.0000
     atom:   34    charge:    1.7143    magn:    0.0118    constr:    0.0000
     atom:   35    charge:    1.7177    magn:   -0.0076    constr:    0.0000
     atom:   36    charge:    1.7141    magn:    0.0054    constr:    0.0000
     atom:   37    charge:    1.7247    magn:   -0.0092    constr:    0.0000
     atom:   38    charge:    1.7127    magn:    0.0619    constr:    0.0000
     atom:   39    charge:    1.9074    magn:   -0.0168    constr:    0.0000
     atom:   40    charge:    1.7127    magn:    0.0619    constr:    0.0000
     atom:   41    charge:    1.7247    magn:   -0.0092    constr:    0.0000
     atom:   42    charge:    1.7141    magn:    0.0054    constr:    0.0000
     atom:   43    charge:    1.7178    magn:   -0.0076    constr:    0.0000
     atom:   44    charge:    1.7143    magn:    0.0118    constr:    0.0000
     atom:   45    charge:    1.7236    magn:    0.0020    constr:    0.0000
     atom:   46    charge:    1.7143    magn:    0.0118    constr:    0.0000
     atom:   47    charge:    1.7177    magn:   -0.0076    constr:    0.0000
     atom:   48    charge:    1.7158    magn:    0.0177    constr:    0.0000
     atom:   49    charge:    1.7146    magn:   -0.0156    constr:    0.0000
     atom:   50    charge:    1.7165    magn:    0.0477    constr:    0.0000
     atom:   51    charge:    1.7146    magn:   -0.0156    constr:    0.0000
     atom:   52    charge:    1.7158    magn:    0.0177    constr:    0.0000

     End of self-consistent calculation

 ------ SPIN UP ------------

          k = 0.0000 0.0000 0.0000 ( 87777 PWs)   bands (ev):

   -72.1201 -44.4319 -44.4315 -43.6272 -19.6474 -18.8162 -18.8160 -18.7114
   -18.7112 -18.7094 -18.3576 -16.9613 -16.9613 -16.9535 -16.8641 -16.8641
   -16.5392 -16.1147 -16.1146 -16.0021 -15.9353 -15.9352 -15.2045 -13.9884
   -13.9884 -13.9498 -13.8611 -13.8611 -13.1896 -12.9436 -12.9436 -12.9176
   -12.5981 -12.5981 -12.1557 -11.7083 -11.7083 -11.5408 -11.2511 -11.2511
   -10.2678  -9.4922  -9.4921  -9.3291  -9.1998  -9.1997  -9.0913  -9.0669
    -9.0668  -9.0501  -8.5537  -8.5536  -7.9963  -7.9962  -7.8958  -7.8388
    -7.7060  -7.2933  -7.2933  -7.2314  -7.1114  -7.1111  -6.9829  -6.7128
    -6.7128  -6.7112  -6.7110  -6.7003  -6.5981  -6.4387  -6.4387  -6.4002
    -6.3952  -6.3951  -6.3925  -6.3494  -5.4672  -5.4669  -5.3546  -5.3545
    -5.0734  -5.0733  -4.8557  -4.7619  -4.6438  -4.6316  -4.6315  -4.3151
    -4.2670  -4.0776  -4.0775  -3.7837  -3.7837  -3.7083  -3.7079  -3.6768
    -3.5173  -3.5172  -2.9828  -2.5076  -2.5076  -1.8129  -1.6807  -1.6807
    -0.7804  -0.7804  -0.6603  -0.5043   0.9943   1.0754   1.0754   1.7333
     1.8120   1.8120   2.4411   2.8625   2.8625   2.9579   3.2081   3.2088
     3.4081   3.5882   3.5887   3.7026   3.7026   3.7386   3.7386

     occupation numbers
     1.0000   1.0000   1.0000   1.0000   1.0000   1.0000   1.0000   1.0000
     1.0000   1.0000   1.0000   1.0000   1.0000   1.0000   1.0000   1.0000
     1.0000   1.0000   1.0000   1.0000   1.0000   1.0000   1.0000   1.0000
     1.0000   1.0000   1.0000   1.0000   1.0000   1.0000   1.0000   1.0000
     1.0000   1.0000   1.0000   1.0000   1.0000   1.0000   1.0000   1.0000
     1.0000   1.0000   1.0000   1.0000   1.0000   1.0000   1.0000   1.0000
     1.0000   1.0000   1.0000   1.0000   1.0000   1.0000   1.0000   1.0000
     1.0000   1.0000   1.0000   1.0000   1.0000   1.0000   1.0000   1.0000
     1.0000   1.0000   1.0000   1.0000   1.0000   1.0000   1.0000   1.0000
     1.0000   1.0000   1.0000   1.0000   1.0000   1.0000   1.0000   1.0000
     1.0000   1.0000   1.0000   1.0000   1.0000   1.0000   1.0000   1.0000
     1.0000   1.0000   1.0000   1.0000   1.0000   1.0000   1.0000   1.0000
     1.0000   1.0000   1.0000   1.0000   1.0000   1.0000   1.0000   1.0000
     1.0000   1.0000   1.0510   0.0000   0.0000   0.0000   0.0000   0.0000
     0.0000   0.0000   0.0000   0.0000   0.0000   0.0000   0.0000   0.0000
     0.0000   0.0000   0.0000   0.0000   0.0000   0.0000   0.0000

 ------ SPIN DOWN ----------

          k = 0.0000 0.0000 0.0000 ( 87777 PWs)   bands (ev):

   -71.5612 -43.9206 -43.9201 -42.8556 -19.6037 -18.7667 -18.7665 -18.6829
   -18.6827 -18.6673 -18.2921 -16.9231 -16.9212 -16.9212 -16.8083 -16.8083
   -16.5079 -16.0630 -16.0630 -15.9661 -15.8950 -15.8949 -15.1763 -13.9215
   -13.9214 -13.8758 -13.8493 -13.8493 -13.1895 -12.9186 -12.9185 -12.8845
   -12.5833 -12.5833 -12.1216 -11.6711 -11.6711 -11.5140 -11.2324 -11.2324
   -10.2411  -9.4546  -9.4545  -9.2988  -9.1642  -9.1641  -9.0748  -9.0399
    -9.0399  -9.0305  -8.5465  -8.5465  -7.9704  -7.9703  -7.8797  -7.7354
    -7.6878  -7.2798  -7.2798  -7.2244  -6.9475  -6.9371  -6.9369  -6.6860
    -6.6859  -6.6475  -6.6472  -6.5958  -6.5810  -6.4165  -6.4165  -6.3885
    -6.3839  -6.3838  -6.3307  -6.2433  -5.3470  -5.3469  -5.2887  -5.2885
    -5.0461  -5.0461  -4.8411  -4.7511  -4.5628  -4.5244  -4.5243  -4.2391
    -4.1884  -3.9731  -3.9729  -3.6782  -3.6779  -3.6370  -3.6370  -3.5754
    -3.4867  -3.4866  -2.9230  -2.3410  -2.3410  -1.6506  -1.6506  -1.6253
    -0.6454  -0.2957  -0.2773  -0.2772   1.1214   1.1214   1.1589   1.8755
     1.9574   1.9574   2.4400   3.0098   3.0099   3.0436   3.2162   3.2168
     3.4395   3.5792   3.5795   3.7029   3.7031   3.7501   3.9104

     occupation numbers
     1.0000   1.0000   1.0000   1.0000   1.0000   1.0000   1.0000   1.0000
     1.0000   1.0000   1.0000   1.0000   1.0000   1.0000   1.0000   1.0000
     1.0000   1.0000   1.0000   1.0000   1.0000   1.0000   1.0000   1.0000
     1.0000   1.0000   1.0000   1.0000   1.0000   1.0000   1.0000   1.0000
     1.0000   1.0000   1.0000   1.0000   1.0000   1.0000   1.0000   1.0000
     1.0000   1.0000   1.0000   1.0000   1.0000   1.0000   1.0000   1.0000
     1.0000   1.0000   1.0000   1.0000   1.0000   1.0000   1.0000   1.0000
     1.0000   1.0000   1.0000   1.0000   1.0000   1.0000   1.0000   1.0000
     1.0000   1.0000   1.0000   1.0000   1.0000   1.0000   1.0000   1.0000
     1.0000   1.0000   1.0000   1.0000   1.0000   1.0000   1.0000   1.0000
     1.0000   1.0000   1.0000   1.0000   1.0000   1.0000   1.0000   1.0000
     1.0000   1.0000   1.0000   1.0000   1.0000   1.0000   1.0000   1.0000
     1.0000   1.0000   1.0000   1.0000   1.0000   1.0000   1.0000   1.0000
     0.9490   0.0000   0.0000   0.0000   0.0000   0.0000   0.0000   0.0000
     0.0000   0.0000   0.0000   0.0000   0.0000   0.0000   0.0000   0.0000
     0.0000   0.0000   0.0000   0.0000   0.0000   0.0000   0.0000

     the Fermi energy is    -0.6345 ev

!    total energy              =    -786.97959047 Ry
     Harris-Foulkes estimate   =    -786.97958762 Ry
     estimated scf accuracy    <       0.00000055 Ry

     The total energy is the sum of the following terms:

     one-electron contribution =   -2646.23306483 Ry
     hartree contribution      =    1368.88757234 Ry
     xc contribution           =    -254.54963654 Ry
     ewald contribution        =     744.91538486 Ry
     smearing contrib. (-TS)   =       0.00015371 Ry

     total magnetization       =     2.10 Bohr mag/cell
     absolute magnetization    =     3.21 Bohr mag/cell

     convergence has been achieved in  67 iterations

     Writing output data file distance-2.8.save/

     General routines

     Parallel routines

   This run was terminated on:  17:50:49  16Aug2022

   JOB DONE.