     Program PWSCF v.6.4.1 starts on 17Aug2022 at 14:13:21

     R & G space division:  proc/nbgrp/npool/nimage =       8
     Reading input from distance-1.8.in

     Current dimensions of program PWSCF are:
     Max number of different atomic species (ntypx) = 10
     Max number of k-points (npk) =  40000
     Max angular momentum in pseudopotentials (lmaxx) =  3

     IMPORTANT: XC functional enforced from input :
     Exchange-correlation      = RVV10 ( 1  4 13  4 3 0)
     Any further DFT definition will be discarded
     Please, verify this is what you really want

               file H.pbe-rrkjus.UPF: wavefunction(s)  1S renormalized
               file Cr.pbe-spn-rrkjus_psl.1.0.0.UPF: wavefunction(s)  3P renormalized

     Subspace diagonalization in iterative solution of the eigenvalue problem:
     one sub-group per band group will be used

     bravais-lattice index     =            4
     lattice parameter (alat)  =      23.2937  a.u.
     unit-cell volume          =    8879.8548 (a.u.)^3
     number of atoms/cell      =           52
     number of atomic types    =            3
     number of electrons       =       212.00
     number of Kohn-Sham states=          127
     kinetic-energy cutoff     =      70.0000  Ry
     charge density cutoff     =     490.0000  Ry
     convergence threshold     =      1.0E-06
     mixing beta               =       0.7000
     number of iterations used =            8  plain     mixing
     Exchange-correlation      = RVV10 ( 1  4 13  4 3 0)

     celldm(1)=  23.293684  celldm(2)=   0.000000  celldm(3)=   0.811261
     celldm(4)=   0.000000  celldm(5)=   0.000000  celldm(6)=   0.000000

     crystal axes: (cart. coord. in units of alat)
               a(1) = (   1.000000   0.000000   0.000000 )
               a(2) = (  -0.500000   0.866025   0.000000 )
               a(3) = (   0.000000   0.000000   0.811261 )

     reciprocal axes: (cart. coord. in units 2 pi/alat)
               b(1) = (  1.000000  0.577350 -0.000000 )
               b(2) = (  0.000000  1.154701  0.000000 )
               b(3) = (  0.000000 -0.000000  1.232649 )

     PseudoPot. # 1 for H  read from file:
     /home/cristian/Escritorio/Proyecto_Grafeno/pseudopotenciales/H.pbe-rrkjus.UPF
     MD5 check sum: 7cc9d459525c9a0585f487a71c3c9563
     Pseudo is Ultrasoft, Zval =  1.0
     Generated by new atomic code, or converted to UPF format
     Using radial grid of 1061 points,  2 beta functions with:
                l(1) =   0
                l(2) =   0
     Q(r) pseudized with 0 coefficients

     PseudoPot. # 2 for C  read from file:
     /home/cristian/Escritorio/Proyecto_Grafeno/pseudopotenciales/C.pbe-n-rrkjus_psl.1.0.0.UPF
     MD5 check sum: 1fdd950c42eb37d8afe3dd2f8d12311e
     Pseudo is Ultrasoft + core correction, Zval =  4.0
     Generated using "atomic" code by A. Dal Corso v.6.3MaX
     Using radial grid of 1073 points,  4 beta functions with:
                l(1) =   0
                l(2) =   0
                l(3) =   1
                l(4) =   1
     Q(r) pseudized with 0 coefficients

     PseudoPot. # 3 for Cr read from file:
     /home/cristian/Escritorio/Proyecto_Grafeno/pseudopotenciales/Cr.pbe-spn-rrkjus_psl.1.0.0.UPF
     MD5 check sum: 793d051e4f89dd1e3290b85340a92c0a
     Pseudo is Ultrasoft + core correction, Zval = 14.0
     Generated using "atomic" code by A. Dal Corso v.6.2.2
     Using radial grid of 1183 points,  6 beta functions with:
                l(1) =   0
                l(2) =   0
                l(3) =   1
                l(4) =   1
                l(5) =   2
                l(6) =   2
     Q(r) pseudized with 0 coefficients

     vdW kernel table read from file rVV10_kernel_table
     MD5 check sum: b8e2538accc0c0b3206b45ba4daaba6c

     atomic species   valence    mass     pseudopotential
        H              1.00     1.00794     H ( 1.00)
        C              4.00    12.01070     C ( 1.00)
        Cr            14.00    51.99610     Cr( 1.00)

     Starting magnetic structure
     atomic species   magnetization
        H            0.500
        C            0.300
        Cr           0.800

      2 Sym. Ops. (no inversion) found

                                    s                        frac. trans.

      isym =  1     identity

 cryst.   s( 1) = (     1          0          0      )
                  (     0          1          0      )
                  (     0          0          1      )

 cart.    s( 1) = (  1.0000000  0.0000000  0.0000000 )
                  (  0.0000000  1.0000000  0.0000000 )
                  (  0.0000000  0.0000000  1.0000000 )

      isym =  2     inv. 180 deg rotation - cryst. axis [1,1,0]

 cryst.   s( 2) = (     0         -1          0      )
                  (    -1          0          0      )
                  (     0          0          1      )

 cart.    s( 2) = (  0.5000000 -0.8660254  0.0000000 )
                  ( -0.8660254 -0.5000000  0.0000000 )
                  (  0.0000000  0.0000000  1.0000000 )

     point group C_s (m)
     there are  2 classes
     the character table:

       E     s
A'     1.00  1.00
A''    1.00 -1.00

     the symmetry operations in each class and the name of the first element:

     E        1
          identity
     s        2
          inv. 180 deg rotation - cryst. axis [1,1,0]

   Cartesian axes

     site n.     atom                  positions (alat units)
         1           H   tau(   1) = (   0.2000000   0.4618802   0.1460270  )
         2           H   tau(   2) = (   0.2000000   0.4618802   0.2070397  )
         3           C   tau(   3) = (   0.0000000   0.0000000   0.0000000  )
         4           C   tau(   4) = (   0.0000000   0.1154701   0.0000000  )
         5           C   tau(   5) = (  -0.1000000   0.1732051   0.0000000  )
         6           C   tau(   6) = (  -0.1000000   0.2886751   0.0000000  )
         7           C   tau(   7) = (  -0.2000000   0.3464102   0.0000000  )
         8           C   tau(   8) = (  -0.2000000   0.4618802   0.0000000  )
         9           C   tau(   9) = (  -0.3000000   0.5196152   0.0000000  )
        10           C   tau(  10) = (  -0.3000000   0.6350853   0.0000000  )
        11           C   tau(  11) = (  -0.4000000   0.6928203   0.0000000  )
        12           C   tau(  12) = (  -0.4000000   0.8082904   0.0000000  )
        13           C   tau(  13) = (   0.2000000   0.0000000   0.0000000  )
        14           C   tau(  14) = (   0.2000000   0.1154701   0.0000000  )
        15           C   tau(  15) = (   0.1000000   0.1732051   0.0000000  )
        16           C   tau(  16) = (   0.1000000   0.2886751   0.0000000  )
        17           C   tau(  17) = (   0.0000000   0.3464102   0.0000000  )
        18           C   tau(  18) = (   0.0000000   0.4618802   0.0000000  )
        19           C   tau(  19) = (  -0.1000000   0.5196152   0.0000000  )
        20           C   tau(  20) = (  -0.1000000   0.6350853   0.0000000  )
        21           C   tau(  21) = (  -0.2000000   0.6928203   0.0000000  )
        22           C   tau(  22) = (  -0.2000000   0.8082904   0.0000000  )
        23           C   tau(  23) = (   0.4000000   0.0000000   0.0000000  )
        24           C   tau(  24) = (   0.4000000   0.1154701   0.0000000  )
        25           C   tau(  25) = (   0.3000000   0.1732051   0.0000000  )
        26           C   tau(  26) = (   0.3000000   0.2886751   0.0000000  )
        27           C   tau(  27) = (   0.2000000   0.3464102   0.0000000  )
        28           Cr  tau(  28) = (   0.2000000   0.4618802   0.0000000  )
        29           C   tau(  29) = (   0.1000000   0.5196152   0.0000000  )
        30           C   tau(  30) = (   0.1000000   0.6350853   0.0000000  )
        31           C   tau(  31) = (   0.0000000   0.6928203   0.0000000  )
        32           C   tau(  32) = (   0.0000000   0.8082904   0.0000000  )
        33           C   tau(  33) = (   0.6000000   0.0000000   0.0000000  )
        34           C   tau(  34) = (   0.6000000   0.1154701   0.0000000  )
        35           C   tau(  35) = (   0.5000000   0.1732051   0.0000000  )
        36           C   tau(  36) = (   0.5000000   0.2886751   0.0000000  )
        37           C   tau(  37) = (   0.4000000   0.3464102   0.0000000  )
        38           C   tau(  38) = (   0.4000000   0.4618802   0.0000000  )
        39           C   tau(  39) = (   0.3000000   0.5196152   0.0000000  )
        40           C   tau(  40) = (   0.3000000   0.6350853   0.0000000  )
        41           C   tau(  41) = (   0.2000000   0.6928203   0.0000000  )
        42           C   tau(  42) = (   0.2000000   0.8082904   0.0000000  )
        43           C   tau(  43) = (   0.8000000   0.0000000   0.0000000  )
        44           C   tau(  44) = (   0.8000000   0.1154701   0.0000000  )
        45           C   tau(  45) = (   0.7000000   0.1732051   0.0000000  )
        46           C   tau(  46) = (   0.7000000   0.2886751   0.0000000  )
        47           C   tau(  47) = (   0.6000000   0.3464102   0.0000000  )
        48           C   tau(  48) = (   0.6000000   0.4618802   0.0000000  )
        49           C   tau(  49) = (   0.5000000   0.5196152   0.0000000  )
        50           C   tau(  50) = (   0.5000000   0.6350853   0.0000000  )
        51           C   tau(  51) = (   0.4000000   0.6928203   0.0000000  )
        52           C   tau(  52) = (   0.4000000   0.8082904   0.0000000  )

   Crystallographic axes

     site n.     atom                  positions (cryst. coord.)
         1           H   tau(   1) = (  0.4666667  0.5333333  0.1800000  )
         2           H   tau(   2) = (  0.4666667  0.5333333  0.2552072  )
         3           C   tau(   3) = (  0.0000000  0.0000000  0.0000000  )
         4           C   tau(   4) = (  0.0666667  0.1333333  0.0000000  )
         5           C   tau(   5) = (  0.0000000  0.2000000  0.0000000  )
         6           C   tau(   6) = (  0.0666667  0.3333333  0.0000000  )
         7           C   tau(   7) = (  0.0000000  0.4000000  0.0000000  )
         8           C   tau(   8) = (  0.0666667  0.5333333  0.0000000  )
         9           C   tau(   9) = (  0.0000000  0.6000000  0.0000000  )
        10           C   tau(  10) = (  0.0666667  0.7333333  0.0000000  )
        11           C   tau(  11) = (  0.0000000  0.8000000  0.0000000  )
        12           C   tau(  12) = (  0.0666667  0.9333333  0.0000000  )
        13           C   tau(  13) = (  0.2000000  0.0000000  0.0000000  )
        14           C   tau(  14) = (  0.2666667  0.1333333  0.0000000  )
        15           C   tau(  15) = (  0.2000000  0.2000000  0.0000000  )
        16           C   tau(  16) = (  0.2666667  0.3333333  0.0000000  )
        17           C   tau(  17) = (  0.2000000  0.4000000  0.0000000  )
        18           C   tau(  18) = (  0.2666667  0.5333333  0.0000000  )
        19           C   tau(  19) = (  0.2000000  0.6000000  0.0000000  )
        20           C   tau(  20) = (  0.2666667  0.7333333  0.0000000  )
        21           C   tau(  21) = (  0.2000000  0.8000000  0.0000000  )
        22           C   tau(  22) = (  0.2666667  0.9333333  0.0000000  )
        23           C   tau(  23) = (  0.4000000  0.0000000  0.0000000  )
        24           C   tau(  24) = (  0.4666667  0.1333333  0.0000000  )
        25           C   tau(  25) = (  0.4000000  0.2000000  0.0000000  )
        26           C   tau(  26) = (  0.4666667  0.3333333  0.0000000  )
        27           C   tau(  27) = (  0.4000000  0.4000000  0.0000000  )
        28           Cr  tau(  28) = (  0.4666667  0.5333333  0.0000000  )
        29           C   tau(  29) = (  0.4000000  0.6000000  0.0000000  )
        30           C   tau(  30) = (  0.4666667  0.7333333  0.0000000  )
        31           C   tau(  31) = (  0.4000000  0.8000000  0.0000000  )
        32           C   tau(  32) = (  0.4666667  0.9333333  0.0000000  )
        33           C   tau(  33) = (  0.6000000  0.0000000  0.0000000  )
        34           C   tau(  34) = (  0.6666667  0.1333333  0.0000000  )
        35           C   tau(  35) = (  0.6000000  0.2000000  0.0000000  )
        36           C   tau(  36) = (  0.6666667  0.3333333  0.0000000  )
        37           C   tau(  37) = (  0.6000000  0.4000000  0.0000000  )
        38           C   tau(  38) = (  0.6666667  0.5333333  0.0000000  )
        39           C   tau(  39) = (  0.6000000  0.6000000  0.0000000  )
        40           C   tau(  40) = (  0.6666667  0.7333333  0.0000000  )
        41           C   tau(  41) = (  0.6000000  0.8000000  0.0000000  )
        42           C   tau(  42) = (  0.6666667  0.9333333  0.0000000  )
        43           C   tau(  43) = (  0.8000000  0.0000000  0.0000000  )
        44           C   tau(  44) = (  0.8666667  0.1333333  0.0000000  )
        45           C   tau(  45) = (  0.8000000  0.2000000  0.0000000  )
        46           C   tau(  46) = (  0.8666667  0.3333333  0.0000000  )
        47           C   tau(  47) = (  0.8000000  0.4000000  0.0000000  )
        48           C   tau(  48) = (  0.8666667  0.5333333  0.0000000  )
        49           C   tau(  49) = (  0.8000000  0.6000000  0.0000000  )
        50           C   tau(  50) = (  0.8666667  0.7333333  0.0000000  )
        51           C   tau(  51) = (  0.8000000  0.8000000  0.0000000  )
        52           C   tau(  52) = (  0.8666667  0.9333333  0.0000000  )

     number of k points=     1  Marzari-Vanderbilt smearing, width (Ry)=  0.0010
                       cart. coord. in units 2pi/alat
        k(    1) = (   0.0000000   0.0000000   0.0000000), wk =   1.0000000

                       cryst. coord.
        k(    1) = (   0.0000000   0.0000000   0.0000000), wk =   1.0000000

     Check: negative core charge=   -0.000002

     Initial potential from superposition of free atoms

     starting charge  211.80478, renormalised to  212.00000

     negative rho (up, down):  6.078E-04 2.720E-02

Carrying out rVV10 run using the following parameters:
Nqs =      20    Nr_points =    1024   r_max =   100.000
b_value =  6.30000    beta =  0.00901
     q_mesh =  0.00010000  0.00030000  0.00058939  0.00100810
               0.00161396  0.00249058  0.00375900  0.00559430
               0.00824984  0.01209221  0.01765183  0.02569619
               0.03733578  0.05417739  0.07854596  0.11380545
               0.16482331  0.23864234  0.34545298  0.50000000

Gradients computed in Reciprocal space

     Starting wfcs are  208 randomized atomic wfcs

     Self-consistent Calculation

     iteration #  1     ecut=    70.00 Ry     beta= 0.70
     Davidson diagonalization with overlap
     ethr =  1.00E-02,  avg # of iterations =  2.5

[...]

     total energy              =    -779.57471580 Ry
     Harris-Foulkes estimate   =    -786.40569807 Ry
     estimated scf accuracy    <      15.22239774 Ry

     total magnetization       =     8.00 Bohr mag/cell
     absolute magnetization    =     8.23 Bohr mag/cell

[...]

     total energy              =    -786.95922039 Ry
     Harris-Foulkes estimate   =    -786.95921943 Ry
     estimated scf accuracy    <       0.00000178 Ry

[...]

     iteration # 35     ecut=    70.00 Ry     beta= 0.70
     Davidson diagonalization with overlap
     ethr =  8.38E-10,  avg # of iterations =  4.0

     negative rho (up, down):  2.935E-03 5.725E-03

     Magnetic moment per site:
     atom:    1    charge:    0.2251    magn:    0.0001    constr:    0.0000
     atom:    2    charge:    0.1972    magn:   -0.0020    constr:    0.0000
     atom:    3    charge:    1.7169    magn:   -0.0136    constr:    0.0000
     atom:    4    charge:    1.7160    magn:    0.0188    constr:    0.0000
     atom:    5    charge:    1.7178    magn:   -0.0102    constr:    0.0000
     atom:    6    charge:    1.7144    magn:    0.0065    constr:    0.0000
     atom:    7    charge:    1.7178    magn:   -0.0102    constr:    0.0000
     atom:    8    charge:    1.7159    magn:    0.0188    constr:    0.0000
     atom:    9    charge:    1.7169    magn:   -0.0136    constr:    0.0000
     atom:   10    charge:    1.7164    magn:    0.0605    constr:    0.0000
     atom:   11    charge:    1.7173    magn:   -0.0189    constr:    0.0000
     atom:   12    charge:    1.7164    magn:    0.0605    constr:    0.0000
     atom:   13    charge:    1.7173    magn:   -0.0189    constr:    0.0000
     atom:   14    charge:    1.7166    magn:    0.0481    constr:    0.0000
     atom:   15    charge:    1.7147    magn:   -0.0162    constr:    0.0000
     atom:   16    charge:    1.7144    magn:    0.0616    constr:    0.0000
     atom:   17    charge:    1.7243    magn:   -0.0146    constr:    0.0000
     atom:   18    charge:    1.7144    magn:    0.0616    constr:    0.0000
     atom:   19    charge:    1.7147    magn:   -0.0162    constr:    0.0000
     atom:   20    charge:    1.7165    magn:    0.0481    constr:    0.0000
     atom:   21    charge:    1.7173    magn:   -0.0189    constr:    0.0000
     atom:   22    charge:    1.7164    magn:    0.0605    constr:    0.0000
     atom:   23    charge:    1.7169    magn:   -0.0136    constr:    0.0000
     atom:   24    charge:    1.7160    magn:    0.0188    constr:    0.0000
     atom:   25    charge:    1.7147    magn:   -0.0162    constr:    0.0000
     atom:   26    charge:    1.7145    magn:    0.0616    constr:    0.0000
     atom:   27    charge:    1.8990    magn:   -0.0166    constr:    0.0000
     atom:   28    charge:    8.9299    magn:    0.3139    constr:    0.0000
     atom:   29    charge:    1.8989    magn:   -0.0167    constr:    0.0000
     atom:   30    charge:    1.7144    magn:    0.0616    constr:    0.0000
     atom:   31    charge:    1.7147    magn:   -0.0162    constr:    0.0000
     atom:   32    charge:    1.7159    magn:    0.0188    constr:    0.0000
     atom:   33    charge:    1.7178    magn:   -0.0102    constr:    0.0000
     atom:   34    charge:    1.7146    magn:    0.0135    constr:    0.0000
     atom:   35    charge:    1.7178    magn:   -0.0102    constr:    0.0000
     atom:   36    charge:    1.7144    magn:    0.0065    constr:    0.0000
     atom:   37    charge:    1.7244    magn:   -0.0146    constr:    0.0000
     atom:   38    charge:    1.7145    magn:    0.0616    constr:    0.0000
     atom:   39    charge:    1.8990    magn:   -0.0166    constr:    0.0000
     atom:   40    charge:    1.7144    magn:    0.0616    constr:    0.0000
     atom:   41    charge:    1.7243    magn:   -0.0146    constr:    0.0000
     atom:   42    charge:    1.7144    magn:    0.0065    constr:    0.0000
     atom:   43    charge:    1.7178    magn:   -0.0102    constr:    0.0000
     atom:   44    charge:    1.7146    magn:    0.0135    constr:    0.0000
     atom:   45    charge:    1.7232    magn:   -0.0075    constr:    0.0000
     atom:   46    charge:    1.7146    magn:    0.0135    constr:    0.0000
     atom:   47    charge:    1.7178    magn:   -0.0102    constr:    0.0000
     atom:   48    charge:    1.7160    magn:    0.0188    constr:    0.0000
     atom:   49    charge:    1.7147    magn:   -0.0162    constr:    0.0000
     atom:   50    charge:    1.7166    magn:    0.0481    constr:    0.0000
     atom:   51    charge:    1.7147    magn:   -0.0162    constr:    0.0000
     atom:   52    charge:    1.7160    magn:    0.0188    constr:    0.0000

     End of self-consistent calculation

 ------ SPIN UP ------------

          k = 0.0000 0.0000 0.0000 ( 87777 PWs)   bands (ev):

   -71.9235 -44.1916 -44.1913 -43.2075 -19.5989 -18.7598 -18.7595 -18.6689
   -18.6645 -18.6641 -18.3019 -16.9108 -16.9108 -16.9026 -16.8070 -16.8070
   -16.4949 -16.0624 -16.0624 -15.9573 -15.8764 -15.8764 -15.1563 -13.9273
   -13.9273 -13.8940 -13.8165 -13.8165 -13.1459 -12.8938 -12.8938 -12.8685
   -12.5369 -12.5369 -12.1091 -11.6568 -11.6568 -11.4920 -11.1834 -11.1833
   -10.2433  -9.4339  -9.4338  -9.2697  -9.2003  -9.1456  -9.1455  -9.0460
    -9.0213  -9.0212  -9.0063  -8.4869  -8.4868  -7.9453  -7.9453  -7.8383
    -7.7413  -7.6549  -7.2368  -7.2368  -7.0584  -7.0581  -6.9319  -6.6693
    -6.6691  -6.6562  -6.6561  -6.6561  -6.5418  -6.3860  -6.3857  -6.3561
    -6.3507  -6.3506  -6.3063  -6.2775  -5.4167  -5.4165  -5.2768  -5.2768
    -5.0141  -5.0141  -4.8041  -4.7147  -4.5965  -4.5850  -4.5849  -4.2190
    -4.1923  -4.0344  -4.0342  -3.7363  -3.7363  -3.6326  -3.4974  -3.4974
    -3.4436  -3.4433  -2.9015  -2.4506  -2.4506  -1.7602  -1.6394  -1.6394
    -0.7089  -0.7088  -0.6088  -0.1638   1.0466   1.1184   1.1184   1.7634
     1.8671   1.8672   2.3753   2.9099   2.9099   3.0041   3.3448   3.3449
     3.3823   3.7060   3.7060   3.7515   3.7919   3.7920   3.8878

     occupation numbers
     1.0000   1.0000   1.0000   1.0000   1.0000   1.0000   1.0000   1.0000
     1.0000   1.0000   1.0000   1.0000   1.0000   1.0000   1.0000   1.0000
     1.0000   1.0000   1.0000   1.0000   1.0000   1.0000   1.0000   1.0000
     1.0000   1.0000   1.0000   1.0000   1.0000   1.0000   1.0000   1.0000
     1.0000   1.0000   1.0000   1.0000   1.0000   1.0000   1.0000   1.0000
     1.0000   1.0000   1.0000   1.0000   1.0000   1.0000   1.0000   1.0000
     1.0000   1.0000   1.0000   1.0000   1.0000   1.0000   1.0000   1.0000
     1.0000   1.0000   1.0000   1.0000   1.0000   1.0000   1.0000   1.0000
     1.0000   1.0000   1.0000   1.0000   1.0000   1.0000   1.0000   1.0000
     1.0000   1.0000   1.0000   1.0000   1.0000   1.0000   1.0000   1.0000
     1.0000   1.0000   1.0000   1.0000   1.0000   1.0000   1.0000   1.0000
     1.0000   1.0000   1.0000   1.0000   1.0000   1.0000   1.0000   1.0000
     1.0000   1.0000   1.0000   1.0000   1.0000   1.0000   1.0000   1.0000
     1.0000   1.0000   1.0000   0.0000   0.0000   0.0000   0.0000   0.0000
     0.0000   0.0000   0.0000   0.0000   0.0000   0.0000   0.0000   0.0000
     0.0000   0.0000   0.0000   0.0000   0.0000   0.0000   0.0000

 ------ SPIN DOWN ----------

          k = 0.0000 0.0000 0.0000 ( 87777 PWs)   bands (ev):

   -71.4098 -43.7579 -43.7577 -42.4963 -19.5580 -18.7124 -18.7122 -18.6375
   -18.6372 -18.6306 -18.2402 -16.8743 -16.8742 -16.8730 -16.7512 -16.7511
   -16.4672 -16.0118 -16.0118 -15.9266 -15.8342 -15.8341 -15.1303 -13.8577
   -13.8576 -13.8237 -13.8055 -13.8054 -13.1577 -12.8701 -12.8701 -12.8369
   -12.5184 -12.5184 -12.0759 -11.6219 -11.6219 -11.4680 -11.1581 -11.1580
   -10.2184  -9.3972  -9.3972  -9.2414  -9.2089  -9.1120  -9.1119  -9.0305
    -8.9961  -8.9960  -8.9891  -8.4709  -8.4709  -7.9190  -7.9190  -7.8226
    -7.6501  -7.6389  -7.2192  -7.2192  -6.8960  -6.8953  -6.8951  -6.6269
    -6.6267  -6.6105  -6.6103  -6.5630  -6.5259  -6.3663  -6.3661  -6.3452
    -6.3389  -6.3389  -6.2889  -6.1367  -5.2705  -5.2704  -5.2406  -5.2405
    -4.9812  -4.9812  -4.7911  -4.7044  -4.5172  -4.4868  -4.4868  -4.1466
    -4.1149  -3.9367  -3.9365  -3.5938  -3.5937  -3.5454  -3.4718  -3.4717
    -3.2966  -3.2965  -2.8585  -2.3009  -2.3009  -1.6115  -1.6114  -1.5798
    -0.6376  -0.2156  -0.2154  -0.0000   1.1606   1.1607   1.2054   1.8830
     2.0019   2.0020   2.3914   3.0496   3.0496   3.0790   3.3913   3.3914
     3.4257   3.7131   3.7132   3.7614   3.9381   3.9383   3.9520

     occupation numbers
     1.0000   1.0000   1.0000   1.0000   1.0000   1.0000   1.0000   1.0000
     1.0000   1.0000   1.0000   1.0000   1.0000   1.0000   1.0000   1.0000
     1.0000   1.0000   1.0000   1.0000   1.0000   1.0000   1.0000   1.0000
     1.0000   1.0000   1.0000   1.0000   1.0000   1.0000   1.0000   1.0000
     1.0000   1.0000   1.0000   1.0000   1.0000   1.0000   1.0000   1.0000
     1.0000   1.0000   1.0000   1.0000   1.0000   1.0000   1.0000   1.0000
     1.0000   1.0000   1.0000   1.0000   1.0000   1.0000   1.0000   1.0000
     1.0000   1.0000   1.0000   1.0000   1.0000   1.0000   1.0000   1.0000
     1.0000   1.0000   1.0000   1.0000   1.0000   1.0000   1.0000   1.0000
     1.0000   1.0000   1.0000   1.0000   1.0000   1.0000   1.0000   1.0000
     1.0000   1.0000   1.0000   1.0000   1.0000   1.0000   1.0000   1.0000
     1.0000   1.0000   1.0000   1.0000   1.0000   1.0000   1.0000   1.0000
     1.0000   1.0000   1.0000   1.0000   1.0000   1.0000   1.0000   1.0000
     1.0000   0.0000   0.0000   0.0000   0.0000   0.0000   0.0000   0.0000
     0.0000   0.0000   0.0000   0.0000   0.0000   0.0000   0.0000   0.0000
     0.0000   0.0000   0.0000   0.0000   0.0000   0.0000   0.0000

     the Fermi energy is    -0.4698 ev

!    total energy              =    -786.95922425 Ry
     Harris-Foulkes estimate   =    -786.95922375 Ry
     estimated scf accuracy    <       0.00000088 Ry

     The total energy is the sum of the following terms:

     one-electron contribution =   -2671.72117259 Ry
     hartree contribution      =    1381.88674832 Ry
     xc contribution           =    -254.42289263 Ry
     ewald contribution        =     757.29809265 Ry
     smearing contrib. (-TS)   =       0.00000000 Ry

     total magnetization       =     2.00 Bohr mag/cell
     absolute magnetization    =     3.33 Bohr mag/cell

     convergence has been achieved in  35 iterations

     Writing output data file distance-1.8.save/

     General routines

     Parallel routines

   This run was terminated on:  15:15:19  17Aug2022

   JOB DONE.