     Program PWSCF v.6.4.1 starts on 14Sep2023 at 23:54:53

     R & G space division:  proc/nbgrp/npool/nimage =       6
     Reading input from cobre.in

     Current dimensions of program PWSCF are:
     Max number of different atomic species (ntypx) = 10
     Max number of k-points (npk) =  40000
     Max angular momentum in pseudopotentials (lmaxx) =  3

     IMPORTANT: XC functional enforced from input :
     Exchange-correlation      = RVV10 ( 1  4 13  4 3 0)
     Any further DFT definition will be discarded
     Please, verify this is what you really want

               file Cu.pbe-dn-rrkjus_psl.1.0.0.UPF: wavefunction(s)  3D renormalized

     Subspace diagonalization in iterative solution of the eigenvalue problem:
     a serial algorithm will be used

     bravais-lattice index     =            4
     lattice parameter (alat)  =      13.9762  a.u.
     unit-cell volume          =    3196.7546 (a.u.)^3
     number of atoms/cell      =           18
     number of atomic types    =            2
     number of electrons       =        79.00
     number of Kohn-Sham states=           48
     kinetic-energy cutoff     =      70.0000  Ry
     charge density cutoff     =     490.0000  Ry
     convergence threshold     =      1.0E-09
     mixing beta               =       0.2000
     number of iterations used =            8  plain     mixing
     Exchange-correlation      = RVV10 ( 1  4 13  4 3 0)
     nstep                     =           50

     celldm(1)=  13.976226  celldm(2)=   0.000000  celldm(3)=   1.352100
     celldm(4)=   0.000000  celldm(5)=   0.000000  celldm(6)=   0.000000

     crystal axes: (cart. coord. in units of alat)
               a(1) = (   1.000000   0.000000   0.000000 )
               a(2) = (  -0.500000   0.866025   0.000000 )
               a(3) = (   0.000000   0.000000   1.352100 )

     reciprocal axes: (cart. coord. in units 2 pi/alat)
               b(1) = (  1.000000  0.577350 -0.000000 )
               b(2) = (  0.000000  1.154701  0.000000 )
               b(3) = (  0.000000 -0.000000  0.739590 )

     PseudoPot. # 1 for C  read from file:
     /home/cristian/Escritorio/Proyecto_Grafeno/pseudopotenciales/C.pbe-n-rrkjus_psl.1.0.0.UPF
     MD5 check sum: 1fdd950c42eb37d8afe3dd2f8d12311e
     Pseudo is Ultrasoft + core correction, Zval =  4.0
     Generated using "atomic" code by A. Dal Corso v.6.3MaX
     Using radial grid of 1073 points,  4 beta functions with:
                l(1) =   0
                l(2) =   0
                l(3) =   1
                l(4) =   1
     Q(r) pseudized with 0 coefficients

     PseudoPot. # 2 for Cu read from file:
     /home/cristian/Escritorio/Proyecto_Grafeno/pseudopotenciales/Cu.pbe-dn-rrkjus_psl.1.0.0.UPF
     MD5 check sum: ba3d6c84e19846e79d48cdc68ff7152b
     Pseudo is Ultrasoft + core correction, Zval = 11.0
     Generated using "atomic" code by A. Dal Corso v.6.3
     Using radial grid of 1199 points,  6 beta functions with:
                l(1) =   0
                l(2) =   0
                l(3) =   1
                l(4) =   1
                l(5) =   2
                l(6) =   2
     Q(r) pseudized with 0 coefficients

     vdW kernel table read from file rVV10_kernel_table
     MD5 check sum: b8e2538accc0c0b3206b45ba4daaba6c

     atomic species   valence    mass     pseudopotential
        C              4.00    12.01070     C ( 1.00)
        Cu            11.00    63.54600     Cu( 1.00)

     Starting magnetic structure
     atomic species   magnetization
        C            0.300
        Cu           0.800

     12 Sym. Ops. (no inversion) found ( 8 have fractional translation)

   Cartesian axes

     site n.     atom                  positions (alat units)
         1           C   tau(   1) = (   0.0000000   0.0000000   0.0000000  )
         2           C   tau(   2) = (   0.0000000   0.1924499   0.0000000  )
         3           C   tau(   3) = (  -0.1666665   0.2886748   0.0000000  )
         4           C   tau(   4) = (  -0.1666665   0.4811247   0.0000000  )
         5           C   tau(   5) = (  -0.3333330   0.5773496   0.0000000  )
         6           C   tau(   6) = (  -0.3333330   0.7697995   0.0000000  )
         7           C   tau(   7) = (   0.3333330   0.0000000   0.0000000  )
         8           C   tau(   8) = (   0.3333330   0.1924499   0.0000000  )
         9           C   tau(   9) = (   0.1666665   0.2886748   0.0000000  )
        10           Cu  tau(  10) = (   0.1666665   0.4811247   0.0000000  )
        11           C   tau(  11) = (   0.0000000   0.5773496   0.0000000  )
        12           C   tau(  12) = (   0.0000000   0.7697995   0.0000000  )
        13           C   tau(  13) = (   0.6666660   0.0000000   0.0000000  )
        14           C   tau(  14) = (   0.6666660   0.1924499   0.0000000  )
        15           C   tau(  15) = (   0.4999995   0.2886748   0.0000000  )
        16           C   tau(  16) = (   0.4999995   0.4811247   0.0000000  )
        17           C   tau(  17) = (   0.3333330   0.5773496   0.0000000  )
        18           C   tau(  18) = (   0.3333330   0.7697995   0.0000000  )

     number of k points=     4  Marzari-Vanderbilt smearing, width (Ry)=  0.0010
                       cart. coord. in units 2pi/alat
        k(    1) = (   0.0000000   0.0000000   0.0000000), wk =   0.0625000
        k(    2) = (   0.0000000   0.2886751   0.0000000), wk =   0.3750000
        k(    3) = (   0.0000000  -0.5773503   0.0000000), wk =   0.1875000
        k(    4) = (   0.2500000   0.4330127   0.0000000), wk =   0.3750000

     Check: negative core charge=   -0.000002

     Initial potential from superposition of free atoms

     starting charge   78.99906, renormalised to   79.00000

     negative rho (up, down):  2.929E-05 2.925E-02

Carrying out rVV10 run using the following parameters:
Nqs =      20    Nr_points =    1024   r_max =   100.000
b_value =  6.30000    beta =  0.00901
     q_mesh =  0.00010000  0.00030000  0.00058939  0.00100810
               0.00161396  0.00249058  0.00375900  0.00559430
               0.00824984  0.01209221  0.01765183  0.02569619
               0.03733578  0.05417739  0.07854596  0.11380545
               0.16482331  0.23864234  0.34545298  0.50000000

Gradients computed in Reciprocal space

     Starting wfcs are   77 randomized atomic wfcs

     Self-consistent Calculation

     iteration #  1     ecut=    70.00 Ry     beta= 0.20
     Davidson diagonalization with overlap
     ethr =  1.00E-02,  avg # of iterations =  2.4

[...]

     total energy              =    -331.53974646 Ry
     Harris-Foulkes estimate   =    -333.30766257 Ry
     estimated scf accuracy    <       8.06409409 Ry

     total magnetization       =     4.00 Bohr mag/cell
     absolute magnetization    =     4.21 Bohr mag/cell

[...]

     Magnetic moment per site:
     atom:    1    charge:    1.7100    magn:    0.0016    constr:    0.0000
     atom:    2    charge:    1.7093    magn:    0.0017    constr:    0.0000
     atom:    3    charge:    1.7211    magn:    0.0003    constr:    0.0000
     atom:    4    charge:    1.7094    magn:    0.0017    constr:    0.0000
     atom:    5    charge:    1.7100    magn:    0.0016    constr:    0.0000
     atom:    6    charge:    1.7171    magn:   -0.0004    constr:    0.0000
     atom:    7    charge:    1.7100    magn:    0.0016    constr:    0.0000
     atom:    8    charge:    1.7093    magn:    0.0017    constr:    0.0000
     atom:    9    charge:    1.8161    magn:    0.0100    constr:    0.0000
     atom:   10    charge:    7.0270    magn:    0.0206    constr:    0.0000
     atom:   11    charge:    1.8161    magn:    0.0100    constr:    0.0000
     atom:   12    charge:    1.7094    magn:    0.0017    constr:    0.0000
     atom:   13    charge:    1.7211    magn:    0.0003    constr:    0.0000
     atom:   14    charge:    1.7112    magn:   -0.0002    constr:    0.0000
     atom:   15    charge:    1.7211    magn:    0.0003    constr:    0.0000
     atom:   16    charge:    1.7093    magn:    0.0017    constr:    0.0000
     atom:   17    charge:    1.8161    magn:    0.0100    constr:    0.0000
     atom:   18    charge:    1.7093    magn:    0.0017    constr:    0.0000

     End of self-consistent calculation

 ------ SPIN UP ------------

          k = 0.0000 0.0000 0.0000 ( 31593 PWs)   bands (ev):

   -19.7246 -17.3939 -17.3937 -17.2340 -17.2338 -17.1849 -16.1670 -13.4821
   -13.4820 -13.0914 -11.9537 -11.5788 -11.5787 -10.6176 -10.6175  -9.9952
    -9.4996  -9.4996  -8.8627  -8.6609  -8.6608  -8.4126  -8.4125  -7.8367
    -6.5415  -6.1798  -6.0085  -6.0085  -5.2048  -4.9436  -4.9434  -4.8543
    -4.5214  -4.5214  -4.3123  -4.3122  -3.9313  -0.3598   0.0034   0.0034
     0.1037   0.1038   0.9039   2.5677   4.1575   4.5635   4.5635   4.6462

[...]

 ------ SPIN DOWN ----------

[...]

     the Fermi energy is    -0.4975 ev

!    total energy              =    -333.55454147 Ry
     Harris-Foulkes estimate   =    -333.55454147 Ry
     estimated scf accuracy    <          6.6E-10 Ry

     The total energy is the sum of the following terms:

     one-electron contribution =   -1049.84942372 Ry
     hartree contribution      =     550.77684761 Ry
     xc contribution           =    -124.79882159 Ry
     ewald contribution        =     290.31691913 Ry
     smearing contrib. (-TS)   =      -0.00006289 Ry

[...]

     convergence has been achieved in  34 iterations

[...]

     Forces acting on atoms (cartesian axes, Ry/au):

     atom    1 type  1   force =     0.02303026   -0.01329653   -0.00000000
     atom    2 type  1   force =    -0.02294306    0.00497901    0.00000000
     atom    3 type  1   force =    -0.01476958   -0.00852722    0.00000000
     atom    4 type  1   force =    -0.00715958   -0.02235878   -0.00000000
     atom    5 type  1   force =     0.00000000    0.02659306    0.00000000
     atom    6 type  1   force =     0.00000000    0.00000000    0.00000000
     atom    7 type  1   force =    -0.02303026   -0.01329653    0.00000000
     atom    8 type  1   force =     0.02294306    0.00497901    0.00000000
     atom    9 type  1   force =     0.00000000   -0.87949859    0.00000000
     atom   10 type  2   force =     0.00000000    0.00000000    0.00000000
     atom   11 type  1   force =    -0.76166812    0.43974930    0.00000000
     atom   12 type  1   force =     0.01578348    0.01737977   -0.00000000
     atom   13 type  1   force =    -0.00000000    0.01705445    0.00000000
     atom   14 type  1   force =     0.00000000    0.00000000    0.00000000
     atom   15 type  1   force =     0.01476958   -0.00852722   -0.00000000
     atom   16 type  1   force =     0.00715958   -0.02235878    0.00000000
     atom   17 type  1   force =     0.76166812    0.43974930    0.00000000
     atom   18 type  1   force =    -0.01578348    0.01737977    0.00000000

     Total force =     1.525403     Total SCF correction =     0.000009

     BFGS Geometry Optimization

     number of scf cycles    =   1
     number of bfgs steps    =   0

     energy   new            =    -333.5545414675 Ry

     new trust radius        =       0.5000000000 bohr
     new conv_thr            =       0.0000000010 Ry

ATOMIC_POSITIONS (angstrom)
C        0.006928430  -0.004000131  -0.000000000
C       -0.006902197   1.424837977   0.000000000
C       -1.237091961   2.132444801   0.000000000
C       -1.234802565   3.551623800  -0.000000000
C       -2.465297350   4.278020528   0.000000000
C       -2.465297350   5.693360355   0.000000000
C        2.458368920  -0.004000131   0.000000000
C        2.472199547   1.424837977   0.000000000
C        1.232648675   1.870421529   0.000000000
Cu       1.232648675   3.558350222   0.000000000
C       -0.229140453   4.402314568   0.000000000
C        0.004748307   5.698588889  -0.000000000
C        4.930594700   0.005130665   0.000000000
C        4.930594700   1.423340089   0.000000000
C        3.702389311   2.132444801  -0.000000000
C        3.700099915   3.551623800   0.000000000
C        2.694437803   4.402314568   0.000000000
C        2.460549043   5.698588889   0.000000000

     Writing output data file gr-3x3.save/
     NEW-OLD atomic charge density approx. for the potential

[...]

     energy   old            =    -333.5545414675 Ry
     energy   new            =    -334.1031676705 Ry

     CASE: energy  _new < energy  _old

[...]

     number of scf cycles    =   6
     number of bfgs steps    =   5

     energy   old            =    -334.1371950746 Ry
     energy   new            =    -334.1372867531 Ry

     CASE: energy  _new < energy  _old

     new trust radius        =       0.0021896631 bohr
     new conv_thr            =            1.0E-11 Ry

ATOMIC_POSITIONS (angstrom)
C        0.009790651  -0.005652635  -0.000000000
C       -0.037073460   1.389173583   0.000000000
C       -1.248236802   2.126010324   0.000000000
C       -1.280774467   3.543326917  -0.000000000
C       -2.465297350   4.281325536   0.000000000
C       -2.465297350   5.693360355   0.000000000
C        2.455506699  -0.005652635   0.000000000
C        2.502370810   1.389173583  -0.000000000
C        1.232648675   1.862405203   0.000000000
Cu       1.232648675   3.558350222   0.000000000
C       -0.236082795   4.406322731   0.000000000
C       -0.011052332   5.742550166   0.000000000
C        4.930594700   0.017999619   0.000000000
C        4.930594700   1.423340089   0.000000000
C        3.713534152   2.126010324   0.000000000
C        3.746071817   3.543326917  -0.000000000
C        2.701380145   4.406322731   0.000000000
C        2.476349682   5.742550166   0.000000000

     Writing output data file gr-3x3.save/
     NEW-OLD atomic charge density approx. for the potential

     Check: negative core charge=   -0.000002

[...]

     Threshold (ethr) on eigenvalues was too large:
     Diagonalizing with lowered threshold

     Davidson diagonalization with overlap
     ethr =  1.63E-08,  avg # of iterations =  2.5

[...]

     Total force =     0.002227     Total SCF correction =     0.000003
Begin final coordinates

ATOMIC_POSITIONS (angstrom)
C        0.009790651  -0.005652635  -0.000000000
C       -0.037073460   1.389173583   0.000000000
C       -1.248236802   2.126010324   0.000000000
C       -1.280774467   3.543326917  -0.000000000
C       -2.465297350   4.281325536   0.000000000
C       -2.465297350   5.693360355   0.000000000
C        2.455506699  -0.005652635   0.000000000
C        2.502370810   1.389173583  -0.000000000
C        1.232648675   1.862405203   0.000000000
Cu       1.232648675   3.558350222   0.000000000
C       -0.236082795   4.406322731   0.000000000
C       -0.011052332   5.742550166   0.000000000
C        4.930594700   0.017999619   0.000000000
C        4.930594700   1.423340089   0.000000000
C        3.713534152   2.126010324   0.000000000
C        3.746071817   3.543326917  -0.000000000
C        2.701380145   4.406322731   0.000000000
C        2.476349682   5.742550166   0.000000000
End final coordinates

     Writing output data file gr-3x3.save/

     lsda relaxation :  a final configuration with zero
                        absolute magnetization has been found

     the program is checking if it is really the minimum energy structure
     by performing a new scf iteration without any "electronic" history

     Initial potential from superposition of free atoms

     starting charge   78.99906, renormalised to   79.00000

[...]

     Self-consistent Calculation

[...]

     total energy              =    -334.13730206 Ry
     Harris-Foulkes estimate   =    -334.13730206 Ry
     estimated scf accuracy    <          1.3E-11 Ry

[...]

     iteration # 31     ecut=    70.00 Ry     beta= 0.20
     Davidson diagonalization with overlap
     ethr =  1.00E-13,  avg # of iterations =  2.6

[...]

     Magnetic moment per site:
     atom:    1    charge:    1.7483    magn:    0.0000    constr:    0.0000
     atom:    2    charge:    1.7601    magn:    0.0000    constr:    0.0000
     atom:    3    charge:    1.7328    magn:    0.0000    constr:    0.0000
     atom:    4    charge:    1.7601    magn:    0.0000    constr:    0.0000
     atom:    5    charge:    1.7483    magn:    0.0000    constr:    0.0000
     atom:    6    charge:    1.7382    magn:   -0.0000    constr:    0.0000
     atom:    7    charge:    1.7483    magn:    0.0000    constr:    0.0000
     atom:    8    charge:    1.7600    magn:    0.0000    constr:    0.0000
     atom:    9    charge:    1.5847    magn:   -0.0000    constr:    0.0000
     atom:   10    charge:    6.9961    magn:   -0.0000    constr:    0.0000
     atom:   11    charge:    1.5847    magn:   -0.0000    constr:    0.0000
     atom:   12    charge:    1.7601    magn:    0.0000    constr:    0.0000
     atom:   13    charge:    1.7328    magn:    0.0000    constr:    0.0000
     atom:   14    charge:    1.7371    magn:   -0.0000    constr:    0.0000
     atom:   15    charge:    1.7328    magn:    0.0000    constr:    0.0000
     atom:   16    charge:    1.7600    magn:    0.0000    constr:    0.0000
     atom:   17    charge:    1.5847    magn:   -0.0000    constr:    0.0000
     atom:   18    charge:    1.7601    magn:    0.0000    constr:    0.0000

     End of self-consistent calculation

 ------ SPIN UP ------------

[...]

 ------ SPIN DOWN ----------

[...]

          k = 0.2500 0.4330 0.0000 ( 31601 PWs)   bands (ev):

   -19.6966 -19.0897 -18.5911 -17.1862 -16.6809 -15.7292 -15.5161 -14.7621
   -13.9676 -13.2852 -12.8451 -11.7381 -11.1880  -9.9499  -9.6070  -9.0327
    -8.7257  -8.3125  -7.9516  -7.7847  -7.6284  -7.1097  -7.0143  -6.7833
    -6.5013  -6.4687  -5.7658  -5.5612  -5.1678  -5.1311  -4.8424  -4.6227
    -4.1519  -3.9628  -3.0815  -3.0392  -2.7331  -2.2176  -0.9469  -0.7196
    -0.1384   1.5720   1.8656   2.4152   3.2062   3.2196   4.5245   4.6021

     the Fermi energy is    -0.4114 ev

!    total energy              =    -334.13730206 Ry
     Harris-Foulkes estimate   =    -334.13730206 Ry
     estimated scf accuracy    <          3.0E-12 Ry

     The total energy is the sum of the following terms:

     one-electron contribution =   -1035.58148863 Ry
     hartree contribution      =     544.57437969 Ry
     xc contribution           =    -124.91261056 Ry
     ewald contribution        =     281.78241744 Ry
     smearing contrib. (-TS)   =       0.00000000 Ry

     total magnetization       =    -0.00 Bohr mag/cell
     absolute magnetization    =     0.00 Bohr mag/cell

     convergence has been achieved in  31 iterations

     negative rho (up, down):  2.564E-04 1.270E-06

     Forces acting on atoms (cartesian axes, Ry/au):

     atom    1 type  1   force =    -0.00052665    0.00030406   -0.00000000
     atom    2 type  1   force =     0.00042430    0.00010558    0.00000000
     atom    3 type  1   force =     0.00078881    0.00045542    0.00000000
     atom    4 type  1   force =     0.00030358    0.00031466    0.00000000
     atom    5 type  1   force =     0.00000000   -0.00060812    0.00000000
     atom    6 type  1   force =     0.00000000    0.00000000    0.00000000
     atom    7 type  1   force =     0.00052665    0.00030406    0.00000000
     atom    8 type  1   force =    -0.00042430    0.00010558    0.00000000
     atom    9 type  1   force =     0.00000000   -0.00026845    0.00000000
     atom   10 type  2   force =     0.00000000    0.00000000    0.00000000
     atom   11 type  1   force =    -0.00023249    0.00013423   -0.00000000
     atom   12 type  1   force =    -0.00012072   -0.00042024    0.00000000
     atom   13 type  1   force =    -0.00000000   -0.00091084    0.00000000
     atom   14 type  1   force =     0.00000000    0.00000000    0.00000000
     atom   15 type  1   force =    -0.00078881    0.00045542   -0.00000000
     atom   16 type  1   force =    -0.00030358    0.00031466   -0.00000000
     atom   17 type  1   force =     0.00023249    0.00013423    0.00000000
     atom   18 type  1   force =     0.00012072   -0.00042024    0.00000000

     Total force =     0.002227     Total SCF correction =     0.000001

     bfgs converged in   7 scf cycles and   6 bfgs steps
     (criteria: energy <  1.0E-04 Ry, force <  1.0E-03 Ry/Bohr)

     End of BFGS Geometry Optimization

     Final energy   =    -334.1373020610 Ry
Begin final coordinates

ATOMIC_POSITIONS (angstrom)
C        0.009790651  -0.005652635  -0.000000000
C       -0.037073460   1.389173583   0.000000000
C       -1.248236802   2.126010324   0.000000000
C       -1.280774467   3.543326917  -0.000000000
C       -2.465297350   4.281325536   0.000000000
C       -2.465297350   5.693360355   0.000000000
C        2.455506699  -0.005652635   0.000000000
C        2.502370810   1.389173583  -0.000000000
C        1.232648675   1.862405203   0.000000000
Cu       1.232648675   3.558350222   0.000000000
C       -0.236082795   4.406322731   0.000000000
C       -0.011052332   5.742550166   0.000000000
C        4.930594700   0.017999619   0.000000000
C        4.930594700   1.423340089   0.000000000
C        3.713534152   2.126010324   0.000000000
C        3.746071817   3.543326917  -0.000000000
C        2.701380145   4.406322731   0.000000000
C        2.476349682   5.742550166   0.000000000
End final coordinates

     Writing output data file gr-3x3.save/

     General routines

     Parallel routines

   This run was terminated on:   0:52: 4  15Sep2023

   JOB DONE.