     Program PWSCF v.6.4.1 starts on 15Sep2023 at  2:43:17

     R & G space division:  proc/nbgrp/npool/nimage =       6
     Reading input from hierro.in

     Current dimensions of program PWSCF are:
     Max number of different atomic species (ntypx) = 10
     Max number of k-points (npk) =  40000
     Max angular momentum in pseudopotentials (lmaxx) =  3

     IMPORTANT: XC functional enforced from input :
     Exchange-correlation      = RVV10 ( 1  4 13  4 3 0)
     Any further DFT definition will be discarded
     Please, verify this is what you really want

     Subspace diagonalization in iterative solution of the eigenvalue problem:
     a serial algorithm will be used

     bravais-lattice index     =            4
     lattice parameter (alat)  =      13.9762  a.u.
     unit-cell volume          =    3196.7546 (a.u.)^3
     number of atoms/cell      =           18
     number of atomic types    =            2
     number of electrons       =        84.00
     number of Kohn-Sham states=           50
     kinetic-energy cutoff     =      70.0000  Ry
     charge density cutoff     =     490.0000  Ry
     convergence threshold     =      1.0E-09
     mixing beta               =       0.2000
     number of iterations used =            8  plain     mixing
     Exchange-correlation      = RVV10 ( 1  4 13  4 3 0)
     nstep                     =           50

     celldm(1)=  13.976226  celldm(2)=   0.000000  celldm(3)=   1.352100
     celldm(4)=   0.000000  celldm(5)=   0.000000  celldm(6)=   0.000000

     crystal axes: (cart. coord. in units of alat)
               a(1) = (   1.000000   0.000000   0.000000 )
               a(2) = (  -0.500000   0.866025   0.000000 )
               a(3) = (   0.000000   0.000000   1.352100 )

     reciprocal axes: (cart. coord. in units 2 pi/alat)
               b(1) = (  1.000000  0.577350 -0.000000 )
               b(2) = (  0.000000  1.154701  0.000000 )
               b(3) = (  0.000000 -0.000000  0.739590 )

     PseudoPot. # 1 for C  read from file:
     /home/cristian/Escritorio/Proyecto_Grafeno/pseudopotenciales/C.pbe-n-rrkjus_psl.1.0.0.UPF
     MD5 check sum: 1fdd950c42eb37d8afe3dd2f8d12311e
     Pseudo is Ultrasoft + core correction, Zval =  4.0
     Generated using "atomic" code by A. Dal Corso v.6.3MaX
     Using radial grid of 1073 points,  4 beta functions with:
                l(1) =   0
                l(2) =   0
                l(3) =   1
                l(4) =   1
     Q(r) pseudized with 0 coefficients

     PseudoPot. # 2 for Fe read from file:
     /home/cristian/Escritorio/Proyecto_Grafeno/pseudopotenciales/Fe.pbe-spn-rrkjus_psl.1.0.0.UPF
     MD5 check sum: 72ea77fed8e64ab3a2ccf2804dfc1862
     Pseudo is Ultrasoft + core correction, Zval = 16.0
     Generated using "atomic" code by A. Dal Corso v.6.3
     Using radial grid of 1191 points,  6 beta functions with:
                l(1) =   0
                l(2) =   0
                l(3) =   1
                l(4) =   1
                l(5) =   2
                l(6) =   2
     Q(r) pseudized with 0 coefficients

     vdW kernel table read from file rVV10_kernel_table
     MD5 check sum: b8e2538accc0c0b3206b45ba4daaba6c

     atomic species   valence    mass     pseudopotential
        C              4.00    12.01070     C ( 1.00)
        Fe            16.00    55.84500     Fe( 1.00)

     Starting magnetic structure
     atomic species   magnetization
        C            0.300
        Fe           0.800

     12 Sym. Ops. (no inversion) found ( 8 have fractional translation)

   Cartesian axes

     site n.     atom                  positions (alat units)
         1           C   tau(   1) = (   0.0000000   0.0000000   0.0000000  )
         2           C   tau(   2) = (   0.0000000   0.1924499   0.0000000  )
         3           C   tau(   3) = (  -0.1666665   0.2886748   0.0000000  )
         4           C   tau(   4) = (  -0.1666665   0.4811247   0.0000000  )
         5           C   tau(   5) = (  -0.3333330   0.5773496   0.0000000  )
         6           C   tau(   6) = (  -0.3333330   0.7697995   0.0000000  )
         7           C   tau(   7) = (   0.3333330   0.0000000   0.0000000  )
         8           C   tau(   8) = (   0.3333330   0.1924499   0.0000000  )
         9           C   tau(   9) = (   0.1666665   0.2886748   0.0000000  )
        10           Fe  tau(  10) = (   0.1666665   0.4811247   0.0000000  )
        11           C   tau(  11) = (   0.0000000   0.5773496   0.0000000  )
        12           C   tau(  12) = (   0.0000000   0.7697995   0.0000000  )
        13           C   tau(  13) = (   0.6666660   0.0000000   0.0000000  )
        14           C   tau(  14) = (   0.6666660   0.1924499   0.0000000  )
        15           C   tau(  15) = (   0.4999995   0.2886748   0.0000000  )
        16           C   tau(  16) = (   0.4999995   0.4811247   0.0000000  )
        17           C   tau(  17) = (   0.3333330   0.5773496   0.0000000  )
        18           C   tau(  18) = (   0.3333330   0.7697995   0.0000000  )

     number of k points=     4  Marzari-Vanderbilt smearing, width (Ry)=  0.0010
                       cart. coord. in units 2pi/alat
        k(    1) = (   0.0000000   0.0000000   0.0000000), wk =   0.0625000
        k(    2) = (   0.0000000   0.2886751   0.0000000), wk =   0.3750000
        k(    3) = (   0.0000000  -0.5773503   0.0000000), wk =   0.1875000
        k(    4) = (   0.2500000   0.4330127   0.0000000), wk =   0.3750000

     Check: negative core charge=   -0.000002

     Initial potential from superposition of free atoms

     starting charge   83.99886, renormalised to   84.00000

     negative rho (up, down):  2.290E-05 3.159E-02

Carrying out rVV10 run using the following parameters:
Nqs =      20    Nr_points =    1024   r_max =   100.000
b_value =  6.30000    beta =  0.00901
     q_mesh =  0.00010000  0.00030000  0.00058939  0.00100810
               0.00161396  0.00249058  0.00375900  0.00559430
               0.00824984  0.01209221  0.01765183  0.02569619
               0.03733578  0.05417739  0.07854596  0.11380545
               0.16482331  0.23864234  0.34545298  0.50000000

Gradients computed in Reciprocal space

     Starting wfcs are   78 randomized atomic wfcs

     Self-consistent Calculation

     iteration #  1     ecut=    70.00 Ry     beta= 0.20
     Davidson diagonalization with overlap
     ethr =  1.00E-02,  avg # of iterations =  2.5

[...]

     total energy              =    -457.10646530 Ry
     Harris-Foulkes estimate   =    -456.98913155 Ry
     estimated scf accuracy    <       5.40618588 Ry

     total magnetization       =     6.12 Bohr mag/cell
     absolute magnetization    =     6.16 Bohr mag/cell

[...]

     Magnetic moment per site:
     atom:    1    charge:    1.7082    magn:   -0.0051    constr:    0.0000
     atom:    2    charge:    1.7141    magn:    0.0247    constr:    0.0000
     atom:    3    charge:    1.7192    magn:   -0.0043    constr:    0.0000
     atom:    4    charge:    1.7141    magn:    0.0247    constr:    0.0000
     atom:    5    charge:    1.7082    magn:   -0.0051    constr:    0.0000
     atom:    6    charge:    1.7187    magn:    0.0150    constr:    0.0000
     atom:    7    charge:    1.7082    magn:   -0.0051    constr:    0.0000
     atom:    8    charge:    1.7141    magn:    0.0247    constr:    0.0000
     atom:    9    charge:    1.8485    magn:   -0.0067    constr:    0.0000
     atom:   10    charge:   11.1636    magn:    0.3316    constr:    0.0000
     atom:   11    charge:    1.8485    magn:   -0.0067    constr:    0.0000
     atom:   12    charge:    1.7141    magn:    0.0247    constr:    0.0000
     atom:   13    charge:    1.7192    magn:   -0.0043    constr:    0.0000
     atom:   14    charge:    1.7103    magn:    0.0019    constr:    0.0000
     atom:   15    charge:    1.7192    magn:   -0.0043    constr:    0.0000
     atom:   16    charge:    1.7141    magn:    0.0247    constr:    0.0000
     atom:   17    charge:    1.8486    magn:   -0.0067    constr:    0.0000
     atom:   18    charge:    1.7141    magn:    0.0247    constr:    0.0000

     End of self-consistent calculation

 ------ SPIN UP ------------

          k = 0.0000 0.0000 0.0000 ( 31593 PWs)   bands (ev):

   -88.6345 -55.5069 -55.5068 -53.9028 -19.6423 -17.3315 -17.3314 -17.2043
   -17.1096 -17.1095 -15.6455 -13.0824 -12.9815 -12.9814 -11.5494 -10.9891
   -10.9890 -10.4122 -10.4121  -9.9922  -8.9887  -8.9887  -7.7840  -6.8472
    -6.8471  -6.5009  -6.3653  -6.2950  -6.2948  -6.1464  -5.1727  -5.1727
    -4.9464  -4.9462  -4.8794  -4.3011  -4.3010  -3.5818  -2.6751  -2.6750
    -1.6350  -0.4086   0.8351   0.8352   1.1389   2.7516   2.8858   2.8860
     4.5390   4.5405

[...]

 ------ SPIN DOWN ----------

[...]

     the Fermi energy is    -0.7991 ev

!    total energy              =    -458.85434219 Ry
     Harris-Foulkes estimate   =    -458.85434212 Ry
     estimated scf accuracy    <          2.5E-10 Ry

     The total energy is the sum of the following terms:

     one-electron contribution =   -1344.57156328 Ry
     hartree contribution      =     686.32295069 Ry
     xc contribution           =    -108.20930514 Ry
     ewald contribution        =     307.60367249 Ry
     smearing contrib. (-TS)   =      -0.00009694 Ry

[...]

     convergence has been achieved in  28 iterations

[...]

     Forces acting on atoms (cartesian axes, Ry/au):

     atom    1 type  1   force =     0.00531049   -0.00306601   -0.00000000
     atom    2 type  1   force =    -0.04307249   -0.01254555   -0.00000000
     atom    3 type  1   force =    -0.01084304   -0.00626023    0.00000000
     atom    4 type  1   force =    -0.03240101   -0.03102909    0.00000000
     atom    5 type  1   force =     0.00000000    0.00613203    0.00000000
     atom    6 type  1   force =     0.00000000    0.00000000    0.00000000
     atom    7 type  1   force =    -0.00531049   -0.00306601    0.00000000
     atom    8 type  1   force =     0.04307249   -0.01254555    0.00000000
     atom    9 type  1   force =     0.00000000   -0.71634802    0.00000000
     atom   10 type  2   force =     0.00000000   -0.00000000    0.00000000
     atom   11 type  1   force =    -0.62037558    0.35817401   -0.00000000
     atom   12 type  1   force =     0.01067148    0.04357464    0.00000000
     atom   13 type  1   force =     0.00000000    0.01252046    0.00000000
     atom   14 type  1   force =     0.00000000   -0.00000000    0.00000000
     atom   15 type  1   force =     0.01084304   -0.00626023   -0.00000000
     atom   16 type  1   force =     0.03240101   -0.03102909    0.00000000
     atom   17 type  1   force =     0.62037558    0.35817401    0.00000000
     atom   18 type  1   force =    -0.01067148    0.04357464   -0.00000000

     Total force =     1.245842     Total SCF correction =     0.000014

     BFGS Geometry Optimization

     number of scf cycles    =   1
     number of bfgs steps    =   0

     energy   new            =    -458.8543421886 Ry

     new trust radius        =       0.5000000000 bohr
     new conv_thr            =       0.0000000010 Ry

ATOMIC_POSITIONS (angstrom)
C        0.001961471  -0.001132456  -0.000000000
C       -0.015909151   1.418706294  -0.000000000
C       -1.236653634   2.132697869   0.000000000
C       -1.244616234   3.546889390   0.000000000
C       -2.465297350   4.272285177   0.000000000
C       -2.465297350   5.693360355   0.000000000
C        2.463335879  -0.001132456   0.000000000
C        2.481206501   1.418706294   0.000000000
C        1.232648675   1.870421529   0.000000000
Fe       1.232648675   3.558350222   0.000000000
C       -0.229140453   4.402314568  -0.000000000
C        0.003941592   5.709454981   0.000000000
C        4.930594700   0.004624528   0.000000000
C        4.930594700   1.423340089   0.000000000
C        3.701950984   2.132697869  -0.000000000
C        3.709913584   3.546889390   0.000000000
C        2.694437803   4.402314568   0.000000000
C        2.461355758   5.709454981  -0.000000000

     Writing output data file gr-fe-3x3.save/
     NEW-OLD atomic charge density approx. for the potential

[...]

     energy   old            =    -458.8543421886 Ry
     energy   new            =    -459.2321872571 Ry

     CASE: energy  _new < energy  _old

[...]

     Threshold (ethr) on eigenvalues was too large:
     Diagonalizing with lowered threshold

     Davidson diagonalization with overlap
     ethr =  7.77E-08,  avg # of iterations =  2.1

[...]

     number of scf cycles    =   6
     number of bfgs steps    =   5

     energy   old            =    -459.2777897704 Ry
     energy   new            =    -459.2778502398 Ry

     CASE: energy  _new < energy  _old

     new trust radius        =       0.0029704055 bohr
     new conv_thr            =            1.0E-11 Ry

ATOMIC_POSITIONS (angstrom)
C        0.004263524  -0.002461547  -0.000000000
C       -0.035435984   1.384859071  -0.000000000
C       -1.245073401   2.127836714   0.000000000
C       -1.283692206   3.546902269   0.000000000
C       -2.465297350   4.274943359   0.000000000
C       -2.465297350   5.693360355   0.000000000
C        2.461033826  -0.002461547   0.000000000
C        2.500733334   1.384859071   0.000000000
C        1.232648675   1.910802699   0.000000000
Fe       1.232648675   3.558350222   0.000000000
C       -0.194169334   4.382123983  -0.000000000
C       -0.015607547   5.743289326   0.000000000
C        4.930594700   0.014346838   0.000000000
C        4.930594700   1.423340089   0.000000000
C        3.710370751   2.127836714  -0.000000000
C        3.748989556   3.546902269   0.000000000
C        2.659466684   4.382123983   0.000000000
C        2.480904897   5.743289326   0.000000000

     Writing output data file gr-fe-3x3.save/
     NEW-OLD atomic charge density approx. for the potential

     Check: negative core charge=   -0.000002

[...]

     Self-consistent Calculation

[...]

     Threshold (ethr) on eigenvalues was too large:
     Diagonalizing with lowered threshold

     Davidson diagonalization with overlap
     ethr =  1.74E-08,  avg # of iterations =  2.1

[...]

     total energy              =    -459.27785585 Ry
     Harris-Foulkes estimate   =    -459.27785585 Ry
     estimated scf accuracy    <          2.0E-11 Ry

[...]

     iteration # 13     ecut=    70.00 Ry     beta= 0.20
     Davidson diagonalization with overlap
     ethr =  1.00E-13,  avg # of iterations =  2.0

[...]

     Magnetic moment per site:
     atom:    1    charge:    1.7522    magn:   -0.0054    constr:    0.0000
     atom:    2    charge:    1.7570    magn:    0.0003    constr:    0.0000
     atom:    3    charge:    1.7276    magn:   -0.0065    constr:    0.0000
     atom:    4    charge:    1.7570    magn:    0.0003    constr:    0.0000
     atom:    5    charge:    1.7522    magn:   -0.0054    constr:    0.0000
     atom:    6    charge:    1.7310    magn:   -0.0005    constr:    0.0000
     atom:    7    charge:    1.7522    magn:   -0.0054    constr:    0.0000
     atom:    8    charge:    1.7569    magn:    0.0003    constr:    0.0000
     atom:    9    charge:    1.6904    magn:   -0.0287    constr:    0.0000
     atom:   10    charge:   11.0275    magn:    0.6599    constr:    0.0000
     atom:   11    charge:    1.6904    magn:   -0.0287    constr:    0.0000
     atom:   12    charge:    1.7570    magn:    0.0003    constr:    0.0000
     atom:   13    charge:    1.7276    magn:   -0.0065    constr:    0.0000
     atom:   14    charge:    1.7328    magn:    0.0020    constr:    0.0000
     atom:   15    charge:    1.7276    magn:   -0.0065    constr:    0.0000
     atom:   16    charge:    1.7569    magn:    0.0003    constr:    0.0000
     atom:   17    charge:    1.6904    magn:   -0.0287    constr:    0.0000
     atom:   18    charge:    1.7570    magn:    0.0003    constr:    0.0000

     End of self-consistent calculation

 ------ SPIN UP ------------

[...]

 ------ SPIN DOWN ----------

[...]

          k = 0.2500 0.4330 0.0000 ( 31601 PWs)   bands (ev):

   -87.0347 -53.6013 -53.6013 -52.4341 -19.3823 -18.8318 -18.2772 -16.8469
   -16.4188 -15.4403 -15.2342 -14.4380 -13.6799 -12.9772 -12.5931 -11.3714
   -10.8257  -9.6484  -9.2083  -8.6892  -8.3455  -7.9251  -7.5901  -7.4829
    -7.3687  -6.7492  -6.6734  -6.3469  -6.2055  -5.7270  -5.1246  -4.7746
    -4.0698  -4.0180  -3.5193  -3.1640  -2.8903  -2.8563  -2.7061  -0.9771
    -0.7030  -0.6897  -0.1058   1.6860   2.0137   2.0750   2.2198   2.9915
     3.4213   3.5271

     the Fermi energy is    -0.4672 ev

!    total energy              =    -459.27785586 Ry
     Harris-Foulkes estimate   =    -459.27785585 Ry
     estimated scf accuracy    <          2.7E-12 Ry

     The total energy is the sum of the following terms:

     one-electron contribution =   -1318.36687753 Ry
     hartree contribution      =     674.02795269 Ry
     xc contribution           =    -108.20955896 Ry
     ewald contribution        =     293.27061264 Ry
     smearing contrib. (-TS)   =       0.00001529 Ry

     total magnetization       =     1.00 Bohr mag/cell
     absolute magnetization    =     1.46 Bohr mag/cell

     convergence has been achieved in  13 iterations

     negative rho (up, down):  2.092E-04 5.236E-02

     Forces acting on atoms (cartesian axes, Ry/au):

     atom    1 type  1   force =    -0.00020463    0.00011815   -0.00000000
     atom    2 type  1   force =     0.00014489    0.00029901    0.00000000
     atom    3 type  1   force =     0.00061613    0.00035572    0.00000000
     atom    4 type  1   force =     0.00033140   -0.00002402    0.00000000
     atom    5 type  1   force =     0.00000000   -0.00023629    0.00000000
     atom    6 type  1   force =     0.00000000    0.00000000    0.00000000
     atom    7 type  1   force =     0.00020463    0.00011815    0.00000000
     atom    8 type  1   force =    -0.00014489    0.00029901   -0.00000000
     atom    9 type  1   force =    -0.00000000   -0.00018805    0.00000000
     atom   10 type  2   force =     0.00000000   -0.00000000    0.00000000
     atom   11 type  1   force =    -0.00016286    0.00009403   -0.00000000
     atom   12 type  1   force =     0.00018650   -0.00027499   -0.00000000
     atom   13 type  1   force =     0.00000000   -0.00071144    0.00000000
     atom   14 type  1   force =    -0.00000000    0.00000000    0.00000000
     atom   15 type  1   force =    -0.00061613    0.00035572    0.00000000
     atom   16 type  1   force =    -0.00033140   -0.00002402    0.00000000
     atom   17 type  1   force =     0.00016286    0.00009403    0.00000000
     atom   18 type  1   force =    -0.00018650   -0.00027499    0.00000000

     Total force =     0.001567     Total SCF correction =     0.000001

     bfgs converged in   7 scf cycles and   6 bfgs steps
     (criteria: energy <  1.0E-04 Ry, force <  1.0E-03 Ry/Bohr)

     End of BFGS Geometry Optimization

     Final energy   =    -459.2778558638 Ry
Begin final coordinates

ATOMIC_POSITIONS (angstrom)
C        0.004263524  -0.002461547  -0.000000000
C       -0.035435984   1.384859071  -0.000000000
C       -1.245073401   2.127836714   0.000000000
C       -1.283692206   3.546902269   0.000000000
C       -2.465297350   4.274943359   0.000000000
C       -2.465297350   5.693360355   0.000000000
C        2.461033826  -0.002461547   0.000000000
C        2.500733334   1.384859071   0.000000000
C        1.232648675   1.910802699   0.000000000
Fe       1.232648675   3.558350222   0.000000000
C       -0.194169334   4.382123983  -0.000000000
C       -0.015607547   5.743289326   0.000000000
C        4.930594700   0.014346838   0.000000000
C        4.930594700   1.423340089   0.000000000
C        3.710370751   2.127836714  -0.000000000
C        3.748989556   3.546902269   0.000000000
C        2.659466684   4.382123983   0.000000000
C        2.480904897   5.743289326   0.000000000
End final coordinates

     Writing output data file gr-fe-3x3.save/

     General routines

     Parallel routines

   This run was terminated on:   3:35: 2  15Sep2023

   JOB DONE.