     Program PWSCF v.6.4.1 starts on 15Sep2023 at  1:52:11

     R & G space division:  proc/nbgrp/npool/nimage =       6
     Reading input from manganeso.in

     Current dimensions of program PWSCF are:
     Max number of different atomic species (ntypx) = 10
     Max number of k-points (npk) =  40000
     Max angular momentum in pseudopotentials (lmaxx) =  3

     IMPORTANT: XC functional enforced from input :
     Exchange-correlation      = RVV10 ( 1  4 13  4 3 0)
     Any further DFT definition will be discarded
     Please, verify this is what you really want

               file Mn.pbe-spn-rrkjus_psl.0.3.1.UPF: wavefunction(s)  3D renormalized

     Subspace diagonalization in iterative solution of the eigenvalue problem:
     a serial algorithm will be used

     bravais-lattice index     =            4
     lattice parameter (alat)  =      13.9762  a.u.
     unit-cell volume          =    3196.7546 (a.u.)^3
     number of atoms/cell      =           18
     number of atomic types    =            2
     number of electrons       =        83.00
     number of Kohn-Sham states=           50
     kinetic-energy cutoff     =      70.0000  Ry
     charge density cutoff     =     490.0000  Ry
     convergence threshold     =      1.0E-09
     mixing beta               =       0.2000
     number of iterations used =            8  plain     mixing
     Exchange-correlation      = RVV10 ( 1  4 13  4 3 0)
     nstep                     =           50

     celldm(1)=  13.976226  celldm(2)=   0.000000  celldm(3)=   1.352100
     celldm(4)=   0.000000  celldm(5)=   0.000000  celldm(6)=   0.000000

     crystal axes: (cart. coord. in units of alat)
               a(1) = (   1.000000   0.000000   0.000000 )
               a(2) = (  -0.500000   0.866025   0.000000 )
               a(3) = (   0.000000   0.000000   1.352100 )

     reciprocal axes: (cart. coord. in units 2 pi/alat)
               b(1) = (  1.000000  0.577350 -0.000000 )
               b(2) = (  0.000000  1.154701  0.000000 )
               b(3) = (  0.000000 -0.000000  0.739590 )

     PseudoPot. # 1 for C  read from file:
     /home/cristian/Escritorio/Proyecto_Grafeno/pseudopotenciales/C.pbe-n-rrkjus_psl.1.0.0.UPF
     MD5 check sum: 1fdd950c42eb37d8afe3dd2f8d12311e
     Pseudo is Ultrasoft + core correction, Zval =  4.0
     Generated using "atomic" code by A. Dal Corso v.6.3MaX
     Using radial grid of 1073 points,  4 beta functions with:
                l(1) =   0
                l(2) =   0
                l(3) =   1
                l(4) =   1
     Q(r) pseudized with 0 coefficients

     PseudoPot. # 2 for Mn read from file:
     /home/cristian/Escritorio/Proyecto_Grafeno/pseudopotenciales/Mn.pbe-spn-rrkjus_psl.0.3.1.UPF
     MD5 check sum: e1cac159bdd2ba70c18e85765a5d4279
     Pseudo is Ultrasoft + core correction, Zval = 15.0
     Generated using "atomic" code by A. Dal Corso v.6.2.2
     Using radial grid of 1187 points,  6 beta functions with:
                l(1) =   0
                l(2) =   0
                l(3) =   1
                l(4) =   1
                l(5) =   2
                l(6) =   2
     Q(r) pseudized with 0 coefficients

     vdW kernel table read from file rVV10_kernel_table
     MD5 check sum: b8e2538accc0c0b3206b45ba4daaba6c

     atomic species   valence    mass     pseudopotential
        C              4.00    12.01070     C ( 1.00)
        Mn            15.00    54.93804     Mn( 1.00)

     Starting magnetic structure
     atomic species   magnetization
        C            0.300
        Mn           0.800

     12 Sym. Ops. (no inversion) found ( 8 have fractional translation)

   Cartesian axes

     site n.     atom                  positions (alat units)
         1           C   tau(   1) = (   0.0000000   0.0000000   0.0000000  )
         2           C   tau(   2) = (   0.0000000   0.1924499   0.0000000  )
         3           C   tau(   3) = (  -0.1666665   0.2886748   0.0000000  )
         4           C   tau(   4) = (  -0.1666665   0.4811247   0.0000000  )
         5           C   tau(   5) = (  -0.3333330   0.5773496   0.0000000  )
         6           C   tau(   6) = (  -0.3333330   0.7697995   0.0000000  )
         7           C   tau(   7) = (   0.3333330   0.0000000   0.0000000  )
         8           C   tau(   8) = (   0.3333330   0.1924499   0.0000000  )
         9           C   tau(   9) = (   0.1666665   0.2886748   0.0000000  )
        10           Mn  tau(  10) = (   0.1666665   0.4811247   0.0000000  )
        11           C   tau(  11) = (   0.0000000   0.5773496   0.0000000  )
        12           C   tau(  12) = (   0.0000000   0.7697995   0.0000000  )
        13           C   tau(  13) = (   0.6666660   0.0000000   0.0000000  )
        14           C   tau(  14) = (   0.6666660   0.1924499   0.0000000  )
        15           C   tau(  15) = (   0.4999995   0.2886748   0.0000000  )
        16           C   tau(  16) = (   0.4999995   0.4811247   0.0000000  )
        17           C   tau(  17) = (   0.3333330   0.5773496   0.0000000  )
        18           C   tau(  18) = (   0.3333330   0.7697995   0.0000000  )

     number of k points=     4  Marzari-Vanderbilt smearing, width (Ry)=  0.0010
                       cart. coord. in units 2pi/alat
        k(    1) = (   0.0000000   0.0000000   0.0000000), wk =   0.0625000
        k(    2) = (   0.0000000   0.2886751   0.0000000), wk =   0.3750000
        k(    3) = (   0.0000000  -0.5773503   0.0000000), wk =   0.1875000
        k(    4) = (   0.2500000   0.4330127   0.0000000), wk =   0.3750000

     Check: negative core charge=   -0.000002

     Initial potential from superposition of free atoms

     starting charge   82.99879, renormalised to   83.00000

     negative rho (up, down):  4.256E-05 2.737E-02

Carrying out rVV10 run using the following parameters:
Nqs =      20    Nr_points =    1024   r_max =   100.000
b_value =  6.30000    beta =  0.00901
     q_mesh =  0.00010000  0.00030000  0.00058939  0.00100810
               0.00161396  0.00249058  0.00375900  0.00559430
               0.00824984  0.01209221  0.01765183  0.02569619
               0.03733578  0.05417739  0.07854596  0.11380545
               0.16482331  0.23864234  0.34545298  0.50000000

Gradients computed in Reciprocal space

     Starting wfcs are   78 randomized atomic wfcs

     Self-consistent Calculation

     iteration #  1     ecut=    70.00 Ry     beta= 0.20
     Davidson diagonalization with overlap
     ethr =  1.00E-02,  avg # of iterations =  2.5

[...]

     total energy              =    -423.32101670 Ry
     Harris-Foulkes estimate   =    -423.26833633 Ry
     estimated scf accuracy    <       4.97032217 Ry

     total magnetization       =     4.50 Bohr mag/cell
     absolute magnetization    =     4.90 Bohr mag/cell

[...]

     Magnetic moment per site:
     atom:    1    charge:    1.7118    magn:   -0.0188    constr:    0.0000
     atom:    2    charge:    1.7134    magn:    0.0507    constr:    0.0000
     atom:    3    charge:    1.7219    magn:   -0.0158    constr:    0.0000
     atom:    4    charge:    1.7134    magn:    0.0507    constr:    0.0000
     atom:    5    charge:    1.7118    magn:   -0.0188    constr:    0.0000
     atom:    6    charge:    1.7137    magn:    0.0681    constr:    0.0000
     atom:    7    charge:    1.7118    magn:   -0.0188    constr:    0.0000
     atom:    8    charge:    1.7133    magn:    0.0506    constr:    0.0000
     atom:    9    charge:    1.8711    magn:   -0.0249    constr:    0.0000
     atom:   10    charge:   10.0276    magn:    0.6176    constr:    0.0000
     atom:   11    charge:    1.8711    magn:   -0.0249    constr:    0.0000
     atom:   12    charge:    1.7134    magn:    0.0507    constr:    0.0000
     atom:   13    charge:    1.7219    magn:   -0.0158    constr:    0.0000
     atom:   14    charge:    1.7096    magn:    0.0103    constr:    0.0000
     atom:   15    charge:    1.7219    magn:   -0.0158    constr:    0.0000
     atom:   16    charge:    1.7133    magn:    0.0506    constr:    0.0000
     atom:   17    charge:    1.8711    magn:   -0.0249    constr:    0.0000
     atom:   18    charge:    1.7134    magn:    0.0507    constr:    0.0000

     End of self-consistent calculation

 ------ SPIN UP ------------

          k = 0.0000 0.0000 0.0000 ( 31593 PWs)   bands (ev):

   -80.1726 -49.7246 -49.7245 -48.5315 -19.5394 -17.2303 -17.2302 -17.1573
   -16.9401 -16.9399 -15.4158 -12.9914 -12.7927 -12.7926 -11.4033 -10.8094
   -10.8093 -10.3132 -10.3131  -9.8906  -8.7551  -8.7550  -7.7245  -6.5808
    -6.5807  -6.3400  -6.1090  -6.1089  -6.0338  -5.6448  -4.8934  -4.8933
    -4.8799  -4.5423  -4.5422  -4.1538  -4.1537  -3.4343  -2.3242  -2.3241
    -1.2472  -0.4316   1.1603   1.1974   1.1974   2.7137   3.8241   3.8242
     4.1110   4.6008

[...]

 ------ SPIN DOWN ----------

[...]

     the Fermi energy is    -0.5090 ev

!    total energy              =    -424.73060862 Ry
     Harris-Foulkes estimate   =    -424.73060859 Ry
     estimated scf accuracy    <          9.9E-10 Ry

     The total energy is the sum of the following terms:

     one-electron contribution =   -1272.07490156 Ry
     hartree contribution      =     650.96572192 Ry
     xc contribution           =    -108.50554945 Ry
     ewald contribution        =     304.88409011 Ry
     smearing contrib. (-TS)   =       0.00003037 Ry

[...]

     convergence has been achieved in  22 iterations

[...]

     Forces acting on atoms (cartesian axes, Ry/au):

     atom    1 type  1   force =    -0.00655774    0.00378611    0.00000000
     atom    2 type  1   force =    -0.04460054   -0.01985207    0.00000000
     atom    3 type  1   force =    -0.01291681   -0.00745753    0.00000000
     atom    4 type  1   force =    -0.03949267   -0.02869917    0.00000000
     atom    5 type  1   force =    -0.00000000   -0.00757223    0.00000000
     atom    6 type  1   force =     0.00000000    0.00000000    0.00000000
     atom    7 type  1   force =     0.00655774    0.00378611    0.00000000
     atom    8 type  1   force =     0.04460054   -0.01985207    0.00000000
     atom    9 type  1   force =     0.00000000   -0.75984371    0.00000000
     atom   10 type  2   force =    -0.00000000    0.00000000    0.00000000
     atom   11 type  1   force =    -0.65804396    0.37992186    0.00000000
     atom   12 type  1   force =     0.00510788    0.04855124    0.00000000
     atom   13 type  1   force =     0.00000000    0.01491505    0.00000000
     atom   14 type  1   force =     0.00000000    0.00000000    0.00000000
     atom   15 type  1   force =     0.01291681   -0.00745753    0.00000000
     atom   16 type  1   force =     0.03949267   -0.02869917    0.00000000
     atom   17 type  1   force =     0.65804396    0.37992186    0.00000000
     atom   18 type  1   force =    -0.00510788    0.04855124   -0.00000000

     Total force =     1.321827     Total SCF correction =     0.000024

     BFGS Geometry Optimization

     number of scf cycles    =   1
     number of bfgs steps    =   0

     energy   new            =    -424.7306086171 Ry

     new trust radius        =       0.5000000000 bohr
     new conv_thr            =       0.0000000010 Ry

ATOMIC_POSITIONS (angstrom)
C       -0.002283501   0.001318380   0.000000000
C       -0.015530555   1.416427311   0.000000000
C       -1.237146497   2.132413314   0.000000000
C       -1.246400594   3.548356755   0.000000000
C       -2.465297350   4.267383507   0.000000000
C       -2.465297350   5.693360355   0.000000000
C        2.467580851   0.001318380   0.000000000
C        2.480827905   1.416427311   0.000000000
C        1.232648675   1.870421529   0.000000000
Mn       1.232648675   3.558350222   0.000000000
C       -0.229140453   4.402314568   0.000000000
C        0.001778636   5.710266600   0.000000000
C        4.930594700   0.005193638   0.000000000
C        4.930594700   1.423340089   0.000000000
C        3.702443847   2.132413314   0.000000000
C        3.711697944   3.548356755   0.000000000
C        2.694437803   4.402314568   0.000000000
C        2.463518714   5.710266600  -0.000000000

     Writing output data file gr-mang-3x3.save/
     NEW-OLD atomic charge density approx. for the potential

[...]

     energy   old            =    -424.7306086171 Ry
     energy   new            =    -425.1663026050 Ry

     CASE: energy  _new < energy  _old

[...]

     number of scf cycles    =   6
     number of bfgs steps    =   5

     energy   old            =    -425.2037085999 Ry
     energy   new            =    -425.2037750764 Ry

     CASE: energy  _new < energy  _old

     new trust radius        =       0.0032997176 bohr
     new conv_thr            =            1.0E-11 Ry

ATOMIC_POSITIONS (angstrom)
C        0.002147154  -0.001239660   0.000000000
C       -0.037575220   1.380658279   0.000000000
C       -1.246792459   2.126844216   0.000000000
C       -1.288399816   3.547150032   0.000000000
C       -2.465297350   4.272499586   0.000000000
C       -2.465297350   5.693360355   0.000000000
C        2.463150196  -0.001239660   0.000000000
C        2.502872570   1.380658279  -0.000000000
C        1.232648675   1.891876522   0.000000000
Mn       1.232648675   3.558350222   0.000000000
C       -0.210559884   4.391587072   0.000000000
C       -0.018175922   5.747242355  -0.000000000
C        4.930594700   0.016331834   0.000000000
C        4.930594700   1.423340089   0.000000000
C        3.712089809   2.126844216   0.000000000
C        3.753697166   3.547150032   0.000000000
C        2.675857234   4.391587072   0.000000000
C        2.483473272   5.747242355  -0.000000000

     Writing output data file gr-mang-3x3.save/
     NEW-OLD atomic charge density approx. for the potential

     Check: negative core charge=   -0.000002

[...]

     Self-consistent Calculation

[...]

     Threshold (ethr) on eigenvalues was too large:
     Diagonalizing with lowered threshold

     Davidson diagonalization with overlap
     ethr =  1.89E-08,  avg # of iterations =  2.2

[...]

     total energy              =    -425.20379639 Ry
     Harris-Foulkes estimate   =    -425.20379639 Ry
     estimated scf accuracy    <          2.1E-11 Ry

[...]

     iteration # 13     ecut=    70.00 Ry     beta= 0.20
     Davidson diagonalization with overlap
     ethr =  1.00E-13,  avg # of iterations =  2.8

[...]

     Magnetic moment per site:
     atom:    1    charge:    1.7628    magn:   -0.0183    constr:    0.0000
     atom:    2    charge:    1.7562    magn:    0.0435    constr:    0.0000
     atom:    3    charge:    1.7314    magn:   -0.0096    constr:    0.0000
     atom:    4    charge:    1.7562    magn:    0.0435    constr:    0.0000
     atom:    5    charge:    1.7628    magn:   -0.0183    constr:    0.0000
     atom:    6    charge:    1.7233    magn:    0.0597    constr:    0.0000
     atom:    7    charge:    1.7628    magn:   -0.0183    constr:    0.0000
     atom:    8    charge:    1.7562    magn:    0.0435    constr:    0.0000
     atom:    9    charge:    1.6928    magn:   -0.0561    constr:    0.0000
     atom:   10    charge:    9.8538    magn:    1.3885    constr:    0.0000
     atom:   11    charge:    1.6928    magn:   -0.0561    constr:    0.0000
     atom:   12    charge:    1.7562    magn:    0.0435    constr:    0.0000
     atom:   13    charge:    1.7314    magn:   -0.0096    constr:    0.0000
     atom:   14    charge:    1.7349    magn:    0.0137    constr:    0.0000
     atom:   15    charge:    1.7314    magn:   -0.0096    constr:    0.0000
     atom:   16    charge:    1.7562    magn:    0.0435    constr:    0.0000
     atom:   17    charge:    1.6928    magn:   -0.0561    constr:    0.0000
     atom:   18    charge:    1.7562    magn:    0.0435    constr:    0.0000

     End of self-consistent calculation

 ------ SPIN UP ------------

[...]

 ------ SPIN DOWN ----------

[...]

          k = 0.2500 0.4330 0.0000 ( 31601 PWs)   bands (ev):

   -78.4238 -47.6869 -47.6869 -46.6692 -19.3391 -18.7701 -18.2134 -16.7748
   -16.3449 -15.3770 -15.1803 -14.3368 -13.6087 -12.9075 -12.4907 -11.2596
   -10.7766  -9.5921  -9.0975  -8.6298  -8.2749  -7.8434  -7.5040  -7.4327
    -7.2785  -6.6464  -6.5830  -6.2546  -6.0946  -5.5941  -5.0081  -4.6011
    -3.8844  -3.6024  -3.2572  -2.7524  -2.7285  -2.4787  -2.3497  -0.6589
    -0.0578   0.0648   0.3952   2.2658   2.4468   2.5458   2.7801   3.3784
     3.4017   3.7223

     the Fermi energy is    -0.0761 ev

!    total energy              =    -425.20379639 Ry
     Harris-Foulkes estimate   =    -425.20379639 Ry
     estimated scf accuracy    <          4.3E-12 Ry

     The total energy is the sum of the following terms:

     one-electron contribution =   -1245.86800905 Ry
     hartree contribution      =     638.04901048 Ry
     xc contribution           =    -108.47229411 Ry
     ewald contribution        =     291.08749829 Ry
     smearing contrib. (-TS)   =      -0.00000200 Ry

     total magnetization       =     2.87 Bohr mag/cell
     absolute magnetization    =     3.66 Bohr mag/cell

     convergence has been achieved in  13 iterations

     negative rho (up, down):  2.304E-04 3.098E-02

     Forces acting on atoms (cartesian axes, Ry/au):

     atom    1 type  1   force =    -0.00032370    0.00018689    0.00000000
     atom    2 type  1   force =     0.00019669    0.00023622    0.00000000
     atom    3 type  1   force =     0.00066685    0.00038501    0.00000000
     atom    4 type  1   force =     0.00030291    0.00005223   -0.00000000
     atom    5 type  1   force =     0.00000000   -0.00037377    0.00000000
     atom    6 type  1   force =     0.00000000    0.00000000    0.00000000
     atom    7 type  1   force =     0.00032370    0.00018689    0.00000000
     atom    8 type  1   force =    -0.00019669    0.00023622    0.00000000
     atom    9 type  1   force =     0.00000000    0.00007792    0.00000000
     atom   10 type  2   force =    -0.00000000    0.00000000    0.00000000
     atom   11 type  1   force =     0.00006748   -0.00003896    0.00000000
     atom   12 type  1   force =     0.00010623   -0.00028845    0.00000000
     atom   13 type  1   force =     0.00000000   -0.00077001    0.00000000
     atom   14 type  1   force =     0.00000000    0.00000000    0.00000000
     atom   15 type  1   force =    -0.00066685    0.00038501   -0.00000000
     atom   16 type  1   force =    -0.00030291    0.00005223   -0.00000000
     atom   17 type  1   force =    -0.00006748   -0.00003896    0.00000000
     atom   18 type  1   force =    -0.00010623   -0.00028845    0.00000000

     Total force =     0.001668     Total SCF correction =     0.000002

     bfgs converged in   7 scf cycles and   6 bfgs steps
     (criteria: energy <  1.0E-04 Ry, force <  1.0E-03 Ry/Bohr)

     End of BFGS Geometry Optimization

     Final energy   =    -425.2037963931 Ry
Begin final coordinates

ATOMIC_POSITIONS (angstrom)
C        0.002147154  -0.001239660   0.000000000
C       -0.037575220   1.380658279   0.000000000
C       -1.246792459   2.126844216   0.000000000
C       -1.288399816   3.547150032   0.000000000
C       -2.465297350   4.272499586   0.000000000
C       -2.465297350   5.693360355   0.000000000
C        2.463150196  -0.001239660   0.000000000
C        2.502872570   1.380658279  -0.000000000
C        1.232648675   1.891876522   0.000000000
Mn       1.232648675   3.558350222   0.000000000
C       -0.210559884   4.391587072   0.000000000
C       -0.018175922   5.747242355  -0.000000000
C        4.930594700   0.016331834   0.000000000
C        4.930594700   1.423340089   0.000000000
C        3.712089809   2.126844216   0.000000000
C        3.753697166   3.547150032   0.000000000
C        2.675857234   4.391587072   0.000000000
C        2.483473272   5.747242355  -0.000000000
End final coordinates

     Writing output data file gr-mang-3x3.save/

     General routines

     Parallel routines

   This run was terminated on:   2:43:17  15Sep2023

   JOB DONE.