     Program PWSCF v.6.4.1 starts on 15Sep2023 at  3:35: 2

     R & G space division:  proc/nbgrp/npool/nimage =       6
     Reading input from niquel.in

     Current dimensions of program PWSCF are:
     Max number of different atomic species (ntypx) = 10
     Max number of k-points (npk) =  40000
     Max angular momentum in pseudopotentials (lmaxx) =  3

     IMPORTANT: XC functional enforced from input :
     Exchange-correlation      = RVV10 ( 1  4 13  4 3 0)
     Any further DFT definition will be discarded
     Please, verify this is what you really want

     Subspace diagonalization in iterative solution of the eigenvalue problem:
     a serial algorithm will be used

     bravais-lattice index     =            4
     lattice parameter (alat)  =      13.9762  a.u.
     unit-cell volume          =    3196.7546 (a.u.)^3
     number of atoms/cell      =           18
     number of atomic types    =            2
     number of electrons       =        86.00
     number of Kohn-Sham states=           52
     kinetic-energy cutoff     =      70.0000  Ry
     charge density cutoff     =     490.0000  Ry
     convergence threshold     =      1.0E-09
     mixing beta               =       0.2000
     number of iterations used =            8  plain     mixing
     Exchange-correlation      = RVV10 ( 1  4 13  4 3 0)
     nstep                     =           50

     celldm(1)=  13.976226  celldm(2)=   0.000000  celldm(3)=   1.352100
     celldm(4)=   0.000000  celldm(5)=   0.000000  celldm(6)=   0.000000

     crystal axes: (cart. coord. in units of alat)
               a(1) = (   1.000000   0.000000   0.000000 )
               a(2) = (  -0.500000   0.866025   0.000000 )
               a(3) = (   0.000000   0.000000   1.352100 )

     reciprocal axes: (cart. coord. in units 2 pi/alat)
               b(1) = (  1.000000  0.577350 -0.000000 )
               b(2) = (  0.000000  1.154701  0.000000 )
               b(3) = (  0.000000 -0.000000  0.739590 )

     PseudoPot. # 1 for C  read from file:
     /home/cristian/Escritorio/Proyecto_Grafeno/pseudopotenciales/C.pbe-n-rrkjus_psl.1.0.0.UPF
     MD5 check sum: 1fdd950c42eb37d8afe3dd2f8d12311e
     Pseudo is Ultrasoft + core correction, Zval =  4.0
     Generated using "atomic" code by A. Dal Corso v.6.3MaX
     Using radial grid of 1073 points,  4 beta functions with:
                l(1) =   0
                l(2) =   0
                l(3) =   1
                l(4) =   1
     Q(r) pseudized with 0 coefficients

     PseudoPot. # 2 for Ni read from file:
     /home/cristian/Escritorio/Proyecto_Grafeno/pseudopotenciales/Ni.pbe-spn-rrkjus_psl.1.0.0.UPF
     MD5 check sum: 8b3fc9aac6dafe35f580d41bb18c3945
     Pseudo is Ultrasoft + core correction, Zval = 18.0
     Generated using "atomic" code by A. Dal Corso v.6.3
     Using radial grid of 1195 points,  6 beta functions with:
                l(1) =   0
                l(2) =   0
                l(3) =   1
                l(4) =   1
                l(5) =   2
                l(6) =   2
     Q(r) pseudized with 0 coefficients

     vdW kernel table read from file rVV10_kernel_table
     MD5 check sum: b8e2538accc0c0b3206b45ba4daaba6c

     atomic species   valence    mass     pseudopotential
        C              4.00    12.01070     C ( 1.00)
        Ni            18.00    58.69340     Ni( 1.00)

     Starting magnetic structure
     atomic species   magnetization
        C            0.300
        Ni           0.800

     12 Sym. Ops. (no inversion) found ( 8 have fractional translation)

   Cartesian axes

     site n.     atom                  positions (alat units)
         1           C   tau(   1) = (   0.0000000   0.0000000   0.0000000  )
         2           C   tau(   2) = (   0.0000000   0.1924499   0.0000000  )
         3           C   tau(   3) = (  -0.1666665   0.2886748   0.0000000  )
         4           C   tau(   4) = (  -0.1666665   0.4811247   0.0000000  )
         5           C   tau(   5) = (  -0.3333330   0.5773496   0.0000000  )
         6           C   tau(   6) = (  -0.3333330   0.7697995   0.0000000  )
         7           C   tau(   7) = (   0.3333330   0.0000000   0.0000000  )
         8           C   tau(   8) = (   0.3333330   0.1924499   0.0000000  )
         9           C   tau(   9) = (   0.1666665   0.2886748   0.0000000  )
        10           Ni  tau(  10) = (   0.1666665   0.4811247   0.0000000  )
        11           C   tau(  11) = (   0.0000000   0.5773496   0.0000000  )
        12           C   tau(  12) = (   0.0000000   0.7697995   0.0000000  )
        13           C   tau(  13) = (   0.6666660   0.0000000   0.0000000  )
        14           C   tau(  14) = (   0.6666660   0.1924499   0.0000000  )
        15           C   tau(  15) = (   0.4999995   0.2886748   0.0000000  )
        16           C   tau(  16) = (   0.4999995   0.4811247   0.0000000  )
        17           C   tau(  17) = (   0.3333330   0.5773496   0.0000000  )
        18           C   tau(  18) = (   0.3333330   0.7697995   0.0000000  )

     number of k points=     4  Marzari-Vanderbilt smearing, width (Ry)=  0.0010
                       cart. coord. in units 2pi/alat
        k(    1) = (   0.0000000   0.0000000   0.0000000), wk =   0.0625000
        k(    2) = (   0.0000000   0.2886751   0.0000000), wk =   0.3750000
        k(    3) = (   0.0000000  -0.5773503   0.0000000), wk =   0.1875000
        k(    4) = (   0.2500000   0.4330127   0.0000000), wk =   0.3750000

     Check: negative core charge=   -0.000002

     Initial potential from superposition of free atoms

     starting charge   85.99904, renormalised to   86.00000

     negative rho (up, down):  2.337E-04 4.511E-02

Carrying out rVV10 run using the following parameters:
Nqs =      20    Nr_points =    1024   r_max =   100.000
b_value =  6.30000    beta =  0.00901
     q_mesh =  0.00010000  0.00030000  0.00058939  0.00100810
               0.00161396  0.00249058  0.00375900  0.00559430
               0.00824984  0.01209221  0.01765183  0.02569619
               0.03733578  0.05417739  0.07854596  0.11380545
               0.16482331  0.23864234  0.34545298  0.50000000

Gradients computed in Reciprocal space

     Starting wfcs are   78 randomized atomic wfcs

     Self-consistent Calculation

     iteration #  1     ecut=    70.00 Ry     beta= 0.20
     Davidson diagonalization with overlap
     ethr =  1.00E-02,  avg # of iterations =  2.8

[...]

     total energy              =    -547.43096698 Ry
     Harris-Foulkes estimate   =    -548.13708325 Ry
     estimated scf accuracy    <       9.65422599 Ry

     total magnetization       =     6.00 Bohr mag/cell
     absolute magnetization    =     6.07 Bohr mag/cell

[...]

     Magnetic moment per site:
     atom:    1    charge:    1.7077    magn:    0.0015    constr:    0.0000
     atom:    2    charge:    1.7115    magn:   -0.0004    constr:    0.0000
     atom:    3    charge:    1.7196    magn:    0.0010    constr:    0.0000
     atom:    4    charge:    1.7115    magn:   -0.0004    constr:    0.0000
     atom:    5    charge:    1.7077    magn:    0.0015    constr:    0.0000
     atom:    6    charge:    1.7188    magn:   -0.0004    constr:    0.0000
     atom:    7    charge:    1.7077    magn:    0.0015    constr:    0.0000
     atom:    8    charge:    1.7115    magn:   -0.0004    constr:    0.0000
     atom:    9    charge:    1.8176    magn:    0.0086    constr:    0.0000
     atom:   10    charge:   13.4037    magn:    0.0302    constr:    0.0000
     atom:   11    charge:    1.8176    magn:    0.0086    constr:    0.0000
     atom:   12    charge:    1.7115    magn:   -0.0004    constr:    0.0000
     atom:   13    charge:    1.7196    magn:    0.0010    constr:    0.0000
     atom:   14    charge:    1.7112    magn:   -0.0004    constr:    0.0000
     atom:   15    charge:    1.7196    magn:    0.0010    constr:    0.0000
     atom:   16    charge:    1.7115    magn:   -0.0004    constr:    0.0000
     atom:   17    charge:    1.8176    magn:    0.0086    constr:    0.0000
     atom:   18    charge:    1.7115    magn:   -0.0004    constr:    0.0000

     End of self-consistent calculation

 ------ SPIN UP ------------

          k = 0.0000 0.0000 0.0000 ( 31593 PWs)   bands (ev):

  -107.6747 -68.8432 -68.8432 -66.7593 -19.6944 -17.3965 -17.3963 -17.2223
   -17.2221 -17.1188 -16.0538 -13.3059 -13.3058 -13.1124 -11.7643 -11.3401
   -11.3400 -10.5216 -10.5215  -9.9869  -9.3509  -9.3509  -7.9824  -7.9064
    -7.9064  -7.7832  -7.4268  -7.4266  -6.6436  -6.1453  -5.8927  -5.8927
    -4.8811  -4.8810  -4.7699  -4.4298  -4.4298  -3.8539  -3.7720  -3.7719
    -3.7296  -0.3102   0.2137   0.2138   0.8152   0.8155   1.0437   2.6327
     4.1947   4.6056   4.6057   4.7186

[...]

 ------ SPIN DOWN ----------

[...]

     the Fermi energy is    -0.3032 ev

!    total energy              =    -550.64874653 Ry
     Harris-Foulkes estimate   =    -550.64874652 Ry
     estimated scf accuracy    <          8.1E-10 Ry

     The total energy is the sum of the following terms:

     one-electron contribution =   -1521.66111006 Ry
     hartree contribution      =     773.68326191 Ry
     xc contribution           =    -114.60706957 Ry
     ewald contribution        =     311.93618482 Ry
     smearing contrib. (-TS)   =      -0.00001363 Ry

[...]

     convergence has been achieved in  31 iterations

[...]

     Forces acting on atoms (cartesian axes, Ry/au):

     atom    1 type  1   force =     0.02530794   -0.01461155   -0.00000000
     atom    2 type  1   force =    -0.03524773    0.01173353   -0.00000000
     atom    3 type  1   force =    -0.01372684   -0.00792519    0.00000000
     atom    4 type  1   force =    -0.00746233   -0.03639219    0.00000000
     atom    5 type  1   force =    -0.00000000    0.02922310    0.00000000
     atom    6 type  1   force =     0.00000000    0.00000000    0.00000000
     atom    7 type  1   force =    -0.02530794   -0.01461155    0.00000000
     atom    8 type  1   force =     0.03524773    0.01173353    0.00000000
     atom    9 type  1   force =     0.00000000   -0.76529604    0.00000000
     atom   10 type  2   force =    -0.00000000   -0.00000000    0.00000000
     atom   11 type  1   force =    -0.66276581    0.38264802   -0.00000000
     atom   12 type  1   force =     0.02778540    0.02465866    0.00000000
     atom   13 type  1   force =     0.00000000    0.01585039    0.00000000
     atom   14 type  1   force =    -0.00000000    0.00000000    0.00000000
     atom   15 type  1   force =     0.01372684   -0.00792519    0.00000000
     atom   16 type  1   force =     0.00746233   -0.03639219    0.00000000
     atom   17 type  1   force =     0.66276581    0.38264802    0.00000000
     atom   18 type  1   force =    -0.02778540    0.02465866    0.00000000

     Total force =     1.329899     Total SCF correction =     0.000060

     BFGS Geometry Optimization

     number of scf cycles    =   1
     number of bfgs steps    =   0

     energy   new            =    -550.6487465276 Ry

     new trust radius        =       0.5000000000 bohr
     new conv_thr            =       0.0000000010 Ry

ATOMIC_POSITIONS (angstrom)
C        0.008749808  -0.005051704  -0.000000000
C       -0.012186326   1.427396765  -0.000000000
C       -1.237394505   2.132270127   0.000000000
C       -1.235228654   3.545768216   0.000000000
C       -2.465297350   4.280123674   0.000000000
C       -2.465297350   5.693360355   0.000000000
C        2.456547542  -0.005051704   0.000000000
C        2.477483676   1.427396765   0.000000000
C        1.232648675   1.870421529   0.000000000
Ni       1.232648675   3.558350222   0.000000000
C       -0.229140453   4.402314568  -0.000000000
C        0.009606347   5.701885685   0.000000000
C        4.930594700   0.005480013   0.000000000
C        4.930594700   1.423340089   0.000000000
C        3.702691855   2.132270127   0.000000000
C        3.700526004   3.545768216   0.000000000
C        2.694437803   4.402314568   0.000000000
C        2.455691003   5.701885685   0.000000000

     Writing output data file gr-niq-3x3.save/
     NEW-OLD atomic charge density approx. for the potential

[...]

     energy   old            =    -550.6487465276 Ry
     energy   new            =    -551.0726972578 Ry

     CASE: energy  _new < energy  _old

[...]

     Threshold (ethr) on eigenvalues was too large:
     Diagonalizing with lowered threshold

     Davidson diagonalization with overlap
     ethr =  2.60E-08,  avg # of iterations =  2.2

[...]

     number of scf cycles    =   6
     number of bfgs steps    =   5

     energy   old            =    -551.1118561431 Ry
     energy   new            =    -551.1118823465 Ry

     CASE: energy  _new < energy  _old

     new trust radius        =       0.0011720052 bohr
     new conv_thr            =            1.0E-11 Ry

ATOMIC_POSITIONS (angstrom)
C        0.008043862  -0.004644126  -0.000000000
C       -0.036422731   1.391742333  -0.000000000
C       -1.247549856   2.126406932   0.000000000
C       -1.278224500   3.542606090  -0.000000000
C       -2.465297350   4.279308517   0.000000000
C       -2.465297350   5.693360355   0.000000000
C        2.457253488  -0.004644126   0.000000000
C        2.501720081   1.391742333   0.000000000
C        1.232648675   1.893072151   0.000000000
Ni       1.232648675   3.558350222   0.000000000
C       -0.209524439   4.390989257   0.000000000
C       -0.009153094   5.740702244   0.000000000
C        4.930594700   0.017206402   0.000000000
C        4.930594700   1.423340089   0.000000000
C        3.712847206   2.126406932   0.000000000
C        3.743521850   3.542606090  -0.000000000
C        2.674821789   4.390989257   0.000000000
C        2.474450444   5.740702244  -0.000000000

     Writing output data file gr-niq-3x3.save/
     NEW-OLD atomic charge density approx. for the potential

     Check: negative core charge=   -0.000002

[...]

     Self-consistent Calculation

[...]

     Threshold (ethr) on eigenvalues was too large:
     Diagonalizing with lowered threshold

     Davidson diagonalization with overlap
     ethr =  6.00E-09,  avg # of iterations =  2.8

[...]

     total energy              =    -551.11188517 Ry
     Harris-Foulkes estimate   =    -551.11188517 Ry
     estimated scf accuracy    <          1.4E-11 Ry

[...]

     iteration # 11     ecut=    70.00 Ry     beta= 0.20
     Davidson diagonalization with overlap
     ethr =  1.00E-13,  avg # of iterations =  2.0

[...]

     Magnetic moment per site:
     atom:    1    charge:    1.7446    magn:    0.0009    constr:    0.0000
     atom:    2    charge:    1.7568    magn:    0.0000    constr:    0.0000
     atom:    3    charge:    1.7325    magn:    0.0009    constr:    0.0000
     atom:    4    charge:    1.7568    magn:    0.0000    constr:    0.0000
     atom:    5    charge:    1.7446    magn:    0.0009    constr:    0.0000
     atom:    6    charge:    1.7354    magn:   -0.0003    constr:    0.0000
     atom:    7    charge:    1.7446    magn:    0.0009    constr:    0.0000
     atom:    8    charge:    1.7567    magn:    0.0000    constr:    0.0000
     atom:    9    charge:    1.6263    magn:    0.0085    constr:    0.0000
     atom:   10    charge:   13.3222    magn:    0.0404    constr:    0.0000
     atom:   11    charge:    1.6263    magn:    0.0085    constr:    0.0000
     atom:   12    charge:    1.7568    magn:    0.0000    constr:    0.0000
     atom:   13    charge:    1.7325    magn:    0.0009    constr:    0.0000
     atom:   14    charge:    1.7358    magn:   -0.0001    constr:    0.0000
     atom:   15    charge:    1.7325    magn:    0.0009    constr:    0.0000
     atom:   16    charge:    1.7567    magn:    0.0000    constr:    0.0000
     atom:   17    charge:    1.6263    magn:    0.0085    constr:    0.0000
     atom:   18    charge:    1.7568    magn:    0.0000    constr:    0.0000

     End of self-consistent calculation

 ------ SPIN UP ------------

[...]

 ------ SPIN DOWN ----------

[...]

          k = 0.2500 0.4330 0.0000 ( 31601 PWs)   bands (ev):

  -105.2871 -66.1567 -66.1566 -64.6823 -19.6101 -19.0286 -18.5485 -17.1304
   -16.6493 -15.6844 -15.4493 -14.7411 -13.9157 -13.2351 -12.8627 -11.7202
   -11.0972  -9.9001  -9.5557  -8.9955  -8.6556  -8.2300  -7.8989  -7.7287
    -7.5344  -6.9924  -6.9103  -6.6862  -6.4171  -6.2231  -5.5701  -5.1229
    -4.9429  -4.3558  -4.2518  -4.0161  -3.9827  -3.2631  -2.9673  -2.2366
    -2.1754  -1.8079  -0.9291  -0.1176   0.3166   1.6983   1.9396   2.5187
     3.2647   3.3119   4.1047   4.1952

     the Fermi energy is    -0.3898 ev

!    total energy              =    -551.11188517 Ry
     Harris-Foulkes estimate   =    -551.11188517 Ry
     estimated scf accuracy    <          1.5E-12 Ry

     The total energy is the sum of the following terms:

     one-electron contribution =   -1489.80683163 Ry
     hartree contribution      =     759.15673351 Ry
     xc contribution           =    -114.65410684 Ry
     ewald contribution        =     294.19234273 Ry
     smearing contrib. (-TS)   =      -0.00002293 Ry

     total magnetization       =     0.12 Bohr mag/cell
     absolute magnetization    =     0.14 Bohr mag/cell

     convergence has been achieved in  11 iterations

     negative rho (up, down):  7.316E-04 5.011E-04

     Forces acting on atoms (cartesian axes, Ry/au):

     atom    1 type  1   force =    -0.00079155    0.00045700    0.00000000
     atom    2 type  1   force =     0.00076645   -0.00004326    0.00000000
     atom    3 type  1   force =     0.00000244    0.00000141    0.00000000
     atom    4 type  1   force =     0.00034576    0.00068539   -0.00000000
     atom    5 type  1   force =     0.00000000   -0.00091400    0.00000000
     atom    6 type  1   force =     0.00000000    0.00000000    0.00000000
     atom    7 type  1   force =     0.00079155    0.00045700    0.00000000
     atom    8 type  1   force =    -0.00076645   -0.00004326   -0.00000000
     atom    9 type  1   force =     0.00000000   -0.00035742    0.00000000
     atom   10 type  2   force =    -0.00000000    0.00000000    0.00000000
     atom   11 type  1   force =    -0.00030954    0.00017871    0.00000000
     atom   12 type  1   force =    -0.00042069   -0.00064213    0.00000000
     atom   13 type  1   force =     0.00000000   -0.00000282    0.00000000
     atom   14 type  1   force =    -0.00000000    0.00000000    0.00000000
     atom   15 type  1   force =    -0.00000244    0.00000141   -0.00000000
     atom   16 type  1   force =    -0.00034576    0.00068539   -0.00000000
     atom   17 type  1   force =     0.00030954    0.00017871    0.00000000
     atom   18 type  1   force =     0.00042069   -0.00064213    0.00000000

     Total force =     0.002535     Total SCF correction =     0.000001

     bfgs converged in   7 scf cycles and   6 bfgs steps
     (criteria: energy <  1.0E-04 Ry, force <  1.0E-03 Ry/Bohr)

     End of BFGS Geometry Optimization

     Final energy   =    -551.1118851686 Ry
Begin final coordinates

ATOMIC_POSITIONS (angstrom)
C        0.008043862  -0.004644126  -0.000000000
C       -0.036422731   1.391742333  -0.000000000
C       -1.247549856   2.126406932   0.000000000
C       -1.278224500   3.542606090  -0.000000000
C       -2.465297350   4.279308517   0.000000000
C       -2.465297350   5.693360355   0.000000000
C        2.457253488  -0.004644126   0.000000000
C        2.501720081   1.391742333   0.000000000
C        1.232648675   1.893072151   0.000000000
Ni       1.232648675   3.558350222   0.000000000
C       -0.209524439   4.390989257   0.000000000
C       -0.009153094   5.740702244   0.000000000
C        4.930594700   0.017206402   0.000000000
C        4.930594700   1.423340089   0.000000000
C        3.712847206   2.126406932   0.000000000
C        3.743521850   3.542606090  -0.000000000
C        2.674821789   4.390989257   0.000000000
C        2.474450444   5.740702244  -0.000000000
End final coordinates

     Writing output data file gr-niq-3x3.save/

     General routines

     Parallel routines

   This run was terminated on:   4:22:34  15Sep2023

   JOB DONE.