     Program PWSCF v.6.4.1 starts on 15Sep2023 at  0:52: 5

     R & G space division:  proc/nbgrp/npool/nimage =       6
     Reading input from vanadio.in

     Current dimensions of program PWSCF are:
     Max number of different atomic species (ntypx) = 10
     Max number of k-points (npk) =  40000
     Max angular momentum in pseudopotentials (lmaxx) =  3

     IMPORTANT: XC functional enforced from input :
     Exchange-correlation      = RVV10 ( 1  4 13  4 3 0)
     Any further DFT definition will be discarded
     Please, verify this is what you really want

               file V.pbe-spnl-rrkjus_psl.1.0.0.UPF: wavefunction(s)  3P 3D renormalized

     Subspace diagonalization in iterative solution of the eigenvalue problem:
     a serial algorithm will be used

     bravais-lattice index     =            4
     lattice parameter (alat)  =      13.9762  a.u.
     unit-cell volume          =    3196.7546 (a.u.)^3
     number of atoms/cell      =           18
     number of atomic types    =            2
     number of electrons       =        81.00
     number of Kohn-Sham states=           49
     kinetic-energy cutoff     =      70.0000  Ry
     charge density cutoff     =     490.0000  Ry
     convergence threshold     =      1.0E-09
     mixing beta               =       0.2000
     number of iterations used =            8  plain     mixing
     Exchange-correlation      = RVV10 ( 1  4 13  4 3 0)
     nstep                     =           50

     celldm(1)=  13.976226  celldm(2)=   0.000000  celldm(3)=   1.352100
     celldm(4)=   0.000000  celldm(5)=   0.000000  celldm(6)=   0.000000

     crystal axes: (cart. coord. in units of alat)
               a(1) = (   1.000000   0.000000   0.000000 )
               a(2) = (  -0.500000   0.866025   0.000000 )
               a(3) = (   0.000000   0.000000   1.352100 )

     reciprocal axes: (cart. coord. in units 2 pi/alat)
               b(1) = (  1.000000  0.577350 -0.000000 )
               b(2) = (  0.000000  1.154701  0.000000 )
               b(3) = (  0.000000 -0.000000  0.739590 )

     PseudoPot. # 1 for C  read from file:
     /home/cristian/Escritorio/Proyecto_Grafeno/pseudopotenciales/C.pbe-n-rrkjus_psl.1.0.0.UPF
     MD5 check sum: 1fdd950c42eb37d8afe3dd2f8d12311e
     Pseudo is Ultrasoft + core correction, Zval =  4.0
     Generated using "atomic" code by A. Dal Corso v.6.3MaX
     Using radial grid of 1073 points,  4 beta functions with:
                l(1) =   0
                l(2) =   0
                l(3) =   1
                l(4) =   1
     Q(r) pseudized with 0 coefficients

     PseudoPot. # 2 for V  read from file:
     /home/cristian/Escritorio/Proyecto_Grafeno/pseudopotenciales/V.pbe-spnl-rrkjus_psl.1.0.0.UPF
     MD5 check sum: 79b3eb63147daf0b665d9f1bcc691206
     Pseudo is Ultrasoft + core correction, Zval = 13.0
     Generated using "atomic" code by A. Dal Corso v.6.2.2
     Using radial grid of 1181 points,  6 beta functions with:
                l(1) =   0
                l(2) =   0
                l(3) =   1
                l(4) =   1
                l(5) =   2
                l(6) =   2
     Q(r) pseudized with 0 coefficients

     vdW kernel table read from file rVV10_kernel_table
     MD5 check sum: b8e2538accc0c0b3206b45ba4daaba6c

     atomic species   valence    mass     pseudopotential
        C              4.00    12.01070     C ( 1.00)
        V             13.00    50.94150     V ( 1.00)

     Starting magnetic structure
     atomic species   magnetization
        C            0.000
        V            0.300

     12 Sym. Ops. (no inversion) found ( 8 have fractional translation)

   Cartesian axes

     site n.     atom                  positions (alat units)
         1           C   tau(   1) = (   0.0000000   0.0000000   0.0000000  )
         2           C   tau(   2) = (   0.0000000   0.1924499   0.0000000  )
         3           C   tau(   3) = (  -0.1666665   0.2886748   0.0000000  )
         4           C   tau(   4) = (  -0.1666665   0.4811247   0.0000000  )
         5           C   tau(   5) = (  -0.3333330   0.5773496   0.0000000  )
         6           C   tau(   6) = (  -0.3333330   0.7697995   0.0000000  )
         7           C   tau(   7) = (   0.3333330   0.0000000   0.0000000  )
         8           C   tau(   8) = (   0.3333330   0.1924499   0.0000000  )
         9           C   tau(   9) = (   0.1666665   0.2886748   0.0000000  )
        10           V   tau(  10) = (   0.1666665   0.4811247   0.0000000  )
        11           C   tau(  11) = (   0.0000000   0.5773496   0.0000000  )
        12           C   tau(  12) = (   0.0000000   0.7697995   0.0000000  )
        13           C   tau(  13) = (   0.6666660   0.0000000   0.0000000  )
        14           C   tau(  14) = (   0.6666660   0.1924499   0.0000000  )
        15           C   tau(  15) = (   0.4999995   0.2886748   0.0000000  )
        16           C   tau(  16) = (   0.4999995   0.4811247   0.0000000  )
        17           C   tau(  17) = (   0.3333330   0.5773496   0.0000000  )
        18           C   tau(  18) = (   0.3333330   0.7697995   0.0000000  )

     number of k points=     4  Marzari-Vanderbilt smearing, width (Ry)=  0.0010
                       cart. coord. in units 2pi/alat
        k(    1) = (   0.0000000   0.0000000   0.0000000), wk =   0.0625000
        k(    2) = (   0.0000000   0.2886751   0.0000000), wk =   0.3750000
        k(    3) = (   0.0000000  -0.5773503   0.0000000), wk =   0.1875000
        k(    4) = (   0.2500000   0.4330127   0.0000000), wk =   0.3750000

     Check: negative core charge=   -0.000002

     Initial potential from superposition of free atoms

     starting charge   80.99838, renormalised to   81.00000

     negative rho (up, down):  1.263E-04 1.235E-02

Carrying out rVV10 run using the following parameters:
Nqs =      20    Nr_points =    1024   r_max =   100.000
b_value =  6.30000    beta =  0.00901
     q_mesh =  0.00010000  0.00030000  0.00058939  0.00100810
               0.00161396  0.00249058  0.00375900  0.00559430
               0.00824984  0.01209221  0.01765183  0.02569619
               0.03733578  0.05417739  0.07854596  0.11380545
               0.16482331  0.23864234  0.34545298  0.50000000

Gradients computed in Reciprocal space

     Starting wfcs are   78 randomized atomic wfcs

     Self-consistent Calculation

     iteration #  1     ecut=    70.00 Ry     beta= 0.20
     Davidson diagonalization with overlap
     ethr =  1.00E-02,  avg # of iterations =  3.0

[...]

     total energy              =    -356.30954333 Ry
     Harris-Foulkes estimate   =    -357.30009329 Ry
     estimated scf accuracy    <       3.92659944 Ry

     total magnetization       =     1.00 Bohr mag/cell
     absolute magnetization    =     1.87 Bohr mag/cell

[...]

     Magnetic moment per site:
     atom:    1    charge:    1.7184    magn:   -0.0178    constr:    0.0000
     atom:    2    charge:    1.7115    magn:    0.0562    constr:    0.0000
     atom:    3    charge:    1.7265    magn:   -0.0126    constr:    0.0000
     atom:    4    charge:    1.7115    magn:    0.0562    constr:    0.0000
     atom:    5    charge:    1.7184    magn:   -0.0178    constr:    0.0000
     atom:    6    charge:    1.7112    magn:    0.0406    constr:    0.0000
     atom:    7    charge:    1.7184    magn:   -0.0178    constr:    0.0000
     atom:    8    charge:    1.7115    magn:    0.0562    constr:    0.0000
     atom:    9    charge:    1.9136    magn:   -0.0051    constr:    0.0000
     atom:   10    charge:    7.8636    magn:    0.1065    constr:    0.0000
     atom:   11    charge:    1.9136    magn:   -0.0051    constr:    0.0000
     atom:   12    charge:    1.7115    magn:    0.0562    constr:    0.0000
     atom:   13    charge:    1.7265    magn:   -0.0126    constr:    0.0000
     atom:   14    charge:    1.7094    magn:    0.0106    constr:    0.0000
     atom:   15    charge:    1.7265    magn:   -0.0126    constr:    0.0000
     atom:   16    charge:    1.7115    magn:    0.0562    constr:    0.0000
     atom:   17    charge:    1.9136    magn:   -0.0051    constr:    0.0000
     atom:   18    charge:    1.7115    magn:    0.0562    constr:    0.0000

     End of self-consistent calculation

 ------ SPIN UP ------------

          k = 0.0000 0.0000 0.0000 ( 31593 PWs)   bands (ev):

   -62.3889 -37.4832 -37.4832 -36.1524 -19.1228 -16.8517 -16.8516 -16.7678
   -16.4103 -16.4102 -14.7530 -12.6205 -12.2355 -12.2355 -10.8682 -10.2964
   -10.2963  -9.8559  -9.8559  -9.4975  -8.1016  -8.1015  -7.3782  -5.9354
    -5.9354  -5.8894  -5.6564  -5.4859  -5.4858  -4.6169  -4.6168  -4.5139
    -3.9047  -3.6587  -3.6586  -2.8262  -2.1484  -2.1484  -1.1996  -1.1995
    -0.1929   1.0976   1.7428   2.4158   2.4158   2.9956   4.0806   4.8929
     5.2459

[...]

 ------ SPIN DOWN ----------

[...]

     the Fermi energy is     0.1742 ev

!    total energy              =    -356.12208185 Ry
     Harris-Foulkes estimate   =    -356.12208084 Ry
     estimated scf accuracy    <          4.5E-10 Ry

     The total energy is the sum of the following terms:

     one-electron contribution =   -1139.70150183 Ry
     hartree contribution      =     586.79512737 Ry
     xc contribution           =    -101.55391849 Ry
     ewald contribution        =     298.33827291 Ry
     smearing contrib. (-TS)   =      -0.00006181 Ry

[...]

     convergence has been achieved in  37 iterations

[...]

     Forces acting on atoms (cartesian axes, Ry/au):

     atom    1 type  1   force =    -0.01257453    0.00725991   -0.00000000
     atom    2 type  1   force =    -0.03860771   -0.02568473   -0.00000000
     atom    3 type  1   force =    -0.02005875   -0.01158092    0.00000000
     atom    4 type  1   force =    -0.04154749   -0.02059289   -0.00000000
     atom    5 type  1   force =     0.00000000   -0.01451982    0.00000000
     atom    6 type  1   force =     0.00000000    0.00000000    0.00000000
     atom    7 type  1   force =     0.01257453    0.00725991    0.00000000
     atom    8 type  1   force =     0.03860771   -0.02568473   -0.00000000
     atom    9 type  1   force =     0.00000000   -0.88755098    0.00000000
     atom   10 type  2   force =     0.00000000   -0.00000000    0.00000000
     atom   11 type  1   force =    -0.76864169    0.44377549    0.00000000
     atom   12 type  1   force =    -0.00293978    0.04627762    0.00000000
     atom   13 type  1   force =     0.00000000    0.02316184    0.00000000
     atom   14 type  1   force =     0.00000000    0.00000000    0.00000000
     atom   15 type  1   force =     0.02005875   -0.01158092   -0.00000000
     atom   16 type  1   force =     0.04154749   -0.02059289   -0.00000000
     atom   17 type  1   force =     0.76864169    0.44377549    0.00000000
     atom   18 type  1   force =     0.00293978    0.04627762    0.00000000

     Total force =     1.542201     Total SCF correction =     0.000009

     BFGS Geometry Optimization

     number of scf cycles    =   1
     number of bfgs steps    =   0

     energy   new            =    -356.1220818475 Ry

     new trust radius        =       0.5000000000 bohr
     new conv_thr            =       0.0000000010 Ry

ATOMIC_POSITIONS (angstrom)
C       -0.003748605   0.002164258  -0.000000000
C       -0.011509377   1.415683190  -0.000000000
C       -1.238628405   2.131557734   0.000000000
C       -1.245034432   3.552211258  -0.000000000
C       -2.465297350   4.265691750   0.000000000
C       -2.465297350   5.693360355   0.000000000
C        2.469045955   0.002164258   0.000000000
C        2.476806727   1.415683190  -0.000000000
C        1.232648675   1.870421529   0.000000000
V        1.232648675   3.558350222   0.000000000
C       -0.229140453   4.402314568   0.000000000
C       -0.000876380   5.707156217   0.000000000
C        4.930594700   0.006904798   0.000000000
C        4.930594700   1.423340089   0.000000000
C        3.703925755   2.131557734  -0.000000000
C        3.710331782   3.552211258  -0.000000000
C        2.694437803   4.402314568   0.000000000
C        2.466173730   5.707156217   0.000000000

     Writing output data file gr-vanadio-3x3.save/
     NEW-OLD atomic charge density approx. for the potential

[...]

     energy   old            =    -356.1220818475 Ry
     energy   new            =    -356.7044809459 Ry

     CASE: energy  _new < energy  _old

[...]

     number of scf cycles    =   6
     number of bfgs steps    =   5

     energy   old            =    -356.7486129463 Ry
     energy   new            =    -356.7488534078 Ry

     CASE: energy  _new < energy  _old

     new trust radius        =       0.0033318523 bohr
     new conv_thr            =            2.4E-11 Ry

ATOMIC_POSITIONS (angstrom)
C       -0.000490769   0.000283346  -0.000000000
C       -0.039308933   1.373412453  -0.000000000
C       -1.246633782   2.126935828   0.000000000
C       -1.295541743   3.549271506  -0.000000000
C       -2.465297350   4.269453575   0.000000000
C       -2.465297350   5.693360355   0.000000000
C        2.465788119   0.000283346   0.000000000
C        2.504606283   1.373412453  -0.000000000
C        1.232648675   1.868634049   0.000000000
V        1.232648675   3.558350222   0.000000000
C       -0.230688456   4.403208308   0.000000000
C       -0.023584135   5.752366708   0.000000000
C        4.930594700   0.016148610   0.000000000
C        4.930594700   1.423340089   0.000000000
C        3.711931132   2.126935828  -0.000000000
C        3.760839093   3.549271506  -0.000000000
C        2.695985806   4.403208308   0.000000000
C        2.488881485   5.752366708   0.000000000

     Writing output data file gr-vanadio-3x3.save/
     NEW-OLD atomic charge density approx. for the potential

     Check: negative core charge=   -0.000002

[...]

     Self-consistent Calculation

[...]

     Threshold (ethr) on eigenvalues was too large:
     Diagonalizing with lowered threshold

     Davidson diagonalization with overlap
     ethr =  1.71E-08,  avg # of iterations =  2.8

[...]

     total energy              =    -356.74886797 Ry
     Harris-Foulkes estimate   =    -356.74886797 Ry
     estimated scf accuracy    <          5.1E-11 Ry

[...]

     iteration # 11     ecut=    70.00 Ry     beta= 0.20
     Davidson diagonalization with overlap
     ethr =  1.00E-13,  avg # of iterations =  3.8

[...]

     Magnetic moment per site:
     atom:    1    charge:    1.7747    magn:   -0.0122    constr:    0.0000
     atom:    2    charge:    1.7605    magn:    0.0302    constr:    0.0000
     atom:    3    charge:    1.7318    magn:   -0.0083    constr:    0.0000
     atom:    4    charge:    1.7605    magn:    0.0302    constr:    0.0000
     atom:    5    charge:    1.7747    magn:   -0.0122    constr:    0.0000
     atom:    6    charge:    1.7171    magn:    0.0288    constr:    0.0000
     atom:    7    charge:    1.7747    magn:   -0.0122    constr:    0.0000
     atom:    8    charge:    1.7605    magn:    0.0302    constr:    0.0000
     atom:    9    charge:    1.7158    magn:   -0.0116    constr:    0.0000
     atom:   10    charge:    7.6225    magn:    0.2602    constr:    0.0000
     atom:   11    charge:    1.7158    magn:   -0.0116    constr:    0.0000
     atom:   12    charge:    1.7605    magn:    0.0302    constr:    0.0000
     atom:   13    charge:    1.7318    magn:   -0.0083    constr:    0.0000
     atom:   14    charge:    1.7342    magn:    0.0068    constr:    0.0000
     atom:   15    charge:    1.7318    magn:   -0.0083    constr:    0.0000
     atom:   16    charge:    1.7605    magn:    0.0302    constr:    0.0000
     atom:   17    charge:    1.7158    magn:   -0.0116    constr:    0.0000
     atom:   18    charge:    1.7605    magn:    0.0302    constr:    0.0000

     End of self-consistent calculation

 ------ SPIN UP ------------

[...]

 ------ SPIN DOWN ----------

[...]

          k = 0.2500 0.4330 0.0000 ( 31601 PWs)   bands (ev):

   -63.0870 -37.1946 -37.1823 -37.1823 -18.9911 -18.4148 -17.8077 -16.3498
   -15.9546 -14.9905 -14.8185 -13.8954 -13.1937 -12.4426 -11.9887 -10.7301
   -10.3852  -9.2152  -8.5495  -8.2026  -7.8249  -7.3963  -7.0673  -7.0430
    -7.0144  -6.3732  -6.1238  -5.7866  -5.7856  -5.1219  -4.5491  -4.2779
    -3.5881  -2.9105  -2.4642  -2.3199  -2.1144  -1.5995  -0.9652  -0.2376
     0.5909   0.7829   0.8131   2.6094   3.1473   3.3807   3.8690   4.0400
     4.1024

     the Fermi energy is     0.3324 ev

!    total energy              =    -356.74886797 Ry
     Harris-Foulkes estimate   =    -356.74886797 Ry
     estimated scf accuracy    <          1.1E-11 Ry

     The total energy is the sum of the following terms:

     one-electron contribution =   -1117.30823080 Ry
     hartree contribution      =     575.10448802 Ry
     xc contribution           =    -101.27326058 Ry
     ewald contribution        =     286.72819826 Ry
     smearing contrib. (-TS)   =      -0.00006288 Ry

     total magnetization       =     0.88 Bohr mag/cell
     absolute magnetization    =     1.25 Bohr mag/cell

     convergence has been achieved in  11 iterations

     negative rho (up, down):  9.063E-03 3.523E-03

     Forces acting on atoms (cartesian axes, Ry/au):

     atom    1 type  1   force =    -0.00043391    0.00025052   -0.00000000
     atom    2 type  1   force =     0.00024970    0.00005356    0.00000000
     atom    3 type  1   force =     0.00080154    0.00046277    0.00000000
     atom    4 type  1   force =     0.00017123    0.00018947   -0.00000000
     atom    5 type  1   force =     0.00000000   -0.00050104    0.00000000
     atom    6 type  1   force =     0.00000000    0.00000000    0.00000000
     atom    7 type  1   force =     0.00043391    0.00025052    0.00000000
     atom    8 type  1   force =    -0.00024970    0.00005356    0.00000000
     atom    9 type  1   force =    -0.00000000   -0.00001557    0.00000000
     atom   10 type  2   force =     0.00000000   -0.00000000    0.00000000
     atom   11 type  1   force =    -0.00001349    0.00000779   -0.00000000
     atom   12 type  1   force =    -0.00007847   -0.00024303    0.00000000
     atom   13 type  1   force =     0.00000000   -0.00092554    0.00000000
     atom   14 type  1   force =     0.00000000    0.00000000    0.00000000
     atom   15 type  1   force =    -0.00080154    0.00046277    0.00000000
     atom   16 type  1   force =    -0.00017123    0.00018947   -0.00000000
     atom   17 type  1   force =     0.00001349    0.00000779    0.00000000
     atom   18 type  1   force =     0.00007847   -0.00024303    0.00000000

     Total force =     0.001927     Total SCF correction =     0.000006

     bfgs converged in   7 scf cycles and   6 bfgs steps
     (criteria: energy <  1.0E-04 Ry, force <  1.0E-03 Ry/Bohr)

     End of BFGS Geometry Optimization

     Final energy   =    -356.7488679686 Ry
Begin final coordinates

ATOMIC_POSITIONS (angstrom)
C       -0.000490769   0.000283346  -0.000000000
C       -0.039308933   1.373412453  -0.000000000
C       -1.246633782   2.126935828   0.000000000
C       -1.295541743   3.549271506  -0.000000000
C       -2.465297350   4.269453575   0.000000000
C       -2.465297350   5.693360355   0.000000000
C        2.465788119   0.000283346   0.000000000
C        2.504606283   1.373412453  -0.000000000
C        1.232648675   1.868634049   0.000000000
V        1.232648675   3.558350222   0.000000000
C       -0.230688456   4.403208308   0.000000000
C       -0.023584135   5.752366708   0.000000000
C        4.930594700   0.016148610   0.000000000
C        4.930594700   1.423340089   0.000000000
C        3.711931132   2.126935828  -0.000000000
C        3.760839093   3.549271506  -0.000000000
C        2.695985806   4.403208308   0.000000000
C        2.488881485   5.752366708   0.000000000
End final coordinates

     Writing output data file gr-vanadio-3x3.save/

     General routines

     Parallel routines

   This run was terminated on:   1:52:10  15Sep2023

   JOB DONE.