     Program PWSCF v.6.4.1 starts on 18Aug2022 at 11:38:55

     R & G space division:  proc/nbgrp/npool/nimage =       6
     Reading input from distance-4.5.in

     Current dimensions of program PWSCF are:
     Max number of different atomic species (ntypx) = 10
     Max number of k-points (npk) =  40000
     Max angular momentum in pseudopotentials (lmaxx) =  3

     IMPORTANT: XC functional enforced from input :
     Exchange-correlation      = RVV10 ( 1  4 13  4 3 0)
     Any further DFT definition will be discarded
     Please, verify this is what you really want

               file H.pbe-rrkjus.UPF: wavefunction(s)  1S renormalized
               file Cr.pbe-spn-rrkjus_psl.1.0.0.UPF: wavefunction(s)  3P renormalized

     Subspace diagonalization in iterative solution of the eigenvalue problem:
     a serial algorithm will be used

     bravais-lattice index     =            4
     lattice parameter (alat)  =      23.2937  a.u.
     unit-cell volume          =    8879.8548 (a.u.)^3
     number of atoms/cell      =           52
     number of atomic types    =            3
     number of electrons       =       212.00
     number of Kohn-Sham states=          127
     kinetic-energy cutoff     =      70.0000  Ry
     charge density cutoff     =     490.0000  Ry
     convergence threshold     =      1.0E-06
     mixing beta               =       0.7000
     number of iterations used =            8  plain     mixing
     Exchange-correlation      = RVV10 ( 1  4 13  4 3 0)

     celldm(1)=  23.293684  celldm(2)=   0.000000  celldm(3)=   0.811261
     celldm(4)=   0.000000  celldm(5)=   0.000000  celldm(6)=   0.000000

     crystal axes: (cart. coord. in units of alat)
               a(1) = (   1.000000   0.000000   0.000000 )
               a(2) = (  -0.500000   0.866025   0.000000 )
               a(3) = (   0.000000   0.000000   0.811261 )

     reciprocal axes: (cart. coord. in units 2 pi/alat)
               b(1) = (  1.000000  0.577350 -0.000000 )
               b(2) = (  0.000000  1.154701  0.000000 )
               b(3) = (  0.000000 -0.000000  1.232649 )

     PseudoPot. # 1 for H  read from file:
     /home/cristian/Escritorio/Proyecto_Grafeno/pseudopotenciales/H.pbe-rrkjus.UPF
     MD5 check sum: 7cc9d459525c9a0585f487a71c3c9563
     Pseudo is Ultrasoft, Zval =  1.0
     Generated by new atomic code, or converted to UPF format
     Using radial grid of 1061 points,  2 beta functions with:
                l(1) =   0
                l(2) =   0
     Q(r) pseudized with 0 coefficients

     PseudoPot. # 2 for C  read from file:
     /home/cristian/Escritorio/Proyecto_Grafeno/pseudopotenciales/C.pbe-n-rrkjus_psl.1.0.0.UPF
     MD5 check sum: 1fdd950c42eb37d8afe3dd2f8d12311e
     Pseudo is Ultrasoft + core correction, Zval =  4.0
     Generated using "atomic" code by A. Dal Corso v.6.3MaX
     Using radial grid of 1073 points,  4 beta functions with:
                l(1) =   0
                l(2) =   0
                l(3) =   1
                l(4) =   1
     Q(r) pseudized with 0 coefficients

     PseudoPot. # 3 for Cr read from file:
     /home/cristian/Escritorio/Proyecto_Grafeno/pseudopotenciales/Cr.pbe-spn-rrkjus_psl.1.0.0.UPF
     MD5 check sum: 793d051e4f89dd1e3290b85340a92c0a
     Pseudo is Ultrasoft + core correction, Zval = 14.0
     Generated using "atomic" code by A. Dal Corso v.6.2.2
     Using radial grid of 1183 points,  6 beta functions with:
                l(1) =   0
                l(2) =   0
                l(3) =   1
                l(4) =   1
                l(5) =   2
                l(6) =   2
     Q(r) pseudized with 0 coefficients

     vdW kernel table read from file rVV10_kernel_table
     MD5 check sum: b8e2538accc0c0b3206b45ba4daaba6c

     atomic species   valence    mass     pseudopotential
        H              1.00     1.00794     H ( 1.00)
        C              4.00    12.01070     C ( 1.00)
        Cr            14.00    51.99610     Cr( 1.00)

     Starting magnetic structure
     atomic species   magnetization
        H            0.500
        C            0.300
        Cr           0.800

     No symmetry found

                                    s                        frac. trans.

      isym =  1     identity

 cryst.   s( 1) = (     1          0          0      )
                  (     0          1          0      )
                  (     0          0          1      )

 cart.    s( 1) = (  1.0000000  0.0000000  0.0000000 )
                  (  0.0000000  1.0000000  0.0000000 )
                  (  0.0000000  0.0000000  1.0000000 )

     point group C_1 (1)
     there are  1 classes
     the character table:

       E
A      1.00

     the symmetry operations in each class and the name of the first element:

     E        1
          identity

   Cartesian axes

     site n.     atom                  positions (alat units)
         1           H   tau(   1) = (   0.2500000   0.4907477   0.3650675  )
         2           H   tau(   2) = (   0.2500000   0.4907477   0.4260802  )
         3           C   tau(   3) = (   0.0000000   0.0000000   0.0000000  )
         4           C   tau(   4) = (   0.0000000   0.1154701   0.0000000  )
         5           C   tau(   5) = (  -0.1000000   0.1732051   0.0000000  )
         6           C   tau(   6) = (  -0.1000000   0.2886751   0.0000000  )
         7           C   tau(   7) = (  -0.2000000   0.3464102   0.0000000  )
         8           C   tau(   8) = (  -0.2000000   0.4618802   0.0000000  )
         9           C   tau(   9) = (  -0.3000000   0.5196152   0.0000000  )
        10           C   tau(  10) = (  -0.3000000   0.6350853   0.0000000  )
        11           C   tau(  11) = (  -0.4000000   0.6928203   0.0000000  )
        12           C   tau(  12) = (  -0.4000000   0.8082904   0.0000000  )
        13           C   tau(  13) = (   0.2000000   0.0000000   0.0000000  )
        14           C   tau(  14) = (   0.2000000   0.1154701   0.0000000  )
        15           C   tau(  15) = (   0.1000000   0.1732051   0.0000000  )
        16           C   tau(  16) = (   0.1000000   0.2886751   0.0000000  )
        17           C   tau(  17) = (   0.0000000   0.3464102   0.0000000  )
        18           C   tau(  18) = (   0.0000000   0.4618802   0.0000000  )
        19           C   tau(  19) = (  -0.1000000   0.5196152   0.0000000  )
        20           C   tau(  20) = (  -0.1000000   0.6350853   0.0000000  )
        21           C   tau(  21) = (  -0.2000000   0.6928203   0.0000000  )
        22           C   tau(  22) = (  -0.2000000   0.8082904   0.0000000  )
        23           C   tau(  23) = (   0.4000000   0.0000000   0.0000000  )
        24           C   tau(  24) = (   0.4000000   0.1154701   0.0000000  )
        25           C   tau(  25) = (   0.3000000   0.1732051   0.0000000  )
        26           C   tau(  26) = (   0.3000000   0.2886751   0.0000000  )
        27           C   tau(  27) = (   0.2000000   0.3464102   0.0000000  )
        28           Cr  tau(  28) = (   0.2000000   0.4618802   0.0000000  )
        29           C   tau(  29) = (   0.1000000   0.5196152   0.0000000  )
        30           C   tau(  30) = (   0.1000000   0.6350853   0.0000000  )
        31           C   tau(  31) = (   0.0000000   0.6928203   0.0000000  )
        32           C   tau(  32) = (   0.0000000   0.8082904   0.0000000  )
        33           C   tau(  33) = (   0.6000000   0.0000000   0.0000000  )
        34           C   tau(  34) = (   0.6000000   0.1154701   0.0000000  )
        35           C   tau(  35) = (   0.5000000   0.1732051   0.0000000  )
        36           C   tau(  36) = (   0.5000000   0.2886751   0.0000000  )
        37           C   tau(  37) = (   0.4000000   0.3464102   0.0000000  )
        38           C   tau(  38) = (   0.4000000   0.4618802   0.0000000  )
        39           C   tau(  39) = (   0.3000000   0.5196152   0.0000000  )
        40           C   tau(  40) = (   0.3000000   0.6350853   0.0000000  )
        41           C   tau(  41) = (   0.2000000   0.6928203   0.0000000  )
        42           C   tau(  42) = (   0.2000000   0.8082904   0.0000000  )
        43           C   tau(  43) = (   0.8000000   0.0000000   0.0000000  )
        44           C   tau(  44) = (   0.8000000   0.1154701   0.0000000  )
        45           C   tau(  45) = (   0.7000000   0.1732051   0.0000000  )
        46           C   tau(  46) = (   0.7000000   0.2886751   0.0000000  )
        47           C   tau(  47) = (   0.6000000   0.3464102   0.0000000  )
        48           C   tau(  48) = (   0.6000000   0.4618802   0.0000000  )
        49           C   tau(  49) = (   0.5000000   0.5196152   0.0000000  )
        50           C   tau(  50) = (   0.5000000   0.6350853   0.0000000  )
        51           C   tau(  51) = (   0.4000000   0.6928203   0.0000000  )
        52           C   tau(  52) = (   0.4000000   0.8082904   0.0000000  )

   Crystallographic axes

     site n.     atom                  positions (cryst. coord.)
         1           H   tau(   1) = (  0.5333333  0.5666667  0.4500000  )
         2           H   tau(   2) = (  0.5333333  0.5666667  0.5252072  )
         3           C   tau(   3) = (  0.0000000  0.0000000  0.0000000  )
         4           C   tau(   4) = (  0.0666667  0.1333333  0.0000000  )
         5           C   tau(   5) = (  0.0000000  0.2000000  0.0000000  )
         6           C   tau(   6) = (  0.0666667  0.3333333  0.0000000  )
         7           C   tau(   7) = (  0.0000000  0.4000000  0.0000000  )
         8           C   tau(   8) = (  0.0666667  0.5333333  0.0000000  )
         9           C   tau(   9) = (  0.0000000  0.6000000  0.0000000  )
        10           C   tau(  10) = (  0.0666667  0.7333333  0.0000000  )
        11           C   tau(  11) = (  0.0000000  0.8000000  0.0000000  )
        12           C   tau(  12) = (  0.0666667  0.9333333  0.0000000  )
        13           C   tau(  13) = (  0.2000000  0.0000000  0.0000000  )
        14           C   tau(  14) = (  0.2666667  0.1333333  0.0000000  )
        15           C   tau(  15) = (  0.2000000  0.2000000  0.0000000  )
        16           C   tau(  16) = (  0.2666667  0.3333333  0.0000000  )
        17           C   tau(  17) = (  0.2000000  0.4000000  0.0000000  )
        18           C   tau(  18) = (  0.2666667  0.5333333  0.0000000  )
        19           C   tau(  19) = (  0.2000000  0.6000000  0.0000000  )
        20           C   tau(  20) = (  0.2666667  0.7333333  0.0000000  )
        21           C   tau(  21) = (  0.2000000  0.8000000  0.0000000  )
        22           C   tau(  22) = (  0.2666667  0.9333333  0.0000000  )
        23           C   tau(  23) = (  0.4000000  0.0000000  0.0000000  )
        24           C   tau(  24) = (  0.4666667  0.1333333  0.0000000  )
        25           C   tau(  25) = (  0.4000000  0.2000000  0.0000000  )
        26           C   tau(  26) = (  0.4666667  0.3333333  0.0000000  )
        27           C   tau(  27) = (  0.4000000  0.4000000  0.0000000  )
        28           Cr  tau(  28) = (  0.4666667  0.5333333  0.0000000  )
        29           C   tau(  29) = (  0.4000000  0.6000000  0.0000000  )
[...]
        47           C   tau(  47) = (  0.8000000  0.4000000  0.0000000  )
        48           C   tau(  48) = (  0.8666667  0.5333333  0.0000000  )
        49           C   tau(  49) = (  0.8000000  0.6000000  0.0000000  )
        50           C   tau(  50) = (  0.8666667  0.7333333  0.0000000  )
        51           C   tau(  51) = (  0.8000000  0.8000000  0.0000000  )
        52           C   tau(  52) = (  0.8666667  0.9333333  0.0000000  )

     number of k points=     1  Marzari-Vanderbilt smearing, width (Ry)=  0.0010
                       cart. coord. in units 2pi/alat
        k(    1) = (   0.0000000   0.0000000   0.0000000), wk =   1.0000000

                       cryst. coord.
        k(    1) = (   0.0000000   0.0000000   0.0000000), wk =   1.0000000

     Check: negative core charge=   -0.000002

     Initial potential from superposition of free atoms

     starting charge  211.80478, renormalised to  212.00000

     negative rho (up, down):  4.314E-04 1.877E-02

Carrying out rVV10 run using the following parameters:
Nqs =      20    Nr_points =    1024   r_max =   100.000
b_value =  6.30000    beta =  0.00901
     q_mesh =  0.00010000  0.00030000  0.00058939  0.00100810
               0.00161396  0.00249058  0.00375900  0.00559430
               0.00824984  0.01209221  0.01765183  0.02569619
               0.03733578  0.05417739  0.07854596  0.11380545
               0.16482331  0.23864234  0.34545298  0.50000000

Gradients computed in Reciprocal space

     Starting wfcs are  208 randomized atomic wfcs

     Self-consistent Calculation

     iteration #  1     ecut=    70.00 Ry     beta= 0.70
     Davidson diagonalization with overlap
     ethr =  1.00E-02,  avg # of iterations =  2.5

[...]

     total energy              =    -784.65738232 Ry
     Harris-Foulkes estimate   =    -786.12280698 Ry
     estimated scf accuracy    <       9.65295260 Ry

     total magnetization       =     4.00 Bohr mag/cell
     absolute magnetization    =     5.43 Bohr mag/cell

[...]

     Magnetic moment per site:
     atom:    1    charge:    0.2115    magn:    0.0000    constr:    0.0000
     atom:    2    charge:    0.2111    magn:    0.0000    constr:    0.0000
     atom:    3    charge:    1.7175    magn:   -0.0131    constr:    0.0000
     atom:    4    charge:    1.7147    magn:    0.0182    constr:    0.0000
     atom:    5    charge:    1.7161    magn:   -0.0097    constr:    0.0000
     atom:    6    charge:    1.7126    magn:    0.0060    constr:    0.0000
     atom:    7    charge:    1.7163    magn:   -0.0097    constr:    0.0000
     atom:    8    charge:    1.7158    magn:    0.0182    constr:    0.0000
     atom:    9    charge:    1.7176    magn:   -0.0131    constr:    0.0000
     atom:   10    charge:    1.7175    magn:    0.0597    constr:    0.0000
     atom:   11    charge:    1.7182    magn:   -0.0186    constr:    0.0000
     atom:   12    charge:    1.7169    magn:    0.0597    constr:    0.0000
     atom:   13    charge:    1.7176    magn:   -0.0186    constr:    0.0000
     atom:   14    charge:    1.7152    magn:    0.0476    constr:    0.0000
     atom:   15    charge:    1.7135    magn:   -0.0161    constr:    0.0000
     atom:   16    charge:    1.7128    magn:    0.0636    constr:    0.0000
     atom:   17    charge:    1.7246    magn:   -0.0147    constr:    0.0000
     atom:   18    charge:    1.7147    magn:    0.0638    constr:    0.0000
     atom:   19    charge:    1.7148    magn:   -0.0161    constr:    0.0000
     atom:   20    charge:    1.7168    magn:    0.0475    constr:    0.0000
     atom:   21    charge:    1.7178    magn:   -0.0185    constr:    0.0000
     atom:   22    charge:    1.7159    magn:    0.0593    constr:    0.0000
     atom:   23    charge:    1.7166    magn:   -0.0131    constr:    0.0000
     atom:   24    charge:    1.7149    magn:    0.0183    constr:    0.0000
     atom:   25    charge:    1.7132    magn:   -0.0161    constr:    0.0000
     atom:   26    charge:    1.7112    magn:    0.0638    constr:    0.0000
     atom:   27    charge:    1.9050    magn:   -0.0323    constr:    0.0000
     atom:   28    charge:    8.9097    magn:    0.3563    constr:    0.0000
     atom:   29    charge:    1.9077    magn:   -0.0317    constr:    0.0000
     atom:   30    charge:    1.7135    magn:    0.0640    constr:    0.0000
     atom:   31    charge:    1.7148    magn:   -0.0161    constr:    0.0000
     atom:   32    charge:    1.7159    magn:    0.0182    constr:    0.0000
     atom:   33    charge:    1.7185    magn:   -0.0097    constr:    0.0000
     atom:   34    charge:    1.7151    magn:    0.0125    constr:    0.0000
     atom:   35    charge:    1.7180    magn:   -0.0097    constr:    0.0000
     atom:   36    charge:    1.7142    magn:    0.0060    constr:    0.0000
     atom:   37    charge:    1.7240    magn:   -0.0148    constr:    0.0000
     atom:   38    charge:    1.7138    magn:    0.0654    constr:    0.0000
     atom:   39    charge:    1.9067    magn:   -0.0278    constr:    0.0000
     atom:   40    charge:    1.7144    magn:    0.0654    constr:    0.0000
     atom:   41    charge:    1.7250    magn:   -0.0149    constr:    0.0000
     atom:   42    charge:    1.7144    magn:    0.0060    constr:    0.0000
     atom:   43    charge:    1.7181    magn:   -0.0098    constr:    0.0000
     atom:   44    charge:    1.7137    magn:    0.0126    constr:    0.0000
     atom:   45    charge:    1.7233    magn:   -0.0065    constr:    0.0000
     atom:   46    charge:    1.7139    magn:    0.0126    constr:    0.0000
     atom:   47    charge:    1.7177    magn:   -0.0098    constr:    0.0000
     atom:   48    charge:    1.7163    magn:    0.0184    constr:    0.0000
     atom:   49    charge:    1.7147    magn:   -0.0162    constr:    0.0000
     atom:   50    charge:    1.7164    magn:    0.0475    constr:    0.0000
     atom:   51    charge:    1.7150    magn:   -0.0161    constr:    0.0000
     atom:   52    charge:    1.7162    magn:    0.0184    constr:    0.0000

[...]

     iteration #135     ecut=    70.00 Ry     beta= 0.70
     Davidson diagonalization with overlap
     c_bands:  1 eigenvalues not converged
     ethr =  1.45E-07,  avg # of iterations = 13.0

[...]

     iteration #271     ecut=    70.00 Ry     beta= 0.70
     Davidson diagonalization with overlap
     c_bands:  1 eigenvalues not converged
     ethr =  1.45E-07,  avg # of iterations = 13.0

[...]

     total energy              =    -753.13182359 Ry
     Harris-Foulkes estimate   =    -753.13188448 Ry
     estimated scf accuracy    <       0.00000368 Ry

[...]

     iteration #295     ecut=    70.00 Ry     beta= 0.70
     Davidson diagonalization with overlap
     ethr =  8.92E-10,  avg # of iterations =  3.0

     negative rho (up, down):  2.680E-01 4.281E-01

     Magnetic moment per site:
     atom:    1    charge:    0.2103    magn:    0.0001    constr:    0.0000
     atom:    2    charge:    0.2099    magn:    0.0001    constr:    0.0000
     atom:    3    charge:    1.7180    magn:   -0.0003    constr:    0.0000
     atom:    4    charge:    1.7151    magn:   -0.0011    constr:    0.0000
     atom:    5    charge:    1.7182    magn:    0.0011    constr:    0.0000
     atom:    6    charge:    1.7140    magn:    0.0002    constr:    0.0000
     atom:    7    charge:    1.7183    magn:    0.0001    constr:    0.0000
     atom:    8    charge:    1.7153    magn:   -0.0007    constr:    0.0000
     atom:    9    charge:    1.7180    magn:    0.0001    constr:    0.0000
     atom:   10    charge:    1.7129    magn:    0.0015    constr:    0.0000
     atom:   11    charge:    1.7189    magn:   -0.0002    constr:    0.0000
     atom:   12    charge:    1.7129    magn:    0.0012    constr:    0.0000
     atom:   13    charge:    1.7189    magn:   -0.0000    constr:    0.0000
     atom:   14    charge:    1.7130    magn:    0.0013    constr:    0.0000
     atom:   15    charge:    1.7168    magn:   -0.0050    constr:    0.0000
     atom:   16    charge:    1.7003    magn:   -0.0238    constr:    0.0000
     atom:   17    charge:    1.7292    magn:    0.0006    constr:    0.0000
     atom:   18    charge:    1.7061    magn:   -0.0011    constr:    0.0000
     atom:   19    charge:    1.7175    magn:   -0.0076    constr:    0.0000
     atom:   20    charge:    1.7133    magn:    0.0019    constr:    0.0000
     atom:   21    charge:    1.7190    magn:   -0.0006    constr:    0.0000
     atom:   22    charge:    1.7134    magn:    0.0010    constr:    0.0000
     atom:   23    charge:    1.7179    magn:   -0.0000    constr:    0.0000
     atom:   24    charge:    1.7156    magn:    0.0003    constr:    0.0000
     atom:   25    charge:    1.7182    magn:    0.0019    constr:    0.0000
     atom:   26    charge:    1.7054    magn:    0.0003    constr:    0.0000
     atom:   27    charge:    1.9263    magn:   -0.0099    constr:    0.0000
     atom:   28    charge:    8.9683    magn:    0.5693    constr:    0.0000
     atom:   29    charge:    1.8833    magn:   -0.2531    constr:    0.0000
     atom:   30    charge:    1.7052    magn:   -0.0102    constr:    0.0000
     atom:   31    charge:    1.7170    magn:   -0.0095    constr:    0.0000
     atom:   32    charge:    1.7153    magn:   -0.0014    constr:    0.0000
     atom:   33    charge:    1.7183    magn:    0.0001    constr:    0.0000
     atom:   34    charge:    1.7135    magn:   -0.0004    constr:    0.0000
     atom:   35    charge:    1.7181    magn:    0.0013    constr:    0.0000
     atom:   36    charge:    1.7143    magn:   -0.0009    constr:    0.0000
     atom:   37    charge:    1.7283    magn:    0.0019    constr:    0.0000
     atom:   38    charge:    1.7069    magn:    0.0060    constr:    0.0000
     atom:   39    charge:    1.9148    magn:   -0.0823    constr:    0.0000
     atom:   40    charge:    1.7009    magn:   -0.0264    constr:    0.0000
     atom:   41    charge:    1.7288    magn:    0.0004    constr:    0.0000
     atom:   42    charge:    1.7141    magn:    0.0005    constr:    0.0000
     atom:   43    charge:    1.7181    magn:    0.0009    constr:    0.0000
     atom:   44    charge:    1.7134    magn:   -0.0002    constr:    0.0000
     atom:   45    charge:    1.7251    magn:    0.0039    constr:    0.0000
     atom:   46    charge:    1.7134    magn:   -0.0003    constr:    0.0000
     atom:   47    charge:    1.7180    magn:    0.0012    constr:    0.0000
     atom:   48    charge:    1.7155    magn:    0.0005    constr:    0.0000
     atom:   49    charge:    1.7183    magn:    0.0008    constr:    0.0000
     atom:   50    charge:    1.7135    magn:    0.0013    constr:    0.0000
     atom:   51    charge:    1.7164    magn:   -0.0079    constr:    0.0000
     atom:   52    charge:    1.7150    magn:   -0.0015    constr:    0.0000

     End of self-consistent calculation

 ------ SPIN UP ------------

          k = 0.0000 0.0000 0.0000 ( 87777 PWs)   bands (ev):

   -80.7620 -67.4482 -48.0093 -31.9178 -19.7444 -18.9146 -18.8829 -18.8495
   -18.8034 -18.7913 -18.2781 -17.0590 -17.0555 -17.0445 -16.9954 -16.8912
   -16.6148 -16.5543 -16.1975 -16.1919 -16.1027 -15.9097 -15.8338 -15.0880
   -14.0065 -13.9953 -13.9876 -13.9827 -13.9186 -13.6868 -13.2187 -13.0279
   -13.0261 -13.0173 -12.5866 -12.5731 -12.1731 -11.7389 -11.7263 -11.6371
   -11.2118 -11.1979 -10.1201  -9.3875  -9.3595  -9.3445  -9.2992  -9.2976
    -9.2163  -9.1981  -9.1882  -9.1769  -8.5453  -8.5427  -7.9531  -7.9451
    -7.9333  -7.8973  -7.7999  -7.3719  -7.3526  -6.9874  -6.9786  -6.9069
    -6.8169  -6.8077  -6.8072  -6.6732  -6.6655  -6.6224  -6.6060  -6.5673
    -6.5569  -6.5212  -6.5088  -6.5049  -6.4522  -6.3470  -5.3644  -5.3537
    -5.0096  -4.9980  -4.9877  -4.9831  -4.9527  -4.8763  -4.7225  -4.7155
    -4.7042  -4.3318  -3.9844  -3.9731  -3.8544  -3.8533  -3.7604  -3.6120
    -3.6040  -2.9163  -2.1301  -2.1112  -1.8221  -1.7992  -1.7926  -1.4454
    -0.5168   0.1058   0.3316   0.3659   0.7245   0.9371   0.9596   0.9655
     0.9709   1.6897   2.0823   2.3063   2.3237   2.3494   2.5882   2.6506
     2.7906   2.8012   2.8593   2.9928   3.0386   3.0863   3.5449

     occupation numbers
     1.0000   1.0000   1.0000   1.0000   1.0000   1.0000   1.0000   1.0000
     1.0000   1.0000   1.0000   1.0000   1.0000   1.0000   1.0000   1.0000
     1.0000   1.0000   1.0000   1.0000   1.0000   1.0000   1.0000   1.0000
     1.0000   1.0000   1.0000   1.0000   1.0000   1.0000   1.0000   1.0000
     1.0000   1.0000   1.0000   1.0000   1.0000   1.0000   1.0000   1.0000
     1.0000   1.0000   1.0000   1.0000   1.0000   1.0000   1.0000   1.0000
     1.0000   1.0000   1.0000   1.0000   1.0000   1.0000   1.0000   1.0000
     1.0000   1.0000   1.0000   1.0000   1.0000   1.0000   1.0000   1.0000
     1.0000   1.0000   1.0000   1.0000   1.0000   1.0000   1.0000   1.0000
     1.0000   1.0000   1.0000   1.0000   1.0000   1.0000   1.0000   1.0000
     1.0000   1.0000   1.0000   1.0000   1.0000   1.0000   1.0000   1.0000
     1.0000   1.0000   1.0000   1.0000   1.0000   1.0000   1.0000   1.0000
     1.0000   1.0000   1.0000   1.0000   1.0000   1.0000   1.0000   1.0000
     1.0000   1.0000   0.0000   0.0000   0.0000   0.0000   0.0000   0.0000
     0.0000   0.0000   0.0000   0.0000   0.0000   0.0000   0.0000   0.0000
     0.0000   0.0000   0.0000   0.0000   0.0000   0.0000   0.0000

 ------ SPIN DOWN ----------

          k = 0.0000 0.0000 0.0000 ( 87777 PWs)   bands (ev):

  -120.0904 -49.9591 -36.6512 -34.0886 -23.2708 -19.7521 -18.9228 -18.8821
   -18.8494 -18.8037 -18.7873 -18.3231 -17.0699 -17.0637 -17.0448 -16.9184
   -16.8907 -16.6292 -16.2175 -16.1984 -16.1023 -15.9417 -15.9057 -15.1538
   -14.0266 -14.0072 -14.0021 -13.9862 -13.9223 -13.2463 -13.0446 -13.0380
   -13.0209 -12.6281 -12.6015 -12.2188 -11.7543 -11.7525 -11.6480 -11.2647
   -11.2299 -10.2056  -9.4434  -9.4232  -9.3571  -9.3132  -9.3095  -9.2207
    -9.2038  -9.1906  -9.1794  -8.5884  -8.5565  -7.9837  -7.9812  -7.9638
    -7.9049  -7.8156  -7.3810  -7.3714  -7.0217  -6.9987  -6.9662  -6.8186
    -6.8075  -6.8046  -6.7109  -6.6653  -6.6535  -6.6415  -6.5803  -6.5608
    -6.5273  -6.5121  -6.5093  -6.4577  -6.3945  -5.3887  -5.3742  -5.1070
    -5.0264  -5.0213  -5.0122  -4.9649  -4.8806  -4.7259  -4.7147  -4.7013
    -4.3477  -4.0280  -3.9892  -3.8559  -3.8524  -3.7536  -3.6215  -3.6197
    -2.9891  -2.5167  -2.1979  -2.1219  -1.8219  -1.7998  -1.7915  -1.0793
    -0.6433  -0.0902   0.2394   0.3231   0.8386   0.9548   0.9643   0.9678
     1.6400   1.8417   2.2595   2.2877   2.2946   2.3966   2.5011   2.7316
     2.7944   2.7969   2.8237   2.8258   2.8605   3.3934   3.7290

     occupation numbers
     1.0000   1.0000   1.0000   1.0000   1.0000   1.0000   1.0000   1.0000
     1.0000   1.0000   1.0000   1.0000   1.0000   1.0000   1.0000   1.0000
     1.0000   1.0000   1.0000   1.0000   1.0000   1.0000   1.0000   1.0000
     1.0000   1.0000   1.0000   1.0000   1.0000   1.0000   1.0000   1.0000
     1.0000   1.0000   1.0000   1.0000   1.0000   1.0000   1.0000   1.0000
     1.0000   1.0000   1.0000   1.0000   1.0000   1.0000   1.0000   1.0000
     1.0000   1.0000   1.0000   1.0000   1.0000   1.0000   1.0000   1.0000
     1.0000   1.0000   1.0000   1.0000   1.0000   1.0000   1.0000   1.0000
     1.0000   1.0000   1.0000   1.0000   1.0000   1.0000   1.0000   1.0000
     1.0000   1.0000   1.0000   1.0000   1.0000   1.0000   1.0000   1.0000
     1.0000   1.0000   1.0000   1.0000   1.0000   1.0000   1.0000   1.0000
     1.0000   1.0000   1.0000   1.0000   1.0000   1.0000   1.0000   1.0000
     1.0000   1.0000   1.0000   1.0000   1.0000   1.0000   1.0000   1.0000
     1.0000   1.0000   0.0000   0.0000   0.0000   0.0000   0.0000   0.0000
     0.0000   0.0000   0.0000   0.0000   0.0000   0.0000   0.0000   0.0000
     0.0000   0.0000   0.0000   0.0000   0.0000   0.0000   0.0000

     the Fermi energy is     0.1183 ev

!    total energy              =    -753.13168150 Ry
     Harris-Foulkes estimate   =    -753.13182400 Ry
     estimated scf accuracy    <       0.00000068 Ry

     The total energy is the sum of the following terms:

     one-electron contribution =   -2602.26275464 Ry
     hartree contribution      =    1388.35704096 Ry
     xc contribution           =    -275.96413356 Ry
     ewald contribution        =     736.73808419 Ry
     smearing contrib. (-TS)   =       0.00008155 Ry

     total magnetization       =    -0.00 Bohr mag/cell
     absolute magnetization    =    48.04 Bohr mag/cell

     convergence has been achieved in 295 iterations

     Writing output data file distance-4.5.save/

     General routines

     Parallel routines

   This run was terminated on:   2: 5:12  20Aug2022

   JOB DONE.