     Program PWSCF v.6.4.1 starts on 17Aug2022 at 15:15:19

     R & G space division:  proc/nbgrp/npool/nimage =       6
     Reading input from distance-5.0.in

     Current dimensions of program PWSCF are:
     Max number of different atomic species (ntypx) = 10
     Max number of k-points (npk) =  40000
     Max angular momentum in pseudopotentials (lmaxx) =  3

     IMPORTANT: XC functional enforced from input :
     Exchange-correlation      = RVV10 ( 1  4 13  4 3 0)
     Any further DFT definition will be discarded
     Please, verify this is what you really want

               file H.pbe-rrkjus.UPF: wavefunction(s)  1S renormalized
               file Cr.pbe-spn-rrkjus_psl.1.0.0.UPF: wavefunction(s)  3P renormalized

     Subspace diagonalization in iterative solution of the eigenvalue problem:
     a serial algorithm will be used

     bravais-lattice index     =            4
     lattice parameter (alat)  =      23.2937  a.u.
     unit-cell volume          =    8879.8548 (a.u.)^3
     number of atoms/cell      =           52
     number of atomic types    =            3
     number of electrons       =       212.00
     number of Kohn-Sham states=          127
     kinetic-energy cutoff     =      70.0000  Ry
     charge density cutoff     =     490.0000  Ry
     convergence threshold     =      1.0E-06
     mixing beta               =       0.7000
     number of iterations used =            8  plain     mixing
     Exchange-correlation      = RVV10 ( 1  4 13  4 3 0)

     celldm(1)=  23.293684  celldm(2)=   0.000000  celldm(3)=   0.811261
     celldm(4)=   0.000000  celldm(5)=   0.000000  celldm(6)=   0.000000

     crystal axes: (cart. coord. in units of alat)
               a(1) = (   1.000000   0.000000   0.000000 )
               a(2) = (  -0.500000   0.866025   0.000000 )
               a(3) = (   0.000000   0.000000   0.811261 )

     reciprocal axes: (cart. coord. in units 2 pi/alat)
               b(1) = (  1.000000  0.577350 -0.000000 )
               b(2) = (  0.000000  1.154701  0.000000 )
               b(3) = (  0.000000 -0.000000  1.232649 )

     PseudoPot. # 1 for H  read from file:
     /home/cristian/Escritorio/Proyecto_Grafeno/pseudopotenciales/H.pbe-rrkjus.UPF
     MD5 check sum: 7cc9d459525c9a0585f487a71c3c9563
     Pseudo is Ultrasoft, Zval =  1.0
     Generated by new atomic code, or converted to UPF format
     Using radial grid of 1061 points,  2 beta functions with:
                l(1) =   0
                l(2) =   0
     Q(r) pseudized with 0 coefficients

     PseudoPot. # 2 for C  read from file:
     /home/cristian/Escritorio/Proyecto_Grafeno/pseudopotenciales/C.pbe-n-rrkjus_psl.1.0.0.UPF
     MD5 check sum: 1fdd950c42eb37d8afe3dd2f8d12311e
     Pseudo is Ultrasoft + core correction, Zval =  4.0
     Generated using "atomic" code by A. Dal Corso v.6.3MaX
     Using radial grid of 1073 points,  4 beta functions with:
                l(1) =   0
                l(2) =   0
                l(3) =   1
                l(4) =   1
     Q(r) pseudized with 0 coefficients

     PseudoPot. # 3 for Cr read from file:
     /home/cristian/Escritorio/Proyecto_Grafeno/pseudopotenciales/Cr.pbe-spn-rrkjus_psl.1.0.0.UPF
     MD5 check sum: 793d051e4f89dd1e3290b85340a92c0a
     Pseudo is Ultrasoft + core correction, Zval = 14.0
     Generated using "atomic" code by A. Dal Corso v.6.2.2
     Using radial grid of 1183 points,  6 beta functions with:
                l(1) =   0
                l(2) =   0
                l(3) =   1
                l(4) =   1
                l(5) =   2
                l(6) =   2
     Q(r) pseudized with 0 coefficients

     vdW kernel table read from file rVV10_kernel_table
     MD5 check sum: b8e2538accc0c0b3206b45ba4daaba6c

     atomic species   valence    mass     pseudopotential
        H              1.00     1.00794     H ( 1.00)
        C              4.00    12.01070     C ( 1.00)
        Cr            14.00    51.99610     Cr( 1.00)

     Starting magnetic structure
     atomic species   magnetization
        H            0.500
        C            0.300
        Cr           0.800

     No symmetry found

                                    s                        frac. trans.

      isym =  1     identity

 cryst.   s( 1) = (     1          0          0      )
                  (     0          1          0      )
                  (     0          0          1      )

 cart.    s( 1) = (  1.0000000  0.0000000  0.0000000 )
                  (  0.0000000  1.0000000  0.0000000 )
                  (  0.0000000  0.0000000  1.0000000 )

     point group C_1 (1)
     there are  1 classes
     the character table:

       E
A      1.00

     the symmetry operations in each class and the name of the first element:

     E        1
          identity

   Cartesian axes

     site n.     atom                  positions (alat units)
         1           H   tau(   1) = (   0.2500000   0.4907477   0.4056306  )
         2           H   tau(   2) = (   0.2500000   0.4907477   0.4666433  )
         3           C   tau(   3) = (   0.0000000   0.0000000   0.0000000  )
         4           C   tau(   4) = (   0.0000000   0.1154701   0.0000000  )
         5           C   tau(   5) = (  -0.1000000   0.1732051   0.0000000  )
         6           C   tau(   6) = (  -0.1000000   0.2886751   0.0000000  )
         7           C   tau(   7) = (  -0.2000000   0.3464102   0.0000000  )
         8           C   tau(   8) = (  -0.2000000   0.4618802   0.0000000  )
         9           C   tau(   9) = (  -0.3000000   0.5196152   0.0000000  )
        10           C   tau(  10) = (  -0.3000000   0.6350853   0.0000000  )
        11           C   tau(  11) = (  -0.4000000   0.6928203   0.0000000  )
        12           C   tau(  12) = (  -0.4000000   0.8082904   0.0000000  )
        13           C   tau(  13) = (   0.2000000   0.0000000   0.0000000  )
        14           C   tau(  14) = (   0.2000000   0.1154701   0.0000000  )
        15           C   tau(  15) = (   0.1000000   0.1732051   0.0000000  )
        16           C   tau(  16) = (   0.1000000   0.2886751   0.0000000  )
        17           C   tau(  17) = (   0.0000000   0.3464102   0.0000000  )
        18           C   tau(  18) = (   0.0000000   0.4618802   0.0000000  )
        19           C   tau(  19) = (  -0.1000000   0.5196152   0.0000000  )
        20           C   tau(  20) = (  -0.1000000   0.6350853   0.0000000  )
        21           C   tau(  21) = (  -0.2000000   0.6928203   0.0000000  )
        22           C   tau(  22) = (  -0.2000000   0.8082904   0.0000000  )
        23           C   tau(  23) = (   0.4000000   0.0000000   0.0000000  )
        24           C   tau(  24) = (   0.4000000   0.1154701   0.0000000  )
        25           C   tau(  25) = (   0.3000000   0.1732051   0.0000000  )
        26           C   tau(  26) = (   0.3000000   0.2886751   0.0000000  )
        27           C   tau(  27) = (   0.2000000   0.3464102   0.0000000  )
        28           Cr  tau(  28) = (   0.2000000   0.4618802   0.0000000  )
        29           C   tau(  29) = (   0.1000000   0.5196152   0.0000000  )
        30           C   tau(  30) = (   0.1000000   0.6350853   0.0000000  )
        31           C   tau(  31) = (   0.0000000   0.6928203   0.0000000  )
        32           C   tau(  32) = (   0.0000000   0.8082904   0.0000000  )
        33           C   tau(  33) = (   0.6000000   0.0000000   0.0000000  )
        34           C   tau(  34) = (   0.6000000   0.1154701   0.0000000  )
        35           C   tau(  35) = (   0.5000000   0.1732051   0.0000000  )
        36           C   tau(  36) = (   0.5000000   0.2886751   0.0000000  )
        37           C   tau(  37) = (   0.4000000   0.3464102   0.0000000  )
        38           C   tau(  38) = (   0.4000000   0.4618802   0.0000000  )
        39           C   tau(  39) = (   0.3000000   0.5196152   0.0000000  )
        40           C   tau(  40) = (   0.3000000   0.6350853   0.0000000  )
        41           C   tau(  41) = (   0.2000000   0.6928203   0.0000000  )
        42           C   tau(  42) = (   0.2000000   0.8082904   0.0000000  )
        43           C   tau(  43) = (   0.8000000   0.0000000   0.0000000  )
        44           C   tau(  44) = (   0.8000000   0.1154701   0.0000000  )
        45           C   tau(  45) = (   0.7000000   0.1732051   0.0000000  )
        46           C   tau(  46) = (   0.7000000   0.2886751   0.0000000  )
        47           C   tau(  47) = (   0.6000000   0.3464102   0.0000000  )
        48           C   tau(  48) = (   0.6000000   0.4618802   0.0000000  )
        49           C   tau(  49) = (   0.5000000   0.5196152   0.0000000  )
        50           C   tau(  50) = (   0.5000000   0.6350853   0.0000000  )
        51           C   tau(  51) = (   0.4000000   0.6928203   0.0000000  )
        52           C   tau(  52) = (   0.4000000   0.8082904   0.0000000  )

   Crystallographic axes

     site n.     atom                  positions (cryst. coord.)
         1           H   tau(   1) = (  0.5333333  0.5666667  0.5000000  )
         2           H   tau(   2) = (  0.5333333  0.5666667  0.5752072  )
         3           C   tau(   3) = (  0.0000000  0.0000000  0.0000000  )
         4           C   tau(   4) = (  0.0666667  0.1333333  0.0000000  )
         5           C   tau(   5) = (  0.0000000  0.2000000  0.0000000  )
         6           C   tau(   6) = (  0.0666667  0.3333333  0.0000000  )
         7           C   tau(   7) = (  0.0000000  0.4000000  0.0000000  )
         8           C   tau(   8) = (  0.0666667  0.5333333  0.0000000  )
         9           C   tau(   9) = (  0.0000000  0.6000000  0.0000000  )
        10           C   tau(  10) = (  0.0666667  0.7333333  0.0000000  )
        11           C   tau(  11) = (  0.0000000  0.8000000  0.0000000  )
        12           C   tau(  12) = (  0.0666667  0.9333333  0.0000000  )
        13           C   tau(  13) = (  0.2000000  0.0000000  0.0000000  )
        14           C   tau(  14) = (  0.2666667  0.1333333  0.0000000  )
        15           C   tau(  15) = (  0.2000000  0.2000000  0.0000000  )
        16           C   tau(  16) = (  0.2666667  0.3333333  0.0000000  )
        17           C   tau(  17) = (  0.2000000  0.4000000  0.0000000  )
        18           C   tau(  18) = (  0.2666667  0.5333333  0.0000000  )
        19           C   tau(  19) = (  0.2000000  0.6000000  0.0000000  )
        20           C   tau(  20) = (  0.2666667  0.7333333  0.0000000  )
        21           C   tau(  21) = (  0.2000000  0.8000000  0.0000000  )
        22           C   tau(  22) = (  0.2666667  0.9333333  0.0000000  )
        23           C   tau(  23) = (  0.4000000  0.0000000  0.0000000  )
        24           C   tau(  24) = (  0.4666667  0.1333333  0.0000000  )
        25           C   tau(  25) = (  0.4000000  0.2000000  0.0000000  )
        26           C   tau(  26) = (  0.4666667  0.3333333  0.0000000  )
        27           C   tau(  27) = (  0.4000000  0.4000000  0.0000000  )
        28           Cr  tau(  28) = (  0.4666667  0.5333333  0.0000000  )
        29           C   tau(  29) = (  0.4000000  0.6000000  0.0000000  )
[...]
        48           C   tau(  48) = (  0.8666667  0.5333333  0.0000000  )
        49           C   tau(  49) = (  0.8000000  0.6000000  0.0000000  )
        50           C   tau(  50) = (  0.8666667  0.7333333  0.0000000  )
        51           C   tau(  51) = (  0.8000000  0.8000000  0.0000000  )
        52           C   tau(  52) = (  0.8666667  0.9333333  0.0000000  )

     number of k points=     1  Marzari-Vanderbilt smearing, width (Ry)=  0.0010
                       cart. coord. in units 2pi/alat
        k(    1) = (   0.0000000   0.0000000   0.0000000), wk =   1.0000000

                       cryst. coord.
        k(    1) = (   0.0000000   0.0000000   0.0000000), wk =   1.0000000

     Check: negative core charge=   -0.000002

     Initial potential from superposition of free atoms

     starting charge  211.80478, renormalised to  212.00000

     negative rho (up, down):  4.345E-04 1.882E-02

Carrying out rVV10 run using the following parameters:
Nqs =      20    Nr_points =    1024   r_max =   100.000
b_value =  6.30000    beta =  0.00901
     q_mesh =  0.00010000  0.00030000  0.00058939  0.00100810
               0.00161396  0.00249058  0.00375900  0.00559430
               0.00824984  0.01209221  0.01765183  0.02569619
               0.03733578  0.05417739  0.07854596  0.11380545
               0.16482331  0.23864234  0.34545298  0.50000000

Gradients computed in Reciprocal space

     Starting wfcs are  208 randomized atomic wfcs

     Self-consistent Calculation

     iteration #  1     ecut=    70.00 Ry     beta= 0.70
     Davidson diagonalization with overlap
     ethr =  1.00E-02,  avg # of iterations =  2.5

[...]

     total energy              =    -784.65239305 Ry
     Harris-Foulkes estimate   =    -786.12227565 Ry
     estimated scf accuracy    <       9.65805417 Ry

     total magnetization       =     4.00 Bohr mag/cell
     absolute magnetization    =     5.43 Bohr mag/cell

[...]

     Magnetic moment per site:
     atom:    1    charge:    0.2114    magn:    0.0000    constr:    0.0000
     atom:    2    charge:    0.2113    magn:    0.0000    constr:    0.0000
     atom:    3    charge:    1.7178    magn:   -0.0135    constr:    0.0000
     atom:    4    charge:    1.7162    magn:    0.0186    constr:    0.0000
     atom:    5    charge:    1.7181    magn:   -0.0103    constr:    0.0000
     atom:    6    charge:    1.7148    magn:    0.0062    constr:    0.0000
     atom:    7    charge:    1.7180    magn:   -0.0104    constr:    0.0000
     atom:    8    charge:    1.7165    magn:    0.0186    constr:    0.0000
     atom:    9    charge:    1.7175    magn:   -0.0134    constr:    0.0000
     atom:   10    charge:    1.7166    magn:    0.0596    constr:    0.0000
     atom:   11    charge:    1.7177    magn:   -0.0184    constr:    0.0000
     atom:   12    charge:    1.7165    magn:    0.0596    constr:    0.0000
     atom:   13    charge:    1.7171    magn:   -0.0186    constr:    0.0000
     atom:   14    charge:    1.7162    magn:    0.0476    constr:    0.0000
     atom:   15    charge:    1.7144    magn:   -0.0161    constr:    0.0000
     atom:   16    charge:    1.7124    magn:    0.0643    constr:    0.0000
     atom:   17    charge:    1.7246    magn:   -0.0166    constr:    0.0000
     atom:   18    charge:    1.7133    magn:    0.0653    constr:    0.0000
     atom:   19    charge:    1.7148    magn:   -0.0161    constr:    0.0000
     atom:   20    charge:    1.7164    magn:    0.0475    constr:    0.0000
     atom:   21    charge:    1.7171    magn:   -0.0187    constr:    0.0000
     atom:   22    charge:    1.7157    magn:    0.0597    constr:    0.0000
     atom:   23    charge:    1.7161    magn:   -0.0136    constr:    0.0000
     atom:   24    charge:    1.7150    magn:    0.0185    constr:    0.0000
     atom:   25    charge:    1.7141    magn:   -0.0161    constr:    0.0000
     atom:   26    charge:    1.7121    magn:    0.0638    constr:    0.0000
     atom:   27    charge:    1.9057    magn:   -0.0310    constr:    0.0000
     atom:   28    charge:    8.9093    magn:    0.3498    constr:    0.0000
     atom:   29    charge:    1.9066    magn:   -0.0280    constr:    0.0000
     atom:   30    charge:    1.7133    magn:    0.0654    constr:    0.0000
     atom:   31    charge:    1.7145    magn:   -0.0162    constr:    0.0000
     atom:   32    charge:    1.7152    magn:    0.0187    constr:    0.0000
     atom:   33    charge:    1.7174    magn:   -0.0105    constr:    0.0000
     atom:   34    charge:    1.7139    magn:    0.0133    constr:    0.0000
     atom:   35    charge:    1.7173    magn:   -0.0106    constr:    0.0000
     atom:   36    charge:    1.7134    magn:    0.0063    constr:    0.0000
     atom:   37    charge:    1.7242    magn:   -0.0165    constr:    0.0000
     atom:   38    charge:    1.7123    magn:    0.0631    constr:    0.0000
     atom:   39    charge:    1.9053    magn:   -0.0322    constr:    0.0000
     atom:   40    charge:    1.7127    magn:    0.0636    constr:    0.0000
     atom:   41    charge:    1.7249    magn:   -0.0167    constr:    0.0000
     atom:   42    charge:    1.7138    magn:    0.0064    constr:    0.0000
     atom:   43    charge:    1.7179    magn:   -0.0104    constr:    0.0000
     atom:   44    charge:    1.7146    magn:    0.0132    constr:    0.0000
     atom:   45    charge:    1.7235    magn:   -0.0097    constr:    0.0000
     atom:   46    charge:    1.7144    magn:    0.0131    constr:    0.0000
     atom:   47    charge:    1.7175    magn:   -0.0103    constr:    0.0000
     atom:   48    charge:    1.7161    magn:    0.0183    constr:    0.0000
     atom:   49    charge:    1.7150    magn:   -0.0159    constr:    0.0000
     atom:   50    charge:    1.7170    magn:    0.0472    constr:    0.0000
     atom:   51    charge:    1.7152    magn:   -0.0159    constr:    0.0000
     atom:   52    charge:    1.7162    magn:    0.0185    constr:    0.0000

[...]

     iteration #141     ecut=    70.00 Ry     beta= 0.70
     Davidson diagonalization with overlap
     c_bands:  1 eigenvalues not converged
     c_bands:  1 eigenvalues not converged
     ethr =  3.86E-06,  avg # of iterations = 20.0

[...]

     iteration #254     ecut=    70.00 Ry     beta= 0.70
     Davidson diagonalization with overlap
     c_bands:  2 eigenvalues not converged
     c_bands:  2 eigenvalues not converged
     ethr =  3.86E-06,  avg # of iterations = 20.0

[...]

     total energy              =    -752.54002395 Ry
     Harris-Foulkes estimate   =    -752.54014529 Ry
     estimated scf accuracy    <       0.00000170 Ry

[...]

     iteration #316     ecut=    70.00 Ry     beta= 0.70
     Davidson diagonalization with overlap
     ethr =  7.56E-10,  avg # of iterations =  4.0

     negative rho (up, down):  2.625E-01 4.318E-01

     Magnetic moment per site:
     atom:    1    charge:    0.2099    magn:   -0.0002    constr:    0.0000
     atom:    2    charge:    0.2097    magn:   -0.0002    constr:    0.0000
     atom:    3    charge:    1.7179    magn:    0.0011    constr:    0.0000
     atom:    4    charge:    1.7152    magn:    0.0009    constr:    0.0000
     atom:    5    charge:    1.7181    magn:    0.0004    constr:    0.0000
     atom:    6    charge:    1.7140    magn:   -0.0009    constr:    0.0000
     atom:    7    charge:    1.7181    magn:    0.0004    constr:    0.0000
     atom:    8    charge:    1.7152    magn:    0.0010    constr:    0.0000
     atom:    9    charge:    1.7180    magn:    0.0011    constr:    0.0000
     atom:   10    charge:    1.7129    magn:   -0.0022    constr:    0.0000
     atom:   11    charge:    1.7190    magn:   -0.0000    constr:    0.0000
     atom:   12    charge:    1.7130    magn:   -0.0024    constr:    0.0000
     atom:   13    charge:    1.7188    magn:    0.0015    constr:    0.0000
     atom:   14    charge:    1.7133    magn:   -0.0029    constr:    0.0000
     atom:   15    charge:    1.7165    magn:    0.0109    constr:    0.0000
     atom:   16    charge:    1.7021    magn:    0.0198    constr:    0.0000
     atom:   17    charge:    1.7291    magn:    0.0016    constr:    0.0000
     atom:   18    charge:    1.7019    magn:    0.0206    constr:    0.0000
     atom:   19    charge:    1.7165    magn:    0.0108    constr:    0.0000
     atom:   20    charge:    1.7133    magn:   -0.0031    constr:    0.0000
     atom:   21    charge:    1.7188    magn:    0.0015    constr:    0.0000
     atom:   22    charge:    1.7141    magn:   -0.0080    constr:    0.0000
     atom:   23    charge:    1.7176    magn:    0.0013    constr:    0.0000
     atom:   24    charge:    1.7157    magn:   -0.0018    constr:    0.0000
     atom:   25    charge:    1.7178    magn:    0.0048    constr:    0.0000
     atom:   26    charge:    1.7074    magn:   -0.0098    constr:    0.0000
     atom:   27    charge:    1.8920    magn:    0.2062    constr:    0.0000
     atom:   28    charge:    8.9693    magn:   -0.5779    constr:    0.0000
     atom:   29    charge:    1.8942    magn:    0.1981    constr:    0.0000
     atom:   30    charge:    1.7074    magn:   -0.0100    constr:    0.0000
     atom:   31    charge:    1.7179    magn:    0.0044    constr:    0.0000
     atom:   32    charge:    1.7157    magn:   -0.0018    constr:    0.0000
     atom:   33    charge:    1.7180    magn:    0.0007    constr:    0.0000
     atom:   34    charge:    1.7137    magn:   -0.0017    constr:    0.0000
     atom:   35    charge:    1.7180    magn:    0.0007    constr:    0.0000
     atom:   36    charge:    1.7141    magn:    0.0001    constr:    0.0000
     atom:   37    charge:    1.7286    magn:    0.0010    constr:    0.0000
     atom:   38    charge:    1.7024    magn:    0.0131    constr:    0.0000
     atom:   39    charge:    1.9277    magn:    0.0047    constr:    0.0000
     atom:   40    charge:    1.7027    magn:    0.0118    constr:    0.0000
     atom:   41    charge:    1.7285    magn:    0.0010    constr:    0.0000
     atom:   42    charge:    1.7141    magn:    0.0002    constr:    0.0000
     atom:   43    charge:    1.7182    magn:   -0.0011    constr:    0.0000
     atom:   44    charge:    1.7135    magn:   -0.0003    constr:    0.0000
     atom:   45    charge:    1.7248    magn:   -0.0013    constr:    0.0000
     atom:   46    charge:    1.7135    magn:   -0.0003    constr:    0.0000
     atom:   47    charge:    1.7182    magn:   -0.0011    constr:    0.0000
     atom:   48    charge:    1.7151    magn:    0.0003    constr:    0.0000
     atom:   49    charge:    1.7173    magn:    0.0023    constr:    0.0000
     atom:   50    charge:    1.7135    magn:   -0.0043    constr:    0.0000
     atom:   51    charge:    1.7173    magn:    0.0019    constr:    0.0000
     atom:   52    charge:    1.7152    magn:    0.0002    constr:    0.0000

     End of self-consistent calculation

 ------ SPIN UP ------------

          k = 0.0000 0.0000 0.0000 ( 87777 PWs)   bands (ev):

  -124.7048 -49.8088 -37.1493 -34.7799 -22.7616 -19.7583 -18.9337 -18.8915
   -18.8525 -18.8248 -18.7973 -18.3418 -17.0896 -17.0642 -17.0604 -16.9300
   -16.9121 -16.6338 -16.2312 -16.2100 -16.1119 -15.9616 -15.9420 -15.1669
   -14.0604 -14.0103 -14.0100 -13.9912 -13.9542 -13.2615 -13.0593 -13.0476
   -13.0350 -12.6435 -12.6297 -12.2223 -11.7727 -11.7707 -11.6613 -11.2871
   -11.2641 -10.2057  -9.4872  -9.4248  -9.4021  -9.3272  -9.3228  -9.2277
    -9.2092  -9.1984  -9.1852  -8.6047  -8.5805  -8.0046  -8.0010  -7.9747
    -7.9055  -7.8320  -7.3951  -7.3805  -7.0309  -7.0210  -6.9654  -6.8156
    -6.8138  -6.8040  -6.7322  -6.6828  -6.6769  -6.6633  -6.5980  -6.5657
    -6.5355  -6.5245  -6.5167  -6.4675  -6.3933  -5.4030  -5.3929  -5.1300
    -5.0571  -5.0387  -5.0284  -4.9802  -4.8917  -4.7342  -4.7137  -4.7110
    -4.3462  -4.0408  -4.0046  -3.8594  -3.8542  -3.7581  -3.6333  -3.6322
    -2.9854  -2.3579  -2.2144  -2.1141  -1.8313  -1.8058  -1.7950  -1.2800
    -0.6502  -0.5460   0.2060   0.3083   0.6579   0.9508   0.9518   0.9654
     1.6228   1.7733   2.2419   2.2557   2.2899   2.4104   2.4795   2.7590
     2.7901   2.7930   2.8049   2.8474   2.8577   3.3650   3.6198

     occupation numbers
     1.0000   1.0000   1.0000   1.0000   1.0000   1.0000   1.0000   1.0000
     1.0000   1.0000   1.0000   1.0000   1.0000   1.0000   1.0000   1.0000
     1.0000   1.0000   1.0000   1.0000   1.0000   1.0000   1.0000   1.0000
     1.0000   1.0000   1.0000   1.0000   1.0000   1.0000   1.0000   1.0000
     1.0000   1.0000   1.0000   1.0000   1.0000   1.0000   1.0000   1.0000
     1.0000   1.0000   1.0000   1.0000   1.0000   1.0000   1.0000   1.0000
     1.0000   1.0000   1.0000   1.0000   1.0000   1.0000   1.0000   1.0000
     1.0000   1.0000   1.0000   1.0000   1.0000   1.0000   1.0000   1.0000
     1.0000   1.0000   1.0000   1.0000   1.0000   1.0000   1.0000   1.0000
     1.0000   1.0000   1.0000   1.0000   1.0000   1.0000   1.0000   1.0000
     1.0000   1.0000   1.0000   1.0000   1.0000   1.0000   1.0000   1.0000
     1.0000   1.0000   1.0000   1.0000   1.0000   1.0000   1.0000   1.0000
     1.0000   1.0000   1.0000   1.0000   1.0000   1.0000   1.0000   1.0000
     1.0000   1.0000   0.0382   0.0000   0.0000   0.0000   0.0000   0.0000
     0.0000   0.0000   0.0000   0.0000   0.0000   0.0000   0.0000   0.0000
     0.0000   0.0000   0.0000   0.0000   0.0000   0.0000   0.0000

 ------ SPIN DOWN ----------

          k = 0.0000 0.0000 0.0000 ( 87777 PWs)   bands (ev):

   -84.5687 -69.0935 -48.1376 -31.1237 -19.7514 -18.9228 -18.9014 -18.8542
   -18.8341 -18.7977 -18.3000 -17.4008 -17.0720 -17.0583 -17.0552 -16.9284
   -16.7930 -16.6217 -16.2097 -16.2045 -16.1114 -15.9719 -15.8503 -15.1100
   -14.8670 -14.0224 -14.0036 -13.9898 -13.9526 -13.9276 -13.2308 -13.0392
   -13.0382 -13.0286 -12.5935 -12.5913 -12.1855 -11.7537 -11.7418 -11.6475
   -11.2196 -11.2186 -10.1415  -9.4049  -9.3852  -9.3677  -9.3109  -9.3103
    -9.2228  -9.2045  -9.1950  -9.1820  -8.5553  -8.5520  -7.9712  -7.9551
    -7.9502  -7.9049  -7.8138  -7.3783  -7.3600  -7.0006  -6.9982  -6.9226
    -6.8204  -6.8149  -6.8096  -6.6908  -6.6776  -6.6445  -6.6182  -6.5827
    -6.5624  -6.5288  -6.5221  -6.5115  -6.4606  -6.3728  -5.3694  -5.3640
    -5.0309  -5.0157  -5.0037  -4.9976  -4.9658  -4.8868  -4.7332  -4.7186
    -4.7161  -4.3421  -3.9992  -3.9877  -3.8645  -3.8605  -3.7663  -3.6188
    -3.6129  -2.9532  -2.1470  -2.1334  -1.8371  -1.8072  -1.7965  -1.5984
    -0.5814   0.1822   0.2961   0.3477   0.5899   0.8670   0.9475   0.9531
     0.9638   1.6433   2.0393   2.2896   2.3040   2.3536   2.5849   2.6805
     2.7809   2.7956   2.8536   2.9819   3.0294   3.0756   3.5050

     occupation numbers
     1.0000   1.0000   1.0000   1.0000   1.0000   1.0000   1.0000   1.0000
     1.0000   1.0000   1.0000   1.0000   1.0000   1.0000   1.0000   1.0000
     1.0000   1.0000   1.0000   1.0000   1.0000   1.0000   1.0000   1.0000
     1.0000   1.0000   1.0000   1.0000   1.0000   1.0000   1.0000   1.0000
     1.0000   1.0000   1.0000   1.0000   1.0000   1.0000   1.0000   1.0000
     1.0000   1.0000   1.0000   1.0000   1.0000   1.0000   1.0000   1.0000
     1.0000   1.0000   1.0000   1.0000   1.0000   1.0000   1.0000   1.0000
     1.0000   1.0000   1.0000   1.0000   1.0000   1.0000   1.0000   1.0000
     1.0000   1.0000   1.0000   1.0000   1.0000   1.0000   1.0000   1.0000
     1.0000   1.0000   1.0000   1.0000   1.0000   1.0000   1.0000   1.0000
     1.0000   1.0000   1.0000   1.0000   1.0000   1.0000   1.0000   1.0000
     1.0000   1.0000   1.0000   1.0000   1.0000   1.0000   1.0000   1.0000
     1.0000   1.0000   1.0000   1.0000   1.0000   1.0000   1.0000   1.0000
     1.0000   0.9618   0.0000   0.0000   0.0000   0.0000   0.0000   0.0000
     0.0000   0.0000   0.0000   0.0000   0.0000   0.0000   0.0000   0.0000
     0.0000   0.0000   0.0000   0.0000   0.0000   0.0000   0.0000

     the Fermi energy is     0.1934 ev

!    total energy              =    -752.54013591 Ry
     Harris-Foulkes estimate   =    -752.54002650 Ry
     estimated scf accuracy    <       0.00000007 Ry

     The total energy is the sum of the following terms:

     one-electron contribution =   -2602.20074737 Ry
     hartree contribution      =    1388.51218886 Ry
     xc contribution           =    -275.88859239 Ry
     ewald contribution        =     737.03701216 Ry
     smearing contrib. (-TS)   =       0.00000282 Ry

     total magnetization       =     0.08 Bohr mag/cell
     absolute magnetization    =    48.82 Bohr mag/cell

     convergence has been achieved in 316 iterations

     Writing output data file distance-5.0.save/

     General routines

     Parallel routines

   This run was terminated on:  11:38:55  18Aug2022

   JOB DONE.