     Program PWSCF v.6.4.1 starts on 26May2022 at 18:56: 2

     R & G space division:  proc/nbgrp/npool/nimage =       6
     Reading input from c-17.in

     Current dimensions of program PWSCF are:
     Max number of different atomic species (ntypx) = 10
     Max number of k-points (npk) =  40000
     Max angular momentum in pseudopotentials (lmaxx) =  3

     Subspace diagonalization in iterative solution of the eigenvalue problem:
     a serial algorithm will be used

     Found symmetry operation: I + ( -0.5000 -0.5000  0.0000)
     This is a supercell, fractional translations are disabled
     Message from routine setup:
     DEPRECATED: symmetry with ibrav=0, use correct ibrav instead

     bravais-lattice index     =            0
     lattice parameter (alat)  =       6.7388  a.u.
     unit-cell volume          =     306.0135 (a.u.)^3
     number of atoms/cell      =            8
     number of atomic types    =            1
     number of electrons       =        32.00
     number of Kohn-Sham states=           20
     kinetic-energy cutoff     =      80.0000  Ry
     charge density cutoff     =     560.0000  Ry
     convergence threshold     =      1.0E-06
     mixing beta               =       0.7000
     number of iterations used =            8  plain     mixing
     Exchange-correlation      = PBE ( 1  4  3  4 0 0)

     celldm(1)=   6.738763  celldm(2)=   0.000000  celldm(3)=   0.000000
     celldm(4)=   0.000000  celldm(5)=   0.000000  celldm(6)=   0.000000

     crystal axes: (cart. coord. in units of alat)
               a(1) = (   1.000000   0.000000   0.000000 )
               a(2) = (   0.000000   1.000000   0.000000 )
               a(3) = (   0.000000   0.000000   1.000000 )

     reciprocal axes: (cart. coord. in units 2 pi/alat)
               b(1) = (  1.000000  0.000000  0.000000 )
               b(2) = (  0.000000  1.000000  0.000000 )
               b(3) = (  0.000000  0.000000  1.000000 )

     PseudoPot. # 1 for C  read from file:
     /home/cristian/Escritorio/Proyecto_Grafeno/pseudopotenciales/C.pbe-n-rrkjus_psl.1.0.0.UPF
     MD5 check sum: 1fdd950c42eb37d8afe3dd2f8d12311e
     Pseudo is Ultrasoft + core correction, Zval =  4.0
     Generated using "atomic" code by A. Dal Corso v.6.3MaX
     Using radial grid of 1073 points,  4 beta functions with:
                l(1) =   0
                l(2) =   0
                l(3) =   1
                l(4) =   1
     Q(r) pseudized with 0 coefficients

     atomic species   valence    mass     pseudopotential
        C              4.00    12.01100     C ( 1.00)

     24 Sym. Ops. (no inversion) found

                                    s                        frac. trans.

      isym =  1     identity

 cryst.   s( 1) = (     1          0          0      )
                  (     0          1          0      )
                  (     0          0          1      )

 cart.    s( 1) = (  1.0000000  0.0000000  0.0000000 )
                  (  0.0000000  1.0000000  0.0000000 )
                  (  0.0000000  0.0000000  1.0000000 )

      isym =  2     180 deg rotation - cart. axis [0,0,1]

[...]

 cryst.   s( 9) = (     0          1          0      )
                  (     0          0          1      )
                  (     1          0          0      )

 cart.    s( 9) = (  0.0000000  0.0000000  1.0000000 )
                  (  1.0000000  0.0000000  0.0000000 )
                  (  0.0000000  1.0000000  0.0000000 )

[...]

 cryst.   s(10) = (     0         -1          0      )
                  (     0          0         -1      )
                  (     1          0          0      )

 cart.    s(10) = (  0.0000000  0.0000000  1.0000000 )
                  ( -1.0000000  0.0000000  0.0000000 )
                  (  0.0000000 -1.0000000  0.0000000 )

[...]

      isym = 12     120 deg rotation - cart. axis [-1,-1,1]

[...]

      isym = 13     inv. 180 deg rotation - cart. axis [1,1,0]

[...]

      isym = 24     inv.  90 deg rotation - cart. axis [1,0,0]

 cryst.   s(24) = (    -1          0          0      )
                  (     0          0         -1      )
                  (     0          1          0      )

 cart.    s(24) = ( -1.0000000  0.0000000  0.0000000 )
                  (  0.0000000  0.0000000  1.0000000 )
                  (  0.0000000 -1.0000000  0.0000000 )

   Cartesian axes

     site n.     atom                  positions (alat units)
         1           C   tau(   1) = (   0.0000000   0.0000000   0.0000000  )
         2           C   tau(   2) = (   0.5000000   0.5000000   0.0000000  )
         3           C   tau(   3) = (   0.0000000   0.5000000   0.5000000  )
         4           C   tau(   4) = (   0.5000000   0.0000000   0.5000000  )
         5           C   tau(   5) = (   0.2500000   0.2500000   0.2500000  )
         6           C   tau(   6) = (   0.7500000   0.7500000   0.2500000  )
         7           C   tau(   7) = (   0.2500000   0.7500000   0.7500000  )
         8           C   tau(   8) = (   0.7500000   0.2500000   0.7500000  )

   Crystallographic axes

     site n.     atom                  positions (cryst. coord.)
         1           C   tau(   1) = (  0.0000000  0.0000000  0.0000000  )
         2           C   tau(   2) = (  0.5000000  0.5000000  0.0000000  )
         3           C   tau(   3) = (  0.0000000  0.5000000  0.5000000  )
         4           C   tau(   4) = (  0.5000000  0.0000000  0.5000000  )
         5           C   tau(   5) = (  0.2500000  0.2500000  0.2500000  )
         6           C   tau(   6) = (  0.7500000  0.7500000  0.2500000  )
         7           C   tau(   7) = (  0.2500000  0.7500000  0.7500000  )
         8           C   tau(   8) = (  0.7500000  0.2500000  0.7500000  )

     number of k points=   165  Marzari-Vanderbilt smearing, width (Ry)=  0.0200
                       cart. coord. in units 2pi/alat
        k(    1) = (   0.0000000   0.0000000   0.0000000), wk =   0.0004071
        k(    2) = (   0.0000000   0.0000000   0.0588235), wk =   0.0024425
        k(    3) = (   0.0000000   0.0000000   0.1176471), wk =   0.0024425
        k(    4) = (   0.0000000   0.0000000   0.1764706), wk =   0.0024425
        k(    5) = (   0.0000000   0.0000000   0.2352941), wk =   0.0024425
        k(    6) = (   0.0000000   0.0000000   0.2941176), wk =   0.0024425
        k(    7) = (   0.0000000   0.0000000   0.3529412), wk =   0.0024425
        k(    8) = (   0.0000000   0.0000000   0.4117647), wk =   0.0024425
        k(    9) = (   0.0000000   0.0000000   0.4705882), wk =   0.0024425
        k(   10) = (   0.0000000   0.0588235   0.0588235), wk =   0.0048850
        k(   11) = (   0.0000000   0.0588235   0.1176471), wk =   0.0097700
        k(   12) = (   0.0000000   0.0588235   0.1764706), wk =   0.0097700
        k(   13) = (   0.0000000   0.0588235   0.2352941), wk =   0.0097700
        k(   14) = (   0.0000000   0.0588235   0.2941176), wk =   0.0097700
        k(   15) = (   0.0000000   0.0588235   0.3529412), wk =   0.0097700
        k(   16) = (   0.0000000   0.0588235   0.4117647), wk =   0.0097700
        k(   17) = (   0.0000000   0.0588235   0.4705882), wk =   0.0097700
        k(   18) = (   0.0000000   0.1176471   0.1176471), wk =   0.0048850
        k(   19) = (   0.0000000   0.1176471   0.1764706), wk =   0.0097700
        k(   20) = (   0.0000000   0.1176471   0.2352941), wk =   0.0097700
        k(   21) = (   0.0000000   0.1176471   0.2941176), wk =   0.0097700
        k(   22) = (   0.0000000   0.1176471   0.3529412), wk =   0.0097700
        k(   23) = (   0.0000000   0.1176471   0.4117647), wk =   0.0097700
        k(   24) = (   0.0000000   0.1176471   0.4705882), wk =   0.0097700
        k(   25) = (   0.0000000   0.1764706   0.1764706), wk =   0.0048850
        k(   26) = (   0.0000000   0.1764706   0.2352941), wk =   0.0097700
        k(   27) = (   0.0000000   0.1764706   0.2941176), wk =   0.0097700
        k(   28) = (   0.0000000   0.1764706   0.3529412), wk =   0.0097700
        k(   29) = (   0.0000000   0.1764706   0.4117647), wk =   0.0097700
        k(   30) = (   0.0000000   0.1764706   0.4705882), wk =   0.0097700
        k(   31) = (   0.0000000   0.2352941   0.2352941), wk =   0.0048850
        k(   32) = (   0.0000000   0.2352941   0.2941176), wk =   0.0097700
        k(   33) = (   0.0000000   0.2352941   0.3529412), wk =   0.0097700
        k(   34) = (   0.0000000   0.2352941   0.4117647), wk =   0.0097700
        k(   35) = (   0.0000000   0.2352941   0.4705882), wk =   0.0097700
        k(   36) = (   0.0000000   0.2941176   0.2941176), wk =   0.0048850
        k(   37) = (   0.0000000   0.2941176   0.3529412), wk =   0.0097700
        k(   38) = (   0.0000000   0.2941176   0.4117647), wk =   0.0097700
        k(   39) = (   0.0000000   0.2941176   0.4705882), wk =   0.0097700
        k(   40) = (   0.0000000   0.3529412   0.3529412), wk =   0.0048850
        k(   41) = (   0.0000000   0.3529412   0.4117647), wk =   0.0097700
        k(   42) = (   0.0000000   0.3529412   0.4705882), wk =   0.0097700
        k(   43) = (   0.0000000   0.4117647   0.4117647), wk =   0.0048850
        k(   44) = (   0.0000000   0.4117647   0.4705882), wk =   0.0097700
        k(   45) = (   0.0000000   0.4705882   0.4705882), wk =   0.0048850
        k(   46) = (   0.0588235   0.0588235   0.0588235), wk =   0.0032567
        k(   47) = (   0.0588235   0.0588235   0.1176471), wk =   0.0097700
        k(   48) = (   0.0588235   0.0588235   0.1764706), wk =   0.0097700
        k(   49) = (   0.0588235   0.0588235   0.2352941), wk =   0.0097700
        k(   50) = (   0.0588235   0.0588235   0.2941176), wk =   0.0097700
        k(   51) = (   0.0588235   0.0588235   0.3529412), wk =   0.0097700
        k(   52) = (   0.0588235   0.0588235   0.4117647), wk =   0.0097700
        k(   53) = (   0.0588235   0.0588235   0.4705882), wk =   0.0097700
        k(   54) = (   0.0588235   0.1176471   0.1176471), wk =   0.0097700
        k(   55) = (   0.0588235   0.1176471   0.1764706), wk =   0.0195400
        k(   56) = (   0.0588235   0.1176471   0.2352941), wk =   0.0195400
        k(   57) = (   0.0588235   0.1176471   0.2941176), wk =   0.0195400
        k(   58) = (   0.0588235   0.1176471   0.3529412), wk =   0.0195400
        k(   59) = (   0.0588235   0.1176471   0.4117647), wk =   0.0195400
        k(   60) = (   0.0588235   0.1176471   0.4705882), wk =   0.0195400
[...]
        k(  151) = (   0.2941176   0.3529412   0.4117647), wk =   0.0195400
        k(  152) = (   0.2941176   0.3529412   0.4705882), wk =   0.0195400
        k(  153) = (   0.2941176   0.4117647   0.4117647), wk =   0.0097700
        k(  154) = (   0.2941176   0.4117647   0.4705882), wk =   0.0195400
        k(  155) = (   0.2941176   0.4705882   0.4705882), wk =   0.0097700
        k(  156) = (   0.3529412   0.3529412   0.3529412), wk =   0.0032567
        k(  157) = (   0.3529412   0.3529412   0.4117647), wk =   0.0097700
        k(  158) = (   0.3529412   0.3529412   0.4705882), wk =   0.0097700
        k(  159) = (   0.3529412   0.4117647   0.4117647), wk =   0.0097700
        k(  160) = (   0.3529412   0.4117647   0.4705882), wk =   0.0195400
        k(  161) = (   0.3529412   0.4705882   0.4705882), wk =   0.0097700
        k(  162) = (   0.4117647   0.4117647   0.4117647), wk =   0.0032567
        k(  163) = (   0.4117647   0.4117647   0.4705882), wk =   0.0097700
        k(  164) = (   0.4117647   0.4705882   0.4705882), wk =   0.0097700
        k(  165) = (   0.4705882   0.4705882   0.4705882), wk =   0.0032567

                       cryst. coord.
        k(    1) = (   0.0000000   0.0000000   0.0000000), wk =   0.0004071
        k(    2) = (   0.0000000   0.0000000   0.0588235), wk =   0.0024425
        k(    3) = (   0.0000000   0.0000000   0.1176471), wk =   0.0024425
        k(    4) = (   0.0000000   0.0000000   0.1764706), wk =   0.0024425
        k(    5) = (   0.0000000   0.0000000   0.2352941), wk =   0.0024425
        k(    6) = (   0.0000000   0.0000000   0.2941176), wk =   0.0024425
        k(    7) = (   0.0000000   0.0000000   0.3529412), wk =   0.0024425
        k(    8) = (   0.0000000   0.0000000   0.4117647), wk =   0.0024425
        k(    9) = (   0.0000000   0.0000000   0.4705882), wk =   0.0024425
        k(   10) = (   0.0000000   0.0588235   0.0588235), wk =   0.0048850
        k(   11) = (   0.0000000   0.0588235   0.1176471), wk =   0.0097700
        k(   12) = (   0.0000000   0.0588235   0.1764706), wk =   0.0097700
        k(   13) = (   0.0000000   0.0588235   0.2352941), wk =   0.0097700
        k(   14) = (   0.0000000   0.0588235   0.2941176), wk =   0.0097700
        k(   15) = (   0.0000000   0.0588235   0.3529412), wk =   0.0097700
        k(   16) = (   0.0000000   0.0588235   0.4117647), wk =   0.0097700
        k(   17) = (   0.0000000   0.0588235   0.4705882), wk =   0.0097700
        k(   18) = (   0.0000000   0.1176471   0.1176471), wk =   0.0048850
        k(   19) = (   0.0000000   0.1176471   0.1764706), wk =   0.0097700
        k(   20) = (   0.0000000   0.1176471   0.2352941), wk =   0.0097700
        k(   21) = (   0.0000000   0.1176471   0.2941176), wk =   0.0097700
        k(   22) = (   0.0000000   0.1176471   0.3529412), wk =   0.0097700
        k(   23) = (   0.0000000   0.1176471   0.4117647), wk =   0.0097700
        k(   24) = (   0.0000000   0.1176471   0.4705882), wk =   0.0097700
        k(   25) = (   0.0000000   0.1764706   0.1764706), wk =   0.0048850
        k(   26) = (   0.0000000   0.1764706   0.2352941), wk =   0.0097700
        k(   27) = (   0.0000000   0.1764706   0.2941176), wk =   0.0097700
        k(   28) = (   0.0000000   0.1764706   0.3529412), wk =   0.0097700
        k(   29) = (   0.0000000   0.1764706   0.4117647), wk =   0.0097700
        k(   30) = (   0.0000000   0.1764706   0.4705882), wk =   0.0097700
        k(   31) = (   0.0000000   0.2352941   0.2352941), wk =   0.0048850
        k(   32) = (   0.0000000   0.2352941   0.2941176), wk =   0.0097700
        k(   33) = (   0.0000000   0.2352941   0.3529412), wk =   0.0097700
        k(   34) = (   0.0000000   0.2352941   0.4117647), wk =   0.0097700
        k(   35) = (   0.0000000   0.2352941   0.4705882), wk =   0.0097700
        k(   36) = (   0.0000000   0.2941176   0.2941176), wk =   0.0048850
        k(   37) = (   0.0000000   0.2941176   0.3529412), wk =   0.0097700
        k(   38) = (   0.0000000   0.2941176   0.4117647), wk =   0.0097700
        k(   39) = (   0.0000000   0.2941176   0.4705882), wk =   0.0097700
        k(   40) = (   0.0000000   0.3529412   0.3529412), wk =   0.0048850
        k(   41) = (   0.0000000   0.3529412   0.4117647), wk =   0.0097700
        k(   42) = (   0.0000000   0.3529412   0.4705882), wk =   0.0097700
        k(   43) = (   0.0000000   0.4117647   0.4117647), wk =   0.0048850
        k(   44) = (   0.0000000   0.4117647   0.4705882), wk =   0.0097700
        k(   45) = (   0.0000000   0.4705882   0.4705882), wk =   0.0048850
        k(   46) = (   0.0588235   0.0588235   0.0588235), wk =   0.0032567
        k(   47) = (   0.0588235   0.0588235   0.1176471), wk =   0.0097700
        k(   48) = (   0.0588235   0.0588235   0.1764706), wk =   0.0097700
        k(   49) = (   0.0588235   0.0588235   0.2352941), wk =   0.0097700
        k(   50) = (   0.0588235   0.0588235   0.2941176), wk =   0.0097700
        k(   51) = (   0.0588235   0.0588235   0.3529412), wk =   0.0097700
        k(   52) = (   0.0588235   0.0588235   0.4117647), wk =   0.0097700
        k(   53) = (   0.0588235   0.0588235   0.4705882), wk =   0.0097700
        k(   54) = (   0.0588235   0.1176471   0.1176471), wk =   0.0097700
        k(   55) = (   0.0588235   0.1176471   0.1764706), wk =   0.0195400
        k(   56) = (   0.0588235   0.1176471   0.2352941), wk =   0.0195400
        k(   57) = (   0.0588235   0.1176471   0.2941176), wk =   0.0195400
        k(   58) = (   0.0588235   0.1176471   0.3529412), wk =   0.0195400
        k(   59) = (   0.0588235   0.1176471   0.4117647), wk =   0.0195400
        k(   60) = (   0.0588235   0.1176471   0.4705882), wk =   0.0195400
[...]
        k(  151) = (   0.2941176   0.3529412   0.4117647), wk =   0.0195400
        k(  152) = (   0.2941176   0.3529412   0.4705882), wk =   0.0195400
        k(  153) = (   0.2941176   0.4117647   0.4117647), wk =   0.0097700
        k(  154) = (   0.2941176   0.4117647   0.4705882), wk =   0.0195400
        k(  155) = (   0.2941176   0.4705882   0.4705882), wk =   0.0097700
        k(  156) = (   0.3529412   0.3529412   0.3529412), wk =   0.0032567
        k(  157) = (   0.3529412   0.3529412   0.4117647), wk =   0.0097700
        k(  158) = (   0.3529412   0.3529412   0.4705882), wk =   0.0097700
        k(  159) = (   0.3529412   0.4117647   0.4117647), wk =   0.0097700
        k(  160) = (   0.3529412   0.4117647   0.4705882), wk =   0.0195400
        k(  161) = (   0.3529412   0.4705882   0.4705882), wk =   0.0097700
        k(  162) = (   0.4117647   0.4117647   0.4117647), wk =   0.0032567
        k(  163) = (   0.4117647   0.4117647   0.4705882), wk =   0.0097700
        k(  164) = (   0.4117647   0.4705882   0.4705882), wk =   0.0097700
        k(  165) = (   0.4705882   0.4705882   0.4705882), wk =   0.0032567

     Check: negative core charge=   -0.000003

     Initial potential from superposition of free atoms

     starting charge   31.99967, renormalised to   32.00000
     Starting wfcs are   32 randomized atomic wfcs

     Self-consistent Calculation

     iteration #  1     ecut=    80.00 Ry     beta= 0.70
     Davidson diagonalization with overlap
     ethr =  1.00E-02,  avg # of iterations =  2.6

     total energy              =     -99.31591050 Ry
     Harris-Foulkes estimate   =     -99.52683437 Ry
     estimated scf accuracy    <       0.47317943 Ry

[...]

     iteration #  3     ecut=    80.00 Ry     beta= 0.70
     Davidson diagonalization with overlap
     c_bands:  1 eigenvalues not converged
     ethr =  3.00E-05,  avg # of iterations =  6.6

[...]

     total energy              =     -99.35165550 Ry
     Harris-Foulkes estimate   =     -99.35165648 Ry
     estimated scf accuracy    <       0.00000429 Ry

     iteration #  5     ecut=    80.00 Ry     beta= 0.70
     Davidson diagonalization with overlap
     ethr =  1.34E-08,  avg # of iterations =  2.4

     End of self-consistent calculation

          k = 0.0000 0.0000 0.0000 (  3743 PWs)   bands (ev):

    -8.1254   0.5840   0.5841   0.5841   0.5841   0.5841   0.5841   7.0362
     7.0362   7.0362   7.0362   7.0362   7.0362  13.3426  13.3426  13.3426
    18.1425  18.1425  18.1425  18.1425

     occupation numbers
     1.0000   1.0000   1.0000   1.0000   1.0000   1.0000   1.0000   1.0000
     1.0000   1.0000   1.0000   1.0000   1.0000   1.0000   1.0000   1.0000
     0.0000   0.0000   0.0000   0.0000

[...]

          k = 0.4706 0.4706 0.4706 (  3672 PWs)   bands (ev):

    -2.5689  -2.3562  -2.3562  -2.3562   0.0173   0.0173   0.0173   0.2266
    10.4519  10.4520  10.4520  10.4913  10.4913  10.4913  10.5527  10.5527
    21.7904  21.7905  21.7908  21.8289

     occupation numbers
     1.0000   1.0000   1.0000   1.0000   1.0000   1.0000   1.0000   1.0000
     1.0000   1.0000   1.0000   1.0000   1.0000   1.0000   1.0000   1.0000
     0.0000   0.0000   0.0000   0.0000

     the Fermi energy is    16.1085 ev

!    total energy              =     -99.35165669 Ry
     Harris-Foulkes estimate   =     -99.35165662 Ry
     estimated scf accuracy    <       0.00000010 Ry

     The total energy is the sum of the following terms:

     one-electron contribution =      32.71417131 Ry
     hartree contribution      =       7.76925792 Ry
     xc contribution           =     -37.51510379 Ry
     ewald contribution        =    -102.31998213 Ry
     smearing contrib. (-TS)   =      -0.00000000 Ry

     convergence has been achieved in   5 iterations

     Writing output data file c-17.save/

     General routines

     Parallel routines

   This run was terminated on:  18:56:52  26May2022

   JOB DONE.