     Program PWSCF v.6.4.1 starts on 17Mar2022 at 20:49:52

     R & G space division:  proc/nbgrp/npool/nimage =       6
     Reading input from cu-3.64915.in
Warning: card CU1   63.546    CU.PBE-DN-RRKJUS_PSL.1.0.0.UPF ignored
Warning: card CU2   63.546    CU.PBE-DN-RRKJUS_PSL.1.0.0.UPF ignored

     Current dimensions of program PWSCF are:
     Max number of different atomic species (ntypx) = 10
     Max number of k-points (npk) =  40000
     Max angular momentum in pseudopotentials (lmaxx) =  3
               file Cu.pbe-dn-rrkjus_psl.1.0.0.UPF: wavefunction(s)  3D renormalized
               file Cu.pbe-dn-rrkjus_psl.1.0.0.UPF: wavefunction(s)  3D renormalized

     Subspace diagonalization in iterative solution of the eigenvalue problem:
     a serial algorithm will be used

     Message from routine setup:
     DEPRECATED: symmetry with ibrav=0, use correct ibrav instead

     bravais-lattice index     =            0
     lattice parameter (alat)  =       6.8959  a.u.
     unit-cell volume          =     327.9229 (a.u.)^3
     number of atoms/cell      =            4
     number of atomic types    =            2
     number of electrons       =        44.00
     number of Kohn-Sham states=           26
     kinetic-energy cutoff     =      80.0000  Ry
     charge density cutoff     =     560.0000  Ry
     convergence threshold     =      1.0E-06
     mixing beta               =       0.7000
     number of iterations used =            8  plain     mixing
     Exchange-correlation      = PBE ( 1  4  3  4 0 0)
     nstep                     =           50

     celldm(1)=   6.895894  celldm(2)=   0.000000  celldm(3)=   0.000000
     celldm(4)=   0.000000  celldm(5)=   0.000000  celldm(6)=   0.000000

     crystal axes: (cart. coord. in units of alat)
               a(1) = (   1.000000   0.000000   0.000000 )
               a(2) = (   0.000000   1.000000   0.000000 )
               a(3) = (   0.000000   0.000000   1.000000 )

     reciprocal axes: (cart. coord. in units 2 pi/alat)
               b(1) = (  1.000000  0.000000  0.000000 )
               b(2) = (  0.000000  1.000000  0.000000 )
               b(3) = (  0.000000  0.000000  1.000000 )

     PseudoPot. # 1 for Cu read from file:
     /home/cristian/Escritorio/Proyecto_Grafeno/pseudopotenciales/Cu.pbe-dn-rrkjus_psl.1.0.0.UPF
     MD5 check sum: ba3d6c84e19846e79d48cdc68ff7152b
     Pseudo is Ultrasoft + core correction, Zval = 11.0
     Generated using "atomic" code by A. Dal Corso v.6.3
     Using radial grid of 1199 points,  6 beta functions with:
                l(1) =   0
                l(2) =   0
                l(3) =   1
                l(4) =   1
                l(5) =   2
                l(6) =   2
     Q(r) pseudized with 0 coefficients

[...]

     atomic species   valence    mass     pseudopotential
        Cu1           11.00    63.54600     Cu( 1.00)
        Cu2           11.00    63.54600     Cu( 1.00)

     Starting magnetic structure
     atomic species   magnetization
        Cu1          0.100
        Cu2         -0.100

      2 Sym. Ops. (no inversion) found

   Cartesian axes

     site n.     atom                  positions (alat units)
         1           Cu1 tau(   1) = (   0.0000000   0.0000000   0.0000000  )
         2           Cu2 tau(   2) = (   0.4999794   0.4999794   0.0000000  )
         3           Cu1 tau(   3) = (   0.0000000   0.4999794   0.4999794  )
         4           Cu2 tau(   4) = (   0.4999794   0.0000000   0.4999794  )

     number of k points=   144  Methfessel-Paxton smearing, width (Ry)=  0.0300

     Number of k-points >= 100: set verbosity='high' to print them.

     Initial potential from superposition of free atoms

     starting charge   43.99908, renormalised to   44.00000
     Starting wfcs are   36 randomized atomic wfcs

     Self-consistent Calculation

     iteration #  1     ecut=    80.00 Ry     beta= 0.70
     Davidson diagonalization with overlap
     ethr =  1.00E-02,  avg # of iterations =  2.4

     Threshold (ethr) on eigenvalues was too large:
     Diagonalizing with lowered threshold

     Davidson diagonalization with overlap
     ethr =  6.04E-04,  avg # of iterations =  2.2

     total energy              =    -490.84217243 Ry
     Harris-Foulkes estimate   =    -490.98139690 Ry
     estimated scf accuracy    <       0.31431644 Ry

     total magnetization       =    -0.00 Bohr mag/cell
     absolute magnetization    =     0.74 Bohr mag/cell

[...]

     Magnetic moment per site:
     atom:    1    charge:    9.8451    magn:    0.0000    constr:    0.0000
     atom:    2    charge:    9.8451    magn:   -0.0000    constr:    0.0000
     atom:    3    charge:    9.8452    magn:    0.0000    constr:    0.0000
     atom:    4    charge:    9.8451    magn:   -0.0000    constr:    0.0000

     End of self-consistent calculation

     Number of k-points >= 100: set verbosity='high' to print the bands.

     the Fermi energy is    12.1506 ev

!    total energy              =    -490.98844807 Ry
     Harris-Foulkes estimate   =    -490.98844798 Ry
     estimated scf accuracy    <       0.00000006 Ry

     The total energy is the sum of the following terms:

     one-electron contribution =    -114.94438450 Ry
     hartree contribution      =     124.21122492 Ry
     xc contribution           =    -178.45898918 Ry
     ewald contribution        =    -321.79630382 Ry
     smearing contrib. (-TS)   =       0.00000451 Ry

[...]

     convergence has been achieved in   7 iterations

     Forces acting on atoms (cartesian axes, Ry/au):

     atom    1 type  1   force =    -0.00006550   -0.00003241   -0.00003241
     atom    2 type  2   force =     0.00006433    0.00003341   -0.00003281
     atom    3 type  1   force =    -0.00006317    0.00003181    0.00003181
     atom    4 type  2   force =     0.00006433   -0.00003281    0.00003341

     Total force =     0.000158     Total SCF correction =     0.000144
     SCF correction compared to forces is large: reduce conv_thr to get better values

     Computing stress (Cartesian axis) and pressure

          total   stress  (Ry/bohr**3)                   (kbar)     P=  -14.84
  -0.00010092   0.00000000   0.00000000        -14.85      0.00      0.00
   0.00000000  -0.00010084  -0.00000000          0.00    -14.83     -0.00
   0.00000000  -0.00000000  -0.00010084          0.00     -0.00    -14.83

     BFGS Geometry Optimization

     number of scf cycles    =   1
     number of bfgs steps    =   0

     enthalpy new            =    -490.9884480720 Ry

     new trust radius        =       0.0091377992 bohr
     new conv_thr            =       0.0000010000 Ry

     new unit-cell volume =    325.44844 a.u.^3 (    48.22648 Ang^3 )
     density =      8.75209 g/cm^3

CELL_PARAMETERS (angstrom)
   3.639943014   0.000000025   0.000000025
   0.000000025   3.639950723  -0.000000080
   0.000000025  -0.000000080   3.639950723

ATOMIC_POSITIONS (angstrom)
Cu1     -0.000034574  -0.000017108  -0.000017108
Cu2      1.819930667   1.819918199  -0.000017347
Cu1     -0.000033317   1.819917303   1.819917303
Cu2      1.819930667  -0.000017347   1.819918199

     Writing output data file cu-3.64915.save/
     NEW-OLD atomic charge density approx. for the potential
     extrapolated charge   43.66546, renormalised to   44.00000

[...]

     enthalpy old            =    -490.9884480720 Ry
     enthalpy new            =    -490.9886420088 Ry

     CASE: enthalpy_new < enthalpy_old

     small trust_radius: resetting bfgs history

[...]

     number of scf cycles    =   3
     number of bfgs steps    =   2

     enthalpy old            =    -490.9886420088 Ry
     enthalpy new            =    -490.9886420542 Ry

     CASE: enthalpy_new < enthalpy_old

     Message from routine bfgs:
     history already reset at previous step: stopping
     small trust_radius: resetting bfgs history

     new trust radius        =       0.0001000000 bohr
     new conv_thr            =       0.0000000100 Ry

     new unit-cell volume =    325.43046 a.u.^3 (    48.22382 Ang^3 )
     density =      8.75257 g/cm^3

[...]

ATOMIC_POSITIONS (angstrom)
Cu1     -0.000033811  -0.000024676  -0.000024676
Cu2      1.819897556   1.819887926  -0.000019706
Cu1     -0.000034802   1.819890836   1.819890836
Cu2      1.819897556  -0.000019706   1.819887926

     Writing output data file cu-3.64915.save/
     NEW-OLD atomic charge density approx. for the potential
     extrapolated charge   43.99634, renormalised to   44.00000

[...]

     Threshold (ethr) on eigenvalues was too large:
     Diagonalizing with lowered threshold

     Davidson diagonalization with overlap
     ethr =  2.85E-08,  avg # of iterations =  1.0

[...]

     Total force =     0.000022     Total SCF correction =     0.000000

[...]

     Message from routine bfgs:
     history already reset at previous step: stopping
Begin final coordinates
     new unit-cell volume =    325.43046 a.u.^3 (    48.22382 Ang^3 )
     density =      8.75257 g/cm^3

[...]

ATOMIC_POSITIONS (angstrom)
Cu1     -0.000033811  -0.000024676  -0.000024676
Cu2      1.819897556   1.819887926  -0.000019706
Cu1     -0.000034802   1.819890836   1.819890836
Cu2      1.819897556  -0.000019706   1.819887926
End final coordinates

     Writing output data file cu-3.64915.save/

     lsda relaxation :  a final configuration with zero
                        absolute magnetization has been found

     the program is checking if it is really the minimum energy structure
     by performing a new scf iteration without any "electronic" history

[...]

     starting charge   43.99908, renormalised to   44.00000

[...]

     Message from routine bfgs:
     history already reset at previous step: stopping

     bfgs converged in   4 scf cycles and   3 bfgs steps
     (criteria: energy <  1.0E-05 Ry, force <  1.0E-04Ry/Bohr, cell <  5.0E-01kbar)

     End of BFGS Geometry Optimization

     Final enthalpy =    -490.9886432340 Ry
Begin final coordinates
     new unit-cell volume =    325.43046 a.u.^3 (    48.22382 Ang^3 )
     density =      8.75257 g/cm^3

CELL_PARAMETERS (angstrom)
   3.639875930   0.000000094   0.000000094
   0.000000094   3.639883693   0.000000212
   0.000000094   0.000000212   3.639883693

ATOMIC_POSITIONS (angstrom)
Cu1     -0.000033811  -0.000024676  -0.000024676
Cu2      1.819897556   1.819887926  -0.000019706
Cu1     -0.000034802   1.819890836   1.819890836
Cu2      1.819897556  -0.000019706   1.819887926
End final coordinates

[...]

     A final scf calculation at the relaxed structure.
     The G-vectors are recalculated for the final unit cell
     Results may differ from those at the preceding step.

     bravais-lattice index     =            0
     lattice parameter (alat)  =       6.8959  a.u.
     unit-cell volume          =     325.4305 (a.u.)^3
     number of atoms/cell      =            4
     number of atomic types    =            2
     number of electrons       =        44.00
     number of Kohn-Sham states=           26
     kinetic-energy cutoff     =      80.0000  Ry
     charge density cutoff     =     560.0000  Ry
     convergence threshold     =      1.0E-08
     mixing beta               =       0.7000
     number of iterations used =            8  plain     mixing
     Exchange-correlation      = PBE ( 1  4  3  4 0 0)

     celldm(1)=   6.895894  celldm(2)=   0.000000  celldm(3)=   0.000000
     celldm(4)=   0.000000  celldm(5)=   0.000000  celldm(6)=   0.000000

     crystal axes: (cart. coord. in units of alat)
               a(1) = (   0.997459   0.000000   0.000000 )
               a(2) = (   0.000000   0.997461   0.000000 )
               a(3) = (   0.000000   0.000000   0.997461 )

     reciprocal axes: (cart. coord. in units 2 pi/alat)
               b(1) = (  1.002548 -0.000000 -0.000000 )
               b(2) = ( -0.000000  1.002546 -0.000000 )
               b(3) = ( -0.000000 -0.000000  1.002546 )

[...]

     PseudoPot. # 2 for Cu read from file:
     /home/cristian/Escritorio/Proyecto_Grafeno/pseudopotenciales/Cu.pbe-dn-rrkjus_psl.1.0.0.UPF
     MD5 check sum: ba3d6c84e19846e79d48cdc68ff7152b
     Pseudo is Ultrasoft + core correction, Zval = 11.0
     Generated using "atomic" code by A. Dal Corso v.6.3
     Using radial grid of 1199 points,  6 beta functions with:
                l(1) =   0
                l(2) =   0
                l(3) =   1
                l(4) =   1
                l(5) =   2
                l(6) =   2
     Q(r) pseudized with 0 coefficients

     atomic species   valence    mass     pseudopotential
        Cu1           11.00    63.54600     Cu( 1.00)
        Cu2           11.00    63.54600     Cu( 1.00)

     Starting magnetic structure
     atomic species   magnetization
        Cu1          0.000
        Cu2         -0.000

      2 Sym. Ops. (no inversion) found

   Cartesian axes

     site n.     atom                  positions (alat units)
         1           Cu1 tau(   1) = (  -0.0000093  -0.0000068  -0.0000068  )
         2           Cu2 tau(   2) = (   0.4987182   0.4987156  -0.0000054  )
         3           Cu1 tau(   3) = (  -0.0000095   0.4987164   0.4987164  )
         4           Cu2 tau(   4) = (   0.4987182  -0.0000054   0.4987156  )

     number of k points=   144  Methfessel-Paxton smearing, width (Ry)=  0.0300

     Number of k-points >= 100: set verbosity='high' to print them.

     Initial potential from superposition of free atoms

     starting charge   43.99908, renormalised to   44.00000
     Starting wfcs are   36 randomized atomic wfcs

     Self-consistent Calculation

[...]

     total energy              =    -490.98861906 Ry
     Harris-Foulkes estimate   =    -490.98861979 Ry
     estimated scf accuracy    <       0.00000319 Ry

[...]

     iteration #  7     ecut=    80.00 Ry     beta= 0.70
     Davidson diagonalization with overlap
     ethr =  1.41E-09,  avg # of iterations =  2.0

     Magnetic moment per site:
     atom:    1    charge:    9.8529    magn:   -0.0000    constr:    0.0000
     atom:    2    charge:    9.8529    magn:   -0.0000    constr:    0.0000
     atom:    3    charge:    9.8529    magn:    0.0000    constr:    0.0000
     atom:    4    charge:    9.8529    magn:   -0.0000    constr:    0.0000

     End of self-consistent calculation

     Number of k-points >= 100: set verbosity='high' to print the bands.

     the Fermi energy is    12.2816 ev

!    total energy              =    -490.98861941 Ry
     Harris-Foulkes estimate   =    -490.98861941 Ry
     estimated scf accuracy    <          1.2E-09 Ry

     The total energy is the sum of the following terms:

     one-electron contribution =    -113.64365955 Ry
     hartree contribution      =     123.74239963 Ry
     xc contribution           =    -178.47162187 Ry
     ewald contribution        =    -322.61575328 Ry
     smearing contrib. (-TS)   =       0.00001566 Ry

     total magnetization       =     0.00 Bohr mag/cell
     absolute magnetization    =     0.00 Bohr mag/cell

     convergence has been achieved in   7 iterations

     Forces acting on atoms (cartesian axes, Ry/au):

     atom    1 type  1   force =    -0.00000309   -0.00001076   -0.00001076
     atom    2 type  2   force =     0.00000209    0.00001235   -0.00001235
     atom    3 type  1   force =    -0.00000109    0.00001075    0.00001075
     atom    4 type  2   force =     0.00000209   -0.00001235    0.00001235

     Total force =     0.000033     Total SCF correction =     0.000018
     SCF correction compared to forces is large: reduce conv_thr to get better values

     Computing stress (Cartesian axis) and pressure

          total   stress  (Ry/bohr**3)                   (kbar)     P=   -6.47
  -0.00004397  -0.00000000  -0.00000000         -6.47     -0.00     -0.00
  -0.00000000  -0.00004399  -0.00000001         -0.00     -6.47     -0.00
  -0.00000000  -0.00000001  -0.00004399         -0.00     -0.00     -6.47

     Writing output data file cu-3.64915.save/

     General routines

     Parallel routines

   This run was terminated on:  21:12:41  17Mar2022

   JOB DONE.