     Program PWSCF v.6.4.1 starts on 17Jun2022 at 19:56:56

     R & G space division:  proc/nbgrp/npool/nimage =       6
     Reading input from grafeno5x5.in

     Current dimensions of program PWSCF are:
     Max number of different atomic species (ntypx) = 10
     Max number of k-points (npk) =  40000
     Max angular momentum in pseudopotentials (lmaxx) =  3

     IMPORTANT: XC functional enforced from input :
     Exchange-correlation      = RVV10 ( 1  4 13  4 3 0)
     Any further DFT definition will be discarded
     Please, verify this is what you really want

     Subspace diagonalization in iterative solution of the eigenvalue problem:
     a serial algorithm will be used

     Found symmetry operation: I + (  0.0000  0.2000  0.0000)
     This is a supercell, fractional translations are disabled

     bravais-lattice index     =            4
     lattice parameter (alat)  =      23.2937  a.u.
     unit-cell volume          =   13319.7822 (a.u.)^3
     number of atoms/cell      =           50
     number of atomic types    =            1
     number of electrons       =       200.00
     number of Kohn-Sham states=          120
     kinetic-energy cutoff     =      70.0000  Ry
     charge density cutoff     =     490.0000  Ry
     convergence threshold     =      1.0E-06
     mixing beta               =       0.2000
     number of iterations used =            8  plain     mixing
     Exchange-correlation      = RVV10 ( 1  4 13  4 3 0)
     nstep                     =           50

     celldm(1)=  23.293684  celldm(2)=   0.000000  celldm(3)=   1.216892
     celldm(4)=   0.000000  celldm(5)=   0.000000  celldm(6)=   0.000000

     crystal axes: (cart. coord. in units of alat)
               a(1) = (   1.000000   0.000000   0.000000 )
               a(2) = (  -0.500000   0.866025   0.000000 )
               a(3) = (   0.000000   0.000000   1.216892 )

     reciprocal axes: (cart. coord. in units 2 pi/alat)
               b(1) = (  1.000000  0.577350 -0.000000 )
               b(2) = (  0.000000  1.154701  0.000000 )
               b(3) = (  0.000000 -0.000000  0.821766 )

     PseudoPot. # 1 for C  read from file:
     /home/cristian/Escritorio/Proyecto_Grafeno/pseudopotenciales/C.pbe-n-rrkjus_psl.1.0.0.UPF
     MD5 check sum: 1fdd950c42eb37d8afe3dd2f8d12311e
     Pseudo is Ultrasoft + core correction, Zval =  4.0
     Generated using "atomic" code by A. Dal Corso v.6.3MaX
     Using radial grid of 1073 points,  4 beta functions with:
                l(1) =   0
                l(2) =   0
                l(3) =   1
                l(4) =   1
     Q(r) pseudized with 0 coefficients

     vdW kernel table read from file rVV10_kernel_table
     MD5 check sum: b8e2538accc0c0b3206b45ba4daaba6c

     atomic species   valence    mass     pseudopotential
        C              4.00    12.01070     C ( 1.00)

     12 Sym. Ops. (no inversion) found

   Cartesian axes

     site n.     atom                  positions (alat units)
         1           C   tau(   1) = (   0.0000000   0.0000000   0.0000000  )
         2           C   tau(   2) = (   0.0000000   0.1154701   0.0000000  )
         3           C   tau(   3) = (  -0.1000000   0.1732051   0.0000000  )
         4           C   tau(   4) = (  -0.1000000   0.2886751   0.0000000  )
         5           C   tau(   5) = (  -0.2000000   0.3464102   0.0000000  )
         6           C   tau(   6) = (  -0.2000000   0.4618802   0.0000000  )
         7           C   tau(   7) = (  -0.3000000   0.5196152   0.0000000  )
         8           C   tau(   8) = (  -0.3000000   0.6350853   0.0000000  )
         9           C   tau(   9) = (  -0.4000000   0.6928203   0.0000000  )
        10           C   tau(  10) = (  -0.4000000   0.8082904   0.0000000  )
        11           C   tau(  11) = (   0.2000000   0.0000000   0.0000000  )
        12           C   tau(  12) = (   0.2000000   0.1154701   0.0000000  )
        13           C   tau(  13) = (   0.1000000   0.1732051   0.0000000  )
        14           C   tau(  14) = (   0.1000000   0.2886751   0.0000000  )
        15           C   tau(  15) = (   0.0000000   0.3464102   0.0000000  )
        16           C   tau(  16) = (   0.0000000   0.4618802   0.0000000  )
        17           C   tau(  17) = (  -0.1000000   0.5196152   0.0000000  )
        18           C   tau(  18) = (  -0.1000000   0.6350853   0.0000000  )
        19           C   tau(  19) = (  -0.2000000   0.6928203   0.0000000  )
        20           C   tau(  20) = (  -0.2000000   0.8082904   0.0000000  )
        21           C   tau(  21) = (   0.4000000   0.0000000   0.0000000  )
        22           C   tau(  22) = (   0.4000000   0.1154701   0.0000000  )
        23           C   tau(  23) = (   0.3000000   0.1732051   0.0000000  )
        24           C   tau(  24) = (   0.3000000   0.2886751   0.0000000  )
        25           C   tau(  25) = (   0.2000000   0.3464102   0.0000000  )
        26           C   tau(  26) = (   0.2000000   0.4618802   0.0000000  )
        27           C   tau(  27) = (   0.1000000   0.5196152   0.0000000  )
        28           C   tau(  28) = (   0.1000000   0.6350853   0.0000000  )
        29           C   tau(  29) = (   0.0000000   0.6928203   0.0000000  )
        30           C   tau(  30) = (   0.0000000   0.8082904   0.0000000  )
        31           C   tau(  31) = (   0.6000000   0.0000000   0.0000000  )
        32           C   tau(  32) = (   0.6000000   0.1154701   0.0000000  )
        33           C   tau(  33) = (   0.5000000   0.1732051   0.0000000  )
        34           C   tau(  34) = (   0.5000000   0.2886751   0.0000000  )
        35           C   tau(  35) = (   0.4000000   0.3464102   0.0000000  )
        36           C   tau(  36) = (   0.4000000   0.4618802   0.0000000  )
        37           C   tau(  37) = (   0.3000000   0.5196152   0.0000000  )
        38           C   tau(  38) = (   0.3000000   0.6350853   0.0000000  )
        39           C   tau(  39) = (   0.2000000   0.6928203   0.0000000  )
        40           C   tau(  40) = (   0.2000000   0.8082904   0.0000000  )
        41           C   tau(  41) = (   0.8000000   0.0000000   0.0000000  )
        42           C   tau(  42) = (   0.8000000   0.1154701   0.0000000  )
        43           C   tau(  43) = (   0.7000000   0.1732051   0.0000000  )
        44           C   tau(  44) = (   0.7000000   0.2886751   0.0000000  )
        45           C   tau(  45) = (   0.6000000   0.3464102   0.0000000  )
        46           C   tau(  46) = (   0.6000000   0.4618802   0.0000000  )
        47           C   tau(  47) = (   0.5000000   0.5196152   0.0000000  )
        48           C   tau(  48) = (   0.5000000   0.6350853   0.0000000  )
        49           C   tau(  49) = (   0.4000000   0.6928203   0.0000000  )
        50           C   tau(  50) = (   0.4000000   0.8082904   0.0000000  )

     number of k points=     2  Marzari-Vanderbilt smearing, width (Ry)=  0.0010
                       cart. coord. in units 2pi/alat
        k(    1) = (   0.0000000   0.0000000   0.0000000), wk =   0.5000000
        k(    2) = (   0.0000000  -0.5773503   0.0000000), wk =   1.5000000

     Check: negative core charge=   -0.000001

     Initial potential from superposition of free atoms

     starting charge  199.99792, renormalised to  200.00000

     negative rho (up, down):  1.173E-03 0.000E+00

Carrying out rVV10 run using the following parameters:
Nqs =      20    Nr_points =    1024   r_max =   100.000
b_value =  6.30000    beta =  0.00901
     q_mesh =  0.00010000  0.00030000  0.00058939  0.00100810
               0.00161396  0.00249058  0.00375900  0.00559430
               0.00824984  0.01209221  0.01765183  0.02569619
               0.03733578  0.05417739  0.07854596  0.11380545
               0.16482331  0.23864234  0.34545298  0.50000000

Gradients computed in Reciprocal space

     Starting wfcs are  200 randomized atomic wfcs

     Self-consistent Calculation

     iteration #  1     ecut=    70.00 Ry     beta= 0.20
     Davidson diagonalization with overlap
     ethr =  1.00E-02,  avg # of iterations =  2.0

[...]

     total energy              =    -624.33018023 Ry
     Harris-Foulkes estimate   =    -625.56938210 Ry
     estimated scf accuracy    <       5.26768718 Ry

[...]

     total energy              =    -623.30704466 Ry
     Harris-Foulkes estimate   =    -623.30711085 Ry
     estimated scf accuracy    <       0.00012257 Ry

     iteration #  7     ecut=    70.00 Ry     beta= 0.20
     Davidson diagonalization with overlap
     ethr =  6.13E-08,  avg # of iterations =  2.0

[...]

     End of self-consistent calculation

          k = 0.0000 0.0000 0.0000 (131685 PWs)   bands (ev):

   -21.2041 -20.2674 -20.2674 -20.2674 -20.2674 -20.2673 -20.2673 -18.4320
   -18.4320 -18.4320 -18.4320 -18.4320 -18.4320 -17.5394 -17.5394 -17.5394
   -17.5394 -17.5394 -17.5394 -15.3948 -15.3948 -15.3948 -15.3948 -15.3948
   -15.3948 -14.3867 -14.3867 -14.3867 -14.3867 -14.3867 -14.3867 -13.0460
   -13.0460 -13.0460 -13.0460 -13.0460 -13.0460 -10.6855 -10.6855 -10.6855
   -10.6855 -10.6855 -10.6855 -10.5631 -10.5631 -10.5631 -10.5631 -10.5631
   -10.5631  -9.3367  -9.1904  -9.1904  -9.1904  -9.1904  -9.1904  -9.1904
    -8.2187  -8.2187  -8.2186  -8.2186  -8.2186  -8.2186  -7.9431  -7.9431
    -7.9431  -7.9431  -7.9431  -7.9430  -7.8909  -7.8909  -7.8909  -7.8909
    -7.8909  -7.8909  -6.2963  -6.2963  -6.2963  -6.2963  -6.2963  -6.2963
    -6.0874  -6.0874  -6.0874  -6.0874  -6.0874  -6.0874  -5.1894  -5.1894
    -5.1894  -5.1894  -5.1894  -5.1894  -4.8248  -4.8248  -3.2040  -3.2040
    -3.2040  -3.2040  -3.2040  -3.2040  -0.4089  -0.4089  -0.4089  -0.4089
    -0.4089  -0.4088   1.2946   1.4473   1.4473   1.4473   1.4473   1.4473
     1.4473   2.2195   2.5788   2.5788   2.6575   3.1901   3.1901   3.1901

          k = 0.0000-0.5774 0.0000 (131762 PWs)   bands (ev):

   -20.9690 -20.9689 -20.5006 -20.5006 -19.5724 -19.5724 -19.5723 -19.5723
   -19.1125 -19.1125 -18.2061 -18.2061 -18.2061 -18.2061 -16.8889 -16.8889
   -16.8889 -16.8889 -16.4834 -16.4833 -16.4833 -16.4833 -15.9991 -15.2722
   -15.2722 -14.9318 -14.0671 -14.0671 -14.0671 -14.0671 -13.5959 -13.5959
   -12.6619 -12.6619 -12.6619 -12.6619 -11.8653 -11.8653 -11.7060 -11.7060
   -11.7060 -11.7060 -10.4868 -10.4868 -10.2579 -10.2579 -10.2579 -10.2579
    -9.2149  -9.2149  -9.2149  -9.2149  -9.0543  -9.0543  -8.8425  -8.8425
    -8.8425  -8.8425  -8.4950  -8.4950  -8.3676  -8.3676  -8.3676  -8.3676
    -8.1751  -7.4551  -7.4551  -7.4551  -7.4551  -7.4014  -7.4014  -7.4014
    -7.4014  -7.2779  -7.2778  -7.0707  -7.0707  -6.8758  -6.8758  -6.2237
    -6.2237  -5.8549  -5.8549  -5.8549  -5.8549  -5.7313  -5.7313  -5.2914
    -5.2914  -4.4136  -4.4136  -4.4136  -4.4136  -4.2097  -4.2097  -4.2097
    -4.2097  -4.0633  -2.7281  -2.7281  -0.6917  -0.6917  -0.0388   0.3469
     0.3469   0.3469   0.3469   0.9950   0.9950   0.9951   0.9951   1.6159
     1.6159   2.2582   2.2582   2.5431   2.6137   2.6137   2.6137   2.6137

     the Fermi energy is    -1.3668 ev

!    total energy              =    -623.30707186 Ry
     Harris-Foulkes estimate   =    -623.30706609 Ry
     estimated scf accuracy    <       0.00000045 Ry

     The total energy is the sum of the following terms:

     one-electron contribution =   -3928.69782361 Ry
     hartree contribution      =    2000.84989201 Ry
     xc contribution           =    -233.90319906 Ry
     ewald contribution        =    1538.44405880 Ry
     smearing contrib. (-TS)   =       0.00000000 Ry

     convergence has been achieved in   7 iterations

     negative rho (up, down):  2.040E-03 0.000E+00

     Forces acting on atoms (cartesian axes, Ry/au):

     atom    1 type  1   force =     0.00000000    0.00000000    0.00000000
     atom    2 type  1   force =     0.00000000    0.00000086    0.00000000
     atom    3 type  1   force =     0.00000058    0.00000084   -0.00000000
     atom    4 type  1   force =    -0.00000036    0.00000032   -0.00000000
     atom    5 type  1   force =     0.00000180    0.00000004    0.00000000
     atom    6 type  1   force =     0.00000146    0.00000085   -0.00000000
     atom    7 type  1   force =     0.00000093    0.00000154    0.00000000
     atom    8 type  1   force =     0.00000010   -0.00000047    0.00000000
     atom    9 type  1   force =     0.00000102    0.00000008   -0.00000000
     atom   10 type  1   force =     0.00000075   -0.00000043    0.00000000
     atom   11 type  1   force =     0.00000044   -0.00000093   -0.00000000
     atom   12 type  1   force =    -0.00000031   -0.00000018    0.00000000
     atom   13 type  1   force =    -0.00000058    0.00000084    0.00000000
     atom   14 type  1   force =     0.00000036    0.00000032   -0.00000000
     atom   15 type  1   force =     0.00000000   -0.00000136    0.00000000
     atom   16 type  1   force =     0.00000000    0.00000055    0.00000000
     atom   17 type  1   force =    -0.00000132   -0.00000076    0.00000000
     atom   18 type  1   force =     0.00000048   -0.00000028    0.00000000
     atom   19 type  1   force =    -0.00000118    0.00000068    0.00000000
     atom   20 type  1   force =     0.00000046    0.00000015   -0.00000000
     atom   21 type  1   force =    -0.00000087   -0.00000158    0.00000000
     atom   22 type  1   force =    -0.00000034   -0.00000013    0.00000000
     atom   23 type  1   force =    -0.00000047   -0.00000027    0.00000000
     atom   24 type  1   force =    -0.00000029   -0.00000023    0.00000000
     atom   25 type  1   force =    -0.00000180    0.00000004    0.00000000
     atom   26 type  1   force =    -0.00000146    0.00000085    0.00000000
     atom   27 type  1   force =     0.00000132   -0.00000076   -0.00000000
     atom   28 type  1   force =    -0.00000048   -0.00000028   -0.00000000
     atom   29 type  1   force =     0.00000000    0.00000153    0.00000000
     atom   30 type  1   force =     0.00000000   -0.00000169   -0.00000000
     atom   31 type  1   force =     0.00000087   -0.00000158    0.00000000
     atom   32 type  1   force =     0.00000034   -0.00000013   -0.00000000
     atom   33 type  1   force =     0.00000000    0.00000346    0.00000000
     atom   34 type  1   force =     0.00000000    0.00000000    0.00000000
     atom   35 type  1   force =     0.00000300   -0.00000173    0.00000000
     atom   36 type  1   force =     0.00000005    0.00000036    0.00000000
     atom   37 type  1   force =    -0.00000093    0.00000154    0.00000000
     atom   38 type  1   force =    -0.00000010   -0.00000047   -0.00000000
     atom   39 type  1   force =     0.00000118    0.00000068    0.00000000
     atom   40 type  1   force =    -0.00000046    0.00000015    0.00000000
     atom   41 type  1   force =    -0.00000044   -0.00000093   -0.00000000
     atom   42 type  1   force =     0.00000031   -0.00000018    0.00000000
     atom   43 type  1   force =     0.00000047   -0.00000027    0.00000000
     atom   44 type  1   force =     0.00000029   -0.00000023    0.00000000
     atom   45 type  1   force =    -0.00000300   -0.00000173   -0.00000000
     atom   46 type  1   force =    -0.00000005    0.00000036   -0.00000000
     atom   47 type  1   force =    -0.00000000    0.00000054    0.00000000
     atom   48 type  1   force =     0.00000000    0.00000036    0.00000000
     atom   49 type  1   force =    -0.00000102    0.00000008   -0.00000000
     atom   50 type  1   force =    -0.00000075   -0.00000043    0.00000000

     Total force =     0.000009     Total SCF correction =     0.000117
     SCF correction compared to forces is large: reduce conv_thr to get better values

     BFGS Geometry Optimization

     bfgs converged in   1 scf cycles and   0 bfgs steps
     (criteria: energy <  1.0E-04 Ry, force <  1.0E-03 Ry/Bohr)

     End of BFGS Geometry Optimization

     Final energy   =    -623.3070718627 Ry
Begin final coordinates

ATOMIC_POSITIONS (angstrom)
C        0.000000000   0.000000000   0.000000000    1   1   0
C        0.000000000   1.423340089   0.000000000    1   1   0
C       -1.232648675   2.135010133   0.000000000    1   1   0
C       -1.232648675   3.558350222   0.000000000    1   1   0
C       -2.465297350   4.270020266   0.000000000    1   1   0
C       -2.465297350   5.693360355   0.000000000    1   1   0
C       -3.697946025   6.405030399   0.000000000    1   1   0
C       -3.697946025   7.828370488   0.000000000    1   1   0
C       -4.930594700   8.540040532   0.000000000    1   1   0
C       -4.930594700   9.963380621   0.000000000    1   1   0
C        2.465297350   0.000000000   0.000000000    1   1   0
C        2.465297350   1.423340089   0.000000000    1   1   0
C        1.232648675   2.135010133   0.000000000    1   1   0
C        1.232648675   3.558350222   0.000000000    1   1   0
C        0.000000000   4.270020266   0.000000000    1   1   0
C        0.000000000   5.693360355   0.000000000    1   1   0
C       -1.232648675   6.405030399   0.000000000    1   1   0
C       -1.232648675   7.828370488   0.000000000    1   1   0
C       -2.465297350   8.540040532   0.000000000    1   1   0
C       -2.465297350   9.963380621   0.000000000    1   1   0
C        4.930594700   0.000000000   0.000000000    1   1   0
C        4.930594700   1.423340089   0.000000000    1   1   0
C        3.697946025   2.135010133   0.000000000    1   1   0
C        3.697946025   3.558350222   0.000000000    1   1   0
C        2.465297350   4.270020266   0.000000000    1   1   0
C        2.465297350   5.693360355   0.000000000    1   1   0
C        1.232648675   6.405030399   0.000000000    1   1   0
C        1.232648675   7.828370488   0.000000000    1   1   0
C        0.000000000   8.540040532   0.000000000    1   1   0
C        0.000000000   9.963380621   0.000000000    1   1   0
C        7.395892050   0.000000000   0.000000000    1   1   0
C        7.395892050   1.423340089   0.000000000    1   1   0
C        6.163243375   2.135010133   0.000000000    1   1   0
C        6.163243375   3.558350222   0.000000000    1   1   0
C        4.930594700   4.270020266   0.000000000    1   1   0
C        4.930594700   5.693360355   0.000000000    1   1   0
C        3.697946025   6.405030399   0.000000000    1   1   0
C        3.697946025   7.828370488   0.000000000    1   1   0
C        2.465297350   8.540040532   0.000000000    1   1   0
C        2.465297350   9.963380621   0.000000000    1   1   0
C        9.861189400   0.000000000   0.000000000    1   1   0
C        9.861189400   1.423340089   0.000000000    1   1   0
C        8.628540725   2.135010133   0.000000000    1   1   0
C        8.628540725   3.558350222   0.000000000    1   1   0
C        7.395892050   4.270020266   0.000000000    1   1   0
C        7.395892050   5.693360355   0.000000000    1   1   0
C        6.163243375   6.405030399   0.000000000    1   1   0
C        6.163243375   7.828370488   0.000000000    1   1   0
C        4.930594700   8.540040532   0.000000000    1   1   0
C        4.930594700   9.963380621   0.000000000    1   1   0
End final coordinates

     Writing output data file gr-12.save/

     General routines

     Parallel routines

   This run was terminated on:  20:19: 8  17Jun2022

   JOB DONE.