     Program PWSCF v.6.4.1 starts on 11Mar2023 at  7: 4: 4

     R & G space division:  proc/nbgrp/npool/nimage =       6
     Reading input from ni-vcrelax.in

     Current dimensions of program PWSCF are:
     Max number of different atomic species (ntypx) = 10
     Max number of k-points (npk) =  40000
     Max angular momentum in pseudopotentials (lmaxx) =  3

     IMPORTANT: XC functional enforced from input :
     Exchange-correlation      = RVV10 ( 1  4 13  4 3 0)
     Any further DFT definition will be discarded
     Please, verify this is what you really want

               file H.pbe-rrkjus.UPF: wavefunction(s)  1S renormalized

     Subspace diagonalization in iterative solution of the eigenvalue problem:
     a serial algorithm will be used

     bravais-lattice index     =            4
     lattice parameter (alat)  =      23.2937  a.u.
     unit-cell volume          =    8879.8548 (a.u.)^3
     number of atoms/cell      =           52
     number of atomic types    =            3
     number of electrons       =       216.00
     number of Kohn-Sham states=          130
     kinetic-energy cutoff     =      70.0000  Ry
     charge density cutoff     =     490.0000  Ry
     convergence threshold     =      1.0E-09
     mixing beta               =       0.7000
     number of iterations used =            8  plain     mixing
     Exchange-correlation      = RVV10 ( 1  4 13  4 3 0)
     nstep                     =           50

     celldm(1)=  23.293684  celldm(2)=   0.000000  celldm(3)=   0.811261
     celldm(4)=   0.000000  celldm(5)=   0.000000  celldm(6)=   0.000000

     crystal axes: (cart. coord. in units of alat)
               a(1) = (   1.000000   0.000000   0.000000 )
               a(2) = (  -0.500000   0.866025   0.000000 )
               a(3) = (   0.000000   0.000000   0.811261 )

     reciprocal axes: (cart. coord. in units 2 pi/alat)
               b(1) = (  1.000000  0.577350 -0.000000 )
               b(2) = (  0.000000  1.154701  0.000000 )
               b(3) = (  0.000000 -0.000000  1.232649 )

     PseudoPot. # 1 for H  read from file:
     /home/cristian/Escritorio/Proyecto_Grafeno/pseudopotenciales/H.pbe-rrkjus.UPF
     MD5 check sum: 7cc9d459525c9a0585f487a71c3c9563
     Pseudo is Ultrasoft, Zval =  1.0
     Generated by new atomic code, or converted to UPF format
     Using radial grid of 1061 points,  2 beta functions with:
                l(1) =   0
                l(2) =   0
     Q(r) pseudized with 0 coefficients

     PseudoPot. # 2 for C  read from file:
     /home/cristian/Escritorio/Proyecto_Grafeno/pseudopotenciales/C.pbe-n-rrkjus_psl.1.0.0.UPF
     MD5 check sum: 1fdd950c42eb37d8afe3dd2f8d12311e
     Pseudo is Ultrasoft + core correction, Zval =  4.0
     Generated using "atomic" code by A. Dal Corso v.6.3MaX
     Using radial grid of 1073 points,  4 beta functions with:
                l(1) =   0
                l(2) =   0
                l(3) =   1
                l(4) =   1
     Q(r) pseudized with 0 coefficients

     PseudoPot. # 3 for Ni read from file:
     /home/cristian/Escritorio/Proyecto_Grafeno/pseudopotenciales/Ni.pbe-spn-rrkjus_psl.1.0.0.UPF
     MD5 check sum: 8b3fc9aac6dafe35f580d41bb18c3945
     Pseudo is Ultrasoft + core correction, Zval = 18.0
     Generated using "atomic" code by A. Dal Corso v.6.3
     Using radial grid of 1195 points,  6 beta functions with:
                l(1) =   0
                l(2) =   0
                l(3) =   1
                l(4) =   1
                l(5) =   2
                l(6) =   2
     Q(r) pseudized with 0 coefficients

     vdW kernel table read from file rVV10_kernel_table
     MD5 check sum: b8e2538accc0c0b3206b45ba4daaba6c

     atomic species   valence    mass     pseudopotential
        H              1.00     1.00794     H ( 1.00)
        C              4.00    12.01070     C ( 1.00)
        Ni            18.00    58.69340     Ni( 1.00)

     Starting magnetic structure
     atomic species   magnetization
        H            0.500
        C            0.300
        Ni           1.000

      2 Sym. Ops. (no inversion) found

                                    s                        frac. trans.

      isym =  1     identity

 cryst.   s( 1) = (     1          0          0      )
                  (     0          1          0      )
                  (     0          0          1      )

 cart.    s( 1) = (  1.0000000  0.0000000  0.0000000 )
                  (  0.0000000  1.0000000  0.0000000 )
                  (  0.0000000  0.0000000  1.0000000 )

      isym =  2     inv. 180 deg rotation - cryst. axis [1,1,0]

 cryst.   s( 2) = (     0         -1          0      )
                  (    -1          0          0      )
                  (     0          0          1      )

 cart.    s( 2) = (  0.5000000 -0.8660254  0.0000000 )
                  ( -0.8660254 -0.5000000  0.0000000 )
                  (  0.0000000  0.0000000  1.0000000 )

     point group C_s (m)
     there are  2 classes
     the character table:

       E     s
A'     1.00  1.00
A''    1.00 -1.00

     the symmetry operations in each class and the name of the first element:

     E        1
          identity
     s        2
          inv. 180 deg rotation - cryst. axis [1,1,0]

   Cartesian axes

     site n.     atom                  positions (alat units)
         1           H   tau(   1) = (   0.3000000   0.4041452   0.2271531  )
         2           H   tau(   2) = (   0.3000000   0.4041452   0.2881658  )
         3           C   tau(   3) = (   0.0000000   0.0000000   0.0000000  )
         4           C   tau(   4) = (   0.0000000   0.1154701   0.0000000  )
         5           C   tau(   5) = (  -0.1000000   0.1732051   0.0000000  )
         6           C   tau(   6) = (  -0.1000000   0.2886751   0.0000000  )
         7           C   tau(   7) = (  -0.2000000   0.3464102   0.0000000  )
         8           C   tau(   8) = (  -0.2000000   0.4618802   0.0000000  )
         9           C   tau(   9) = (  -0.3000000   0.5196152   0.0000000  )
        10           C   tau(  10) = (  -0.3000000   0.6350853   0.0000000  )
        11           C   tau(  11) = (  -0.4000000   0.6928203   0.0000000  )
        12           C   tau(  12) = (  -0.4000000   0.8082904   0.0000000  )
        13           C   tau(  13) = (   0.2000000   0.0000000   0.0000000  )
        14           C   tau(  14) = (   0.2000000   0.1154701   0.0000000  )
        15           C   tau(  15) = (   0.1000000   0.1732051   0.0000000  )
        16           C   tau(  16) = (   0.1000000   0.2886751   0.0000000  )
        17           C   tau(  17) = (   0.0000000   0.3464102   0.0000000  )
        18           C   tau(  18) = (   0.0000000   0.4618802   0.0000000  )
        19           C   tau(  19) = (  -0.1000000   0.5196152   0.0000000  )
        20           C   tau(  20) = (  -0.1000000   0.6350853   0.0000000  )
        21           C   tau(  21) = (  -0.2000000   0.6928203   0.0000000  )
        22           C   tau(  22) = (  -0.2000000   0.8082904   0.0000000  )
        23           C   tau(  23) = (   0.4000000   0.0000000   0.0000000  )
        24           C   tau(  24) = (   0.4000000   0.1154701   0.0000000  )
        25           C   tau(  25) = (   0.3000000   0.1732051   0.0000000  )
        26           C   tau(  26) = (   0.3000000   0.2886751   0.0000000  )
        27           C   tau(  27) = (   0.2000000   0.3464102   0.0000000  )
        28           Ni  tau(  28) = (   0.2000000   0.4618802   0.0000000  )
        29           C   tau(  29) = (   0.1000000   0.5196152   0.0000000  )
        30           C   tau(  30) = (   0.1000000   0.6350853   0.0000000  )
        31           C   tau(  31) = (   0.0000000   0.6928203   0.0000000  )
        32           C   tau(  32) = (   0.0000000   0.8082904   0.0000000  )
        33           C   tau(  33) = (   0.6000000   0.0000000   0.0000000  )
        34           C   tau(  34) = (   0.6000000   0.1154701   0.0000000  )
        35           C   tau(  35) = (   0.5000000   0.1732051   0.0000000  )
        36           C   tau(  36) = (   0.5000000   0.2886751   0.0000000  )
        37           C   tau(  37) = (   0.4000000   0.3464102   0.0000000  )
        38           C   tau(  38) = (   0.4000000   0.4618802   0.0000000  )
        39           C   tau(  39) = (   0.3000000   0.5196152   0.0000000  )
        40           C   tau(  40) = (   0.3000000   0.6350853   0.0000000  )
        41           C   tau(  41) = (   0.2000000   0.6928203   0.0000000  )
        42           C   tau(  42) = (   0.2000000   0.8082904   0.0000000  )
        43           C   tau(  43) = (   0.8000000   0.0000000   0.0000000  )
        44           C   tau(  44) = (   0.8000000   0.1154701   0.0000000  )
        45           C   tau(  45) = (   0.7000000   0.1732051   0.0000000  )
        46           C   tau(  46) = (   0.7000000   0.2886751   0.0000000  )
        47           C   tau(  47) = (   0.6000000   0.3464102   0.0000000  )
        48           C   tau(  48) = (   0.6000000   0.4618802   0.0000000  )
        49           C   tau(  49) = (   0.5000000   0.5196152   0.0000000  )
        50           C   tau(  50) = (   0.5000000   0.6350853   0.0000000  )
        51           C   tau(  51) = (   0.4000000   0.6928203   0.0000000  )
        52           C   tau(  52) = (   0.4000000   0.8082904   0.0000000  )

   Crystallographic axes

     site n.     atom                  positions (cryst. coord.)
         1           H   tau(   1) = (  0.5333333  0.4666667  0.2800000  )
         2           H   tau(   2) = (  0.5333333  0.4666667  0.3552072  )
         3           C   tau(   3) = (  0.0000000  0.0000000  0.0000000  )
         4           C   tau(   4) = (  0.0666667  0.1333333  0.0000000  )
         5           C   tau(   5) = (  0.0000000  0.2000000  0.0000000  )
         6           C   tau(   6) = (  0.0666667  0.3333333  0.0000000  )
         7           C   tau(   7) = (  0.0000000  0.4000000  0.0000000  )
         8           C   tau(   8) = (  0.0666667  0.5333333  0.0000000  )
         9           C   tau(   9) = (  0.0000000  0.6000000  0.0000000  )
        10           C   tau(  10) = (  0.0666667  0.7333333  0.0000000  )
        11           C   tau(  11) = (  0.0000000  0.8000000  0.0000000  )
        12           C   tau(  12) = (  0.0666667  0.9333333  0.0000000  )
        13           C   tau(  13) = (  0.2000000  0.0000000  0.0000000  )
        14           C   tau(  14) = (  0.2666667  0.1333333  0.0000000  )
        15           C   tau(  15) = (  0.2000000  0.2000000  0.0000000  )
        16           C   tau(  16) = (  0.2666667  0.3333333  0.0000000  )
        17           C   tau(  17) = (  0.2000000  0.4000000  0.0000000  )
        18           C   tau(  18) = (  0.2666667  0.5333333  0.0000000  )
        19           C   tau(  19) = (  0.2000000  0.6000000  0.0000000  )
        20           C   tau(  20) = (  0.2666667  0.7333333  0.0000000  )
        21           C   tau(  21) = (  0.2000000  0.8000000  0.0000000  )
        22           C   tau(  22) = (  0.2666667  0.9333333  0.0000000  )
[...]
     atom   34 type  2   force =    -0.11992789   -0.05361873   -0.60522572
     atom   35 type  2   force =    -0.44585776    0.34461804   -0.67794474
     atom   36 type  2   force =    -1.06226578    0.61329943   -0.73233168
     atom   37 type  2   force =    -1.91148726    1.10359769   -0.67256379
     atom   38 type  2   force =    -3.10475899    0.33440786   -0.92598541
     atom   39 type  2   force =    -5.58247814   -2.77998630   -2.05566296
     atom   40 type  2   force =    -1.45340891   -2.97685120   -0.98425304
     atom   41 type  2   force =    -0.05620377   -2.40426956   -1.08891317
     atom   42 type  2   force =     0.02331258   -1.28792066   -0.36740852
     atom   43 type  2   force =    -0.08796424   -0.54233443   -0.32037432
     atom   44 type  2   force =     0.12319537   -0.07112688   -0.47242888
     atom   45 type  2   force =    -0.01642059    0.00948043   -0.59627005
     atom   46 type  2   force =    -0.01352876    0.13066996   -0.60522572
     atom   47 type  2   force =    -0.52137686    0.21381513   -0.67794474
     atom   48 type  2   force =    -0.62551726    0.08389599   -0.66510234
     atom   49 type  2   force =    -1.39001652   -0.27013746   -0.52420881
     atom   50 type  2   force =    -0.90360869   -0.53754808   -0.29192727
     atom   51 type  2   force =    -0.96448977   -1.11591651   -0.45125073
     atom   52 type  2   force =    -0.20391783   -0.58461298   -0.63656343
     The core correction contribution to forces
     atom    1 type  1   force =     0.00000000    0.00000000    0.00000000
     atom    2 type  1   force =     0.00000000    0.00000000    0.00000000
     atom    3 type  2   force =     0.00004530   -0.00002616    0.00000557
     atom    4 type  2   force =    -0.00009934   -0.00032830   -0.00001231
     atom    5 type  2   force =    -0.00040305   -0.00012874   -0.00021978
     atom    6 type  2   force =     0.00042577    0.00015088   -0.00006159
     atom    7 type  2   force =    -0.00035937   -0.00019793   -0.00013560
     atom    8 type  2   force =    -0.00034562    0.00009459    0.00000194
     atom    9 type  2   force =     0.00001241    0.00005052   -0.00000366
     atom   10 type  2   force =    -0.00000798   -0.00002901   -0.00004387
     atom   11 type  2   force =     0.00017066    0.00001801    0.00008003
     atom   12 type  2   force =    -0.00008696    0.00005021   -0.00015450
     atom   13 type  2   force =     0.00006974   -0.00015680    0.00008003
     atom   14 type  2   force =     0.00004295   -0.00047204   -0.00017202
     atom   15 type  2   force =    -0.00023322   -0.00046693    0.00007240
     atom   16 type  2   force =    -0.00008168   -0.00042244    0.00067645
     atom   17 type  2   force =    -0.00098077   -0.00064090    0.00052869
     atom   18 type  2   force =    -0.00031014    0.00017210    0.00031669
     atom   19 type  2   force =    -0.00055909    0.00001531   -0.00007001
     atom   20 type  2   force =    -0.00030506    0.00017613   -0.00025435
     atom   21 type  2   force =    -0.00010158    0.00005864   -0.00003841
     atom   22 type  2   force =     0.00002113    0.00002141   -0.00004387
     atom   23 type  2   force =    -0.00003755   -0.00003600   -0.00000366
     atom   24 type  2   force =     0.00010075   -0.00027085   -0.00000711
     atom   25 type  2   force =     0.00011816   -0.00054421    0.00014242
     atom   26 type  2   force =     0.00011562   -0.00013481    0.00048048
     atom   27 type  2   force =     0.00028633   -0.00156901   -0.00071804
     atom   28 type  3   force =    -0.00045280    0.00026143   -0.00392481
     atom   29 type  2   force =    -0.00034522    0.00019931    0.00221144
     atom   30 type  2   force =    -0.00030411    0.00018254    0.00031669
     atom   31 type  2   force =    -0.00029280    0.00047653   -0.00007001
     atom   32 type  2   force =    -0.00025473    0.00025202    0.00000194
     atom   33 type  2   force =    -0.00000827    0.00041019   -0.00013560
     atom   34 type  2   force =     0.00031202    0.00019582   -0.00000174
     atom   35 type  2   force =     0.00026054   -0.00009526   -0.00009876
     atom   36 type  2   force =    -0.00040182    0.00023199   -0.00017165
     atom   37 type  2   force =     0.00083048   -0.00047948   -0.00001031
     atom   38 type  2   force =     0.00017456   -0.00003272    0.00048048
     atom   39 type  2   force =     0.00150197    0.00053654   -0.00071804
     atom   40 type  2   force =     0.00032500    0.00028196    0.00067645
     atom   41 type  2   force =     0.00006465    0.00116982    0.00052869
     atom   42 type  2   force =     0.00008222   -0.00044417   -0.00006159
     atom   43 type  2   force =    -0.00009003    0.00041342   -0.00021978
     atom   44 type  2   force =    -0.00037913    0.00021889    0.00008510
     atom   45 type  2   force =    -0.00003407    0.00001967   -0.00006001
     atom   46 type  2   force =    -0.00001358   -0.00036813   -0.00000174
     atom   47 type  2   force =     0.00021277   -0.00017801   -0.00009876
     atom   48 type  2   force =     0.00028494    0.00004817   -0.00000711
     atom   49 type  2   force =     0.00053038    0.00016977    0.00014242
     atom   50 type  2   force =     0.00043027    0.00019882   -0.00017202
     atom   51 type  2   force =     0.00028776    0.00043544    0.00007240
     atom   52 type  2   force =     0.00023464    0.00025018   -0.00001231
     The Hubbard contrib.    to forces
     atom    1 type  1   force =     0.00000000    0.00000000    0.00000000
     atom    2 type  1   force =     0.00000000    0.00000000    0.00000000
     atom    3 type  2   force =     0.00000000    0.00000000    0.00000000
     atom    4 type  2   force =     0.00000000    0.00000000    0.00000000
     atom    5 type  2   force =     0.00000000    0.00000000    0.00000000
     atom    6 type  2   force =     0.00000000    0.00000000    0.00000000
     atom    7 type  2   force =     0.00000000    0.00000000    0.00000000
     atom    8 type  2   force =     0.00000000    0.00000000    0.00000000
     atom    9 type  2   force =     0.00000000    0.00000000    0.00000000
     atom   10 type  2   force =     0.00000000    0.00000000    0.00000000
     atom   11 type  2   force =     0.00000000    0.00000000    0.00000000
     atom   12 type  2   force =     0.00000000    0.00000000    0.00000000
     atom   13 type  2   force =     0.00000000    0.00000000    0.00000000
     atom   14 type  2   force =     0.00000000    0.00000000    0.00000000
     atom   15 type  2   force =     0.00000000    0.00000000    0.00000000
     atom   16 type  2   force =     0.00000000    0.00000000    0.00000000
     atom   17 type  2   force =     0.00000000    0.00000000    0.00000000
     atom   18 type  2   force =     0.00000000    0.00000000    0.00000000
     atom   19 type  2   force =     0.00000000    0.00000000    0.00000000
     atom   20 type  2   force =     0.00000000    0.00000000    0.00000000
     atom   21 type  2   force =     0.00000000    0.00000000    0.00000000
     atom   22 type  2   force =     0.00000000    0.00000000    0.00000000
     atom   23 type  2   force =     0.00000000    0.00000000    0.00000000
     atom   24 type  2   force =     0.00000000    0.00000000    0.00000000
     atom   25 type  2   force =     0.00000000    0.00000000    0.00000000
     atom   26 type  2   force =     0.00000000    0.00000000    0.00000000
     atom   27 type  2   force =     0.00000000    0.00000000    0.00000000
     atom   28 type  3   force =     0.00000000    0.00000000    0.00000000
     atom   29 type  2   force =     0.00000000    0.00000000    0.00000000
     atom   30 type  2   force =     0.00000000    0.00000000    0.00000000
     atom   31 type  2   force =     0.00000000    0.00000000    0.00000000
     atom   32 type  2   force =     0.00000000    0.00000000    0.00000000
     atom   33 type  2   force =     0.00000000    0.00000000    0.00000000
     atom   34 type  2   force =     0.00000000    0.00000000    0.00000000
     atom   35 type  2   force =     0.00000000    0.00000000    0.00000000
     atom   36 type  2   force =     0.00000000    0.00000000    0.00000000
     atom   37 type  2   force =     0.00000000    0.00000000    0.00000000
     atom   38 type  2   force =     0.00000000    0.00000000    0.00000000
     atom   39 type  2   force =     0.00000000    0.00000000    0.00000000
     atom   40 type  2   force =     0.00000000    0.00000000    0.00000000
     atom   41 type  2   force =     0.00000000    0.00000000    0.00000000
     atom   42 type  2   force =     0.00000000    0.00000000    0.00000000
     atom   43 type  2   force =     0.00000000    0.00000000    0.00000000
     atom   44 type  2   force =     0.00000000    0.00000000    0.00000000
     atom   45 type  2   force =     0.00000000    0.00000000    0.00000000
     atom   46 type  2   force =     0.00000000    0.00000000    0.00000000
     atom   47 type  2   force =     0.00000000    0.00000000    0.00000000
     atom   48 type  2   force =     0.00000000    0.00000000    0.00000000
     atom   49 type  2   force =     0.00000000    0.00000000    0.00000000
     atom   50 type  2   force =     0.00000000    0.00000000    0.00000000
     atom   51 type  2   force =     0.00000000    0.00000000    0.00000000
     atom   52 type  2   force =     0.00000000    0.00000000    0.00000000
     The SCF correction term to forces
     atom    1 type  1   force =     0.00000003   -0.00000002    0.00000015
     atom    2 type  1   force =     0.00000020   -0.00000012   -0.00000000
     atom    3 type  2   force =    -0.00000077    0.00000045    0.00000010
     atom    4 type  2   force =    -0.00000146   -0.00000062    0.00000011
     atom    5 type  2   force =    -0.00000065   -0.00000068    0.00000008
     atom    6 type  2   force =    -0.00000033   -0.00000035    0.00000007
     atom    7 type  2   force =    -0.00000028   -0.00000055    0.00000007
     atom    8 type  2   force =     0.00000047   -0.00000045    0.00000003
     atom    9 type  2   force =     0.00000035   -0.00000054    0.00000006
     atom   10 type  2   force =     0.00000001   -0.00000007    0.00000008
     atom   11 type  2   force =     0.00000003    0.00000056    0.00000013
     atom   12 type  2   force =    -0.00000061    0.00000035    0.00000016
     atom   13 type  2   force =    -0.00000047   -0.00000030    0.00000013
     atom   14 type  2   force =    -0.00000027   -0.00000094    0.00000012
     atom   15 type  2   force =    -0.00000129   -0.00000092    0.00000016
     atom   16 type  2   force =    -0.00000182    0.00000053    0.00000012
     atom   17 type  2   force =    -0.00000085    0.00000106    0.00000008
     atom   18 type  2   force =     0.00000028    0.00000059   -0.00000005
     atom   19 type  2   force =     0.00000105   -0.00000061   -0.00000003
     atom   20 type  2   force =     0.00000104   -0.00000060   -0.00000000
     atom   21 type  2   force =     0.00000017   -0.00000010    0.00000008
     atom   22 type  2   force =     0.00000007    0.00000003    0.00000008
     atom   23 type  2   force =     0.00000064   -0.00000003    0.00000006
     atom   24 type  2   force =     0.00000084   -0.00000056    0.00000010
     atom   25 type  2   force =     0.00000045   -0.00000097    0.00000010
     atom   26 type  2   force =     0.00000037   -0.00000067    0.00000014
     atom   27 type  2   force =    -0.00000103    0.00000089   -0.00000023
     atom   28 type  3   force =    -0.00000961    0.00000555   -0.00000048
     atom   29 type  2   force =    -0.00000069    0.00000040   -0.00000019
     atom   30 type  2   force =    -0.00000037   -0.00000054   -0.00000005
     atom   31 type  2   force =     0.00000106   -0.00000061   -0.00000003
     atom   32 type  2   force =     0.00000062   -0.00000018    0.00000003
     atom   33 type  2   force =     0.00000034    0.00000052    0.00000007
     atom   34 type  2   force =     0.00000061    0.00000003    0.00000009
     atom   35 type  2   force =     0.00000135   -0.00000099    0.00000011
     atom   36 type  2   force =     0.00000147   -0.00000085    0.00000014
     atom   37 type  2   force =     0.00000070   -0.00000041    0.00000010
     atom   38 type  2   force =     0.00000076    0.00000002    0.00000014
     atom   39 type  2   force =    -0.00000128    0.00000044   -0.00000023
     atom   40 type  2   force =    -0.00000136    0.00000131    0.00000012
     atom   41 type  2   force =    -0.00000134    0.00000020    0.00000008
     atom   42 type  2   force =     0.00000014    0.00000046    0.00000007
     atom   43 type  2   force =     0.00000026    0.00000091    0.00000008
     atom   44 type  2   force =     0.00000025   -0.00000014    0.00000011
     atom   45 type  2   force =     0.00000016   -0.00000009    0.00000013
     atom   46 type  2   force =     0.00000028   -0.00000054    0.00000009
     atom   47 type  2   force =     0.00000153   -0.00000068    0.00000011
     atom   48 type  2   force =     0.00000091   -0.00000045    0.00000010
     atom   49 type  2   force =     0.00000106    0.00000010    0.00000010
     atom   50 type  2   force =     0.00000068    0.00000070    0.00000012
     atom   51 type  2   force =     0.00000015    0.00000158    0.00000016
     atom   52 type  2   force =    -0.00000019    0.00000157    0.00000011

     Total force =     0.058655     Total SCF correction =     0.000013

     number of scf cycles    =  50
     number of bfgs steps    =  48

     energy   old            =    -952.5510223282 Ry
     energy   new            =    -952.5518892966 Ry

     CASE: energy  _new < energy  _old

     new trust radius        =       0.0103784204 bohr
     new conv_thr            =            8.7E-11 Ry

ATOMIC_POSITIONS (angstrom)
H        3.893135793   4.868997446   3.464713640
H        3.762987217   4.944138761   2.723155689
C        0.002682008  -0.001548458   0.103531297
C       -0.008127824   1.415537767   0.065130867
C       -1.240267807   2.132586936   0.056205212
C       -1.237006076   3.558703764   0.035037435
C       -2.474210917   4.270653153   0.073716571
C       -2.479639363   5.696790242   0.079815953
C       -3.702635200   6.412157520   0.094577274
C       -3.699036248   7.832028339   0.092311545
C       -4.925757357   8.545150006   0.091254408
C       -4.931617006   9.963970850   0.110202930
C        2.463291087  -0.006743999   0.091254408
C        2.461142017   1.410668963   0.023721291
C        1.225504504   2.115934371  -0.003528466
C        1.214335906   3.536254320  -0.113487061
C       -0.016860293   4.257601832  -0.025938328
C       -0.023253761   5.690351195   0.007197219
C       -1.251381815   6.410629937   0.060062892
C       -1.243126385   7.834419797   0.064033097
C       -2.472365836   8.544121524   0.083106476
C       -2.469010253   9.962495856   0.092311545
C        4.922077845   0.000497384   0.094577274
C        4.926524948   1.418041728   0.078382746
C        3.694177590   2.121673888   0.008143635
C        3.704042709   3.543606317  -0.108368387
C        2.460840176   4.147033427  -0.314279697
Ni       2.380613710   5.742252477  -1.130902958
C        1.141254789   6.457796684  -0.057607794
C        1.223627804   7.850013416   0.007197219
C       -0.014215912   8.553464139   0.060062892
C       -0.010141376   9.974086225   0.079815953
C        7.390887170   0.007402932   0.073716571
C        7.391913312   1.429210952   0.103511298
C        6.157942828   2.137328835   0.092375804
C        6.153095604   3.564209040   0.063015211
C        4.936313113   4.266718739  -0.051096546
C        4.946411639   5.695452424  -0.108368387
C        3.802227165   6.470383845  -0.314279697
C        3.707925253   7.855277762  -0.113487061
C        2.467621883   8.560851192  -0.025938328
C        2.462812473   9.966977470   0.035037435
C        9.859478384   0.007809961   0.056205212
C        9.851100676   1.429164816   0.082119117
C        8.622420511   2.138543640   0.106117435
C        8.621467039   3.558860479   0.103511298
C        7.391233722   4.273451323   0.092375804
C        7.398445689   5.699534044   0.078382746
C        6.172908685   6.414962082   0.008143635
C        6.172139226   7.838304675   0.023721291
C        4.943542709   8.555765446  -0.003528466
C        4.933287797   9.974320684   0.065130867

     Writing output data file niquel-sixhollow-2.8.save/
     NEW-OLD atomic charge density approx. for the potential

     Check: negative core charge=   -0.000002

     negative rho (up, down):  1.044E-03 1.829E-06

     Writing output data file niquel-sixhollow-2.8.save/

     General routines

     Parallel routines

   This run was terminated on:   7:23: 7  13Mar2023

   JOB DONE.