     Program PWSCF v.6.4.1 starts on 20Nov2022 at 14:21:51

     R & G space division:  proc/nbgrp/npool/nimage =       6
     Reading input from distance-3.0.in

     Current dimensions of program PWSCF are:
     Max number of different atomic species (ntypx) = 10
     Max number of k-points (npk) =  40000
     Max angular momentum in pseudopotentials (lmaxx) =  3

     IMPORTANT: XC functional enforced from input :
     Exchange-correlation      = RVV10 ( 1  4 13  4 3 0)
     Any further DFT definition will be discarded
     Please, verify this is what you really want

               file H.pbe-rrkjus.UPF: wavefunction(s)  1S renormalized

     Subspace diagonalization in iterative solution of the eigenvalue problem:
     a serial algorithm will be used

     bravais-lattice index     =            4
     lattice parameter (alat)  =      23.2937  a.u.
     unit-cell volume          =    8879.8548 (a.u.)^3
     number of atoms/cell      =           52
     number of atomic types    =            3
     number of electrons       =       214.00
     number of Kohn-Sham states=          128
     kinetic-energy cutoff     =      70.0000  Ry
     charge density cutoff     =     490.0000  Ry
     convergence threshold     =      1.0E-06
     mixing beta               =       0.3000
     number of iterations used =            4  plain     mixing
     Exchange-correlation      = RVV10 ( 1  4 13  4 3 0)

     celldm(1)=  23.293684  celldm(2)=   0.000000  celldm(3)=   0.811261
     celldm(4)=   0.000000  celldm(5)=   0.000000  celldm(6)=   0.000000

     crystal axes: (cart. coord. in units of alat)
               a(1) = (   1.000000   0.000000   0.000000 )
               a(2) = (  -0.500000   0.866025   0.000000 )
               a(3) = (   0.000000   0.000000   0.811261 )

     reciprocal axes: (cart. coord. in units 2 pi/alat)
               b(1) = (  1.000000  0.577350 -0.000000 )
               b(2) = (  0.000000  1.154701  0.000000 )
               b(3) = (  0.000000 -0.000000  1.232649 )

     PseudoPot. # 1 for H  read from file:
     /home/cristian/Escritorio/Proyecto_Grafeno/pseudopotenciales/H.pbe-rrkjus.UPF
     MD5 check sum: 7cc9d459525c9a0585f487a71c3c9563
     Pseudo is Ultrasoft, Zval =  1.0
     Generated by new atomic code, or converted to UPF format
     Using radial grid of 1061 points,  2 beta functions with:
                l(1) =   0
                l(2) =   0
     Q(r) pseudized with 0 coefficients

     PseudoPot. # 2 for C  read from file:
     /home/cristian/Escritorio/Proyecto_Grafeno/pseudopotenciales/C.pbe-n-rrkjus_psl.1.0.0.UPF
     MD5 check sum: 1fdd950c42eb37d8afe3dd2f8d12311e
     Pseudo is Ultrasoft + core correction, Zval =  4.0
     Generated using "atomic" code by A. Dal Corso v.6.3MaX
     Using radial grid of 1073 points,  4 beta functions with:
                l(1) =   0
                l(2) =   0
                l(3) =   1
                l(4) =   1
     Q(r) pseudized with 0 coefficients

     PseudoPot. # 3 for Fe read from file:
     /home/cristian/Escritorio/Proyecto_Grafeno/pseudopotenciales/Fe.pbe-spn-rrkjus_psl.1.0.0.UPF
     MD5 check sum: 72ea77fed8e64ab3a2ccf2804dfc1862
     Pseudo is Ultrasoft + core correction, Zval = 16.0
     Generated using "atomic" code by A. Dal Corso v.6.3
     Using radial grid of 1191 points,  6 beta functions with:
                l(1) =   0
                l(2) =   0
                l(3) =   1
                l(4) =   1
                l(5) =   2
                l(6) =   2
     Q(r) pseudized with 0 coefficients

     vdW kernel table read from file rVV10_kernel_table
     MD5 check sum: b8e2538accc0c0b3206b45ba4daaba6c

     atomic species   valence    mass     pseudopotential
        H              1.00     1.00794     H ( 1.00)
        C              4.00    12.01070     C ( 1.00)
        Fe            16.00    55.84500     Fe( 1.00)

     Starting magnetic structure
     atomic species   magnetization
        H            0.500
        C            0.300
        Fe           0.800

     No symmetry found

                                    s                        frac. trans.

      isym =  1     identity

 cryst.   s( 1) = (     1          0          0      )
                  (     0          1          0      )
                  (     0          0          1      )

 cart.    s( 1) = (  1.0000000  0.0000000  0.0000000 )
                  (  0.0000000  1.0000000  0.0000000 )
                  (  0.0000000  0.0000000  1.0000000 )

     point group C_1 (1)
     there are  1 classes
     the character table:

       E
A      1.00

     the symmetry operations in each class and the name of the first element:

     E        1
          identity

   Cartesian axes

     site n.     atom                  positions (alat units)
         1           H   tau(   1) = (   0.2666667   0.4618802   0.2433783  )
         2           H   tau(   2) = (   0.2666667   0.4618802   0.3043910  )
         3           C   tau(   3) = (   0.0000000   0.0000000   0.0000000  )
         4           C   tau(   4) = (   0.0000000   0.1154701   0.0000000  )
         5           C   tau(   5) = (  -0.1000000   0.1732051   0.0000000  )
         6           C   tau(   6) = (  -0.1000000   0.2886751   0.0000000  )
         7           C   tau(   7) = (  -0.2000000   0.3464102   0.0000000  )
         8           C   tau(   8) = (  -0.2000000   0.4618802   0.0000000  )
         9           C   tau(   9) = (  -0.3000000   0.5196152   0.0000000  )
        10           C   tau(  10) = (  -0.3000000   0.6350853   0.0000000  )
        11           C   tau(  11) = (  -0.4000000   0.6928203   0.0000000  )
        12           C   tau(  12) = (  -0.4000000   0.8082904   0.0000000  )
        13           C   tau(  13) = (   0.2000000   0.0000000   0.0000000  )
        14           C   tau(  14) = (   0.2000000   0.1154701   0.0000000  )
        15           C   tau(  15) = (   0.1000000   0.1732051   0.0000000  )
        16           C   tau(  16) = (   0.1000000   0.2886751   0.0000000  )
        17           C   tau(  17) = (   0.0000000   0.3464102   0.0000000  )
        18           C   tau(  18) = (   0.0000000   0.4618802   0.0000000  )
        19           C   tau(  19) = (  -0.1000000   0.5196152   0.0000000  )
        20           C   tau(  20) = (  -0.1000000   0.6350853   0.0000000  )
        21           C   tau(  21) = (  -0.2000000   0.6928203   0.0000000  )
        22           C   tau(  22) = (  -0.2000000   0.8082904   0.0000000  )
        23           C   tau(  23) = (   0.4000000   0.0000000   0.0000000  )
        24           C   tau(  24) = (   0.4000000   0.1154701   0.0000000  )
        25           C   tau(  25) = (   0.3000000   0.1732051   0.0000000  )
        26           C   tau(  26) = (   0.3000000   0.2886751   0.0000000  )
        27           C   tau(  27) = (   0.2000000   0.3464102   0.0000000  )
        28           Fe  tau(  28) = (   0.2000000   0.4618802   0.0000000  )
        29           C   tau(  29) = (   0.1000000   0.5196152   0.0000000  )
        30           C   tau(  30) = (   0.1000000   0.6350853   0.0000000  )
        31           C   tau(  31) = (   0.0000000   0.6928203   0.0000000  )
        32           C   tau(  32) = (   0.0000000   0.8082904   0.0000000  )
        33           C   tau(  33) = (   0.6000000   0.0000000   0.0000000  )
        34           C   tau(  34) = (   0.6000000   0.1154701   0.0000000  )
        35           C   tau(  35) = (   0.5000000   0.1732051   0.0000000  )
        36           C   tau(  36) = (   0.5000000   0.2886751   0.0000000  )
        37           C   tau(  37) = (   0.4000000   0.3464102   0.0000000  )
        38           C   tau(  38) = (   0.4000000   0.4618802   0.0000000  )
        39           C   tau(  39) = (   0.3000000   0.5196152   0.0000000  )
        40           C   tau(  40) = (   0.3000000   0.6350853   0.0000000  )
        41           C   tau(  41) = (   0.2000000   0.6928203   0.0000000  )
        42           C   tau(  42) = (   0.2000000   0.8082904   0.0000000  )
        43           C   tau(  43) = (   0.8000000   0.0000000   0.0000000  )
        44           C   tau(  44) = (   0.8000000   0.1154701   0.0000000  )
        45           C   tau(  45) = (   0.7000000   0.1732051   0.0000000  )
        46           C   tau(  46) = (   0.7000000   0.2886751   0.0000000  )
        47           C   tau(  47) = (   0.6000000   0.3464102   0.0000000  )
        48           C   tau(  48) = (   0.6000000   0.4618802   0.0000000  )
        49           C   tau(  49) = (   0.5000000   0.5196152   0.0000000  )
        50           C   tau(  50) = (   0.5000000   0.6350853   0.0000000  )
        51           C   tau(  51) = (   0.4000000   0.6928203   0.0000000  )
        52           C   tau(  52) = (   0.4000000   0.8082904   0.0000000  )

   Crystallographic axes

     site n.     atom                  positions (cryst. coord.)
         1           H   tau(   1) = (  0.5333333  0.5333333  0.3000000  )
         2           H   tau(   2) = (  0.5333333  0.5333333  0.3752072  )
         3           C   tau(   3) = (  0.0000000  0.0000000  0.0000000  )
         4           C   tau(   4) = (  0.0666667  0.1333333  0.0000000  )
         5           C   tau(   5) = (  0.0000000  0.2000000  0.0000000  )
         6           C   tau(   6) = (  0.0666667  0.3333333  0.0000000  )
         7           C   tau(   7) = (  0.0000000  0.4000000  0.0000000  )
         8           C   tau(   8) = (  0.0666667  0.5333333  0.0000000  )
         9           C   tau(   9) = (  0.0000000  0.6000000  0.0000000  )
        10           C   tau(  10) = (  0.0666667  0.7333333  0.0000000  )
        11           C   tau(  11) = (  0.0000000  0.8000000  0.0000000  )
        12           C   tau(  12) = (  0.0666667  0.9333333  0.0000000  )
        13           C   tau(  13) = (  0.2000000  0.0000000  0.0000000  )
        14           C   tau(  14) = (  0.2666667  0.1333333  0.0000000  )
        15           C   tau(  15) = (  0.2000000  0.2000000  0.0000000  )
        16           C   tau(  16) = (  0.2666667  0.3333333  0.0000000  )
        17           C   tau(  17) = (  0.2000000  0.4000000  0.0000000  )
        18           C   tau(  18) = (  0.2666667  0.5333333  0.0000000  )
        19           C   tau(  19) = (  0.2000000  0.6000000  0.0000000  )
        20           C   tau(  20) = (  0.2666667  0.7333333  0.0000000  )
        21           C   tau(  21) = (  0.2000000  0.8000000  0.0000000  )
        22           C   tau(  22) = (  0.2666667  0.9333333  0.0000000  )
        23           C   tau(  23) = (  0.4000000  0.0000000  0.0000000  )
        24           C   tau(  24) = (  0.4666667  0.1333333  0.0000000  )
        25           C   tau(  25) = (  0.4000000  0.2000000  0.0000000  )
        26           C   tau(  26) = (  0.4666667  0.3333333  0.0000000  )
        27           C   tau(  27) = (  0.4000000  0.4000000  0.0000000  )
        28           Fe  tau(  28) = (  0.4666667  0.5333333  0.0000000  )
        29           C   tau(  29) = (  0.4000000  0.6000000  0.0000000  )
        30           C   tau(  30) = (  0.4666667  0.7333333  0.0000000  )
[...]
        42           C   tau(  42) = (  0.6666667  0.9333333  0.0000000  )
        43           C   tau(  43) = (  0.8000000  0.0000000  0.0000000  )
        44           C   tau(  44) = (  0.8666667  0.1333333  0.0000000  )
        45           C   tau(  45) = (  0.8000000  0.2000000  0.0000000  )
        46           C   tau(  46) = (  0.8666667  0.3333333  0.0000000  )
        47           C   tau(  47) = (  0.8000000  0.4000000  0.0000000  )
        48           C   tau(  48) = (  0.8666667  0.5333333  0.0000000  )
        49           C   tau(  49) = (  0.8000000  0.6000000  0.0000000  )
        50           C   tau(  50) = (  0.8666667  0.7333333  0.0000000  )
        51           C   tau(  51) = (  0.8000000  0.8000000  0.0000000  )
        52           C   tau(  52) = (  0.8666667  0.9333333  0.0000000  )

     number of k points=     1  Marzari-Vanderbilt smearing, width (Ry)=  0.0010
                       cart. coord. in units 2pi/alat
        k(    1) = (   0.0000000   0.0000000   0.0000000), wk =   1.0000000

                       cryst. coord.
        k(    1) = (   0.0000000   0.0000000   0.0000000), wk =   1.0000000

     Check: negative core charge=   -0.000002

     Initial potential from superposition of free atoms

     starting charge  213.80512, renormalised to  214.00000

     negative rho (up, down):  5.870E-05 1.033E-02

Carrying out rVV10 run using the following parameters:
Nqs =      20    Nr_points =    1024   r_max =   100.000
b_value =  6.30000    beta =  0.00901
     q_mesh =  0.00010000  0.00030000  0.00058939  0.00100810
               0.00161396  0.00249058  0.00375900  0.00559430
               0.00824984  0.01209221  0.01765183  0.02569619
               0.03733578  0.05417739  0.07854596  0.11380545
               0.16482331  0.23864234  0.34545298  0.50000000

Gradients computed in Reciprocal space

     Starting wfcs are  208 randomized atomic wfcs

     Self-consistent Calculation

     iteration #  1     ecut=    70.00 Ry     beta= 0.30
     Davidson diagonalization with overlap
     ethr =  1.00E-02,  avg # of iterations =  2.5

[...]

     total energy              =    -858.06571469 Ry
     Harris-Foulkes estimate   =    -858.62523863 Ry
     estimated scf accuracy    <      10.14670497 Ry

     total magnetization       =     6.00 Bohr mag/cell
     absolute magnetization    =     6.65 Bohr mag/cell

[...]

     Magnetic moment per site:
     atom:    1    charge:    0.2104    magn:    0.0000    constr:    0.0000
     atom:    2    charge:    0.2122    magn:    0.0002    constr:    0.0000
     atom:    3    charge:    1.7170    magn:   -0.0125    constr:    0.0000
     atom:    4    charge:    1.7154    magn:    0.0168    constr:    0.0000
     atom:    5    charge:    1.7176    magn:   -0.0089    constr:    0.0000
     atom:    6    charge:    1.7142    magn:    0.0056    constr:    0.0000
     atom:    7    charge:    1.7176    magn:   -0.0090    constr:    0.0000
     atom:    8    charge:    1.7153    magn:    0.0170    constr:    0.0000
     atom:    9    charge:    1.7171    magn:   -0.0126    constr:    0.0000
     atom:   10    charge:    1.7148    magn:    0.0572    constr:    0.0000
     atom:   11    charge:    1.7174    magn:   -0.0161    constr:    0.0000
     atom:   12    charge:    1.7150    magn:    0.0563    constr:    0.0000
     atom:   13    charge:    1.7173    magn:   -0.0159    constr:    0.0000
     atom:   14    charge:    1.7156    magn:    0.0442    constr:    0.0000
     atom:   15    charge:    1.7138    magn:   -0.0124    constr:    0.0000
     atom:   16    charge:    1.7109    magn:    0.0551    constr:    0.0000
     atom:   17    charge:    1.7228    magn:   -0.0139    constr:    0.0000
     atom:   18    charge:    1.7109    magn:    0.0551    constr:    0.0000
     atom:   19    charge:    1.7138    magn:   -0.0123    constr:    0.0000
     atom:   20    charge:    1.7156    magn:    0.0437    constr:    0.0000
     atom:   21    charge:    1.7173    magn:   -0.0160    constr:    0.0000
     atom:   22    charge:    1.7158    magn:    0.0499    constr:    0.0000
     atom:   23    charge:    1.7168    magn:   -0.0120    constr:    0.0000
     atom:   24    charge:    1.7155    magn:    0.0158    constr:    0.0000
     atom:   25    charge:    1.7138    magn:   -0.0123    constr:    0.0000
     atom:   26    charge:    1.7115    magn:    0.0496    constr:    0.0000
     atom:   27    charge:    1.8521    magn:   -0.0196    constr:    0.0000
     atom:   28    charge:   11.1460    magn:    0.4803    constr:    0.0000
     atom:   29    charge:    1.8521    magn:   -0.0198    constr:    0.0000
     atom:   30    charge:    1.7116    magn:    0.0490    constr:    0.0000
     atom:   31    charge:    1.7137    magn:   -0.0123    constr:    0.0000
     atom:   32    charge:    1.7155    magn:    0.0159    constr:    0.0000
     atom:   33    charge:    1.7175    magn:   -0.0088    constr:    0.0000
     atom:   34    charge:    1.7141    magn:    0.0115    constr:    0.0000
     atom:   35    charge:    1.7175    magn:   -0.0087    constr:    0.0000
     atom:   36    charge:    1.7142    magn:    0.0056    constr:    0.0000
     atom:   37    charge:    1.7225    magn:   -0.0129    constr:    0.0000
     atom:   38    charge:    1.7115    magn:    0.0485    constr:    0.0000
     atom:   39    charge:    1.8517    magn:   -0.0198    constr:    0.0000
     atom:   40    charge:    1.7116    magn:    0.0478    constr:    0.0000
     atom:   41    charge:    1.7224    magn:   -0.0129    constr:    0.0000
     atom:   42    charge:    1.7142    magn:    0.0056    constr:    0.0000
     atom:   43    charge:    1.7176    magn:   -0.0090    constr:    0.0000
     atom:   44    charge:    1.7140    magn:    0.0126    constr:    0.0000
     atom:   45    charge:    1.7233    magn:   -0.0089    constr:    0.0000
     atom:   46    charge:    1.7140    magn:    0.0127    constr:    0.0000
     atom:   47    charge:    1.7176    magn:   -0.0090    constr:    0.0000
     atom:   48    charge:    1.7152    magn:    0.0178    constr:    0.0000
     atom:   49    charge:    1.7136    magn:   -0.0116    constr:    0.0000
     atom:   50    charge:    1.7162    magn:    0.0387    constr:    0.0000
     atom:   51    charge:    1.7136    magn:   -0.0116    constr:    0.0000
     atom:   52    charge:    1.7152    magn:    0.0177    constr:    0.0000

     total energy              =    -860.05650333 Ry
     Harris-Foulkes estimate   =    -860.05650345 Ry
     estimated scf accuracy    <       0.00000128 Ry

[...]

     iteration #101     ecut=    70.00 Ry     beta= 0.30
     Davidson diagonalization with overlap
     ethr =  5.05E-10,  avg # of iterations =  2.0

     negative rho (up, down):  5.802E-04 1.089E-02

     Magnetic moment per site:
     atom:    1    charge:    0.2104    magn:    0.0000    constr:    0.0000
     atom:    2    charge:    0.2122    magn:    0.0002    constr:    0.0000
     atom:    3    charge:    1.7170    magn:   -0.0125    constr:    0.0000
     atom:    4    charge:    1.7154    magn:    0.0168    constr:    0.0000
     atom:    5    charge:    1.7176    magn:   -0.0089    constr:    0.0000
     atom:    6    charge:    1.7143    magn:    0.0056    constr:    0.0000
     atom:    7    charge:    1.7176    magn:   -0.0090    constr:    0.0000
     atom:    8    charge:    1.7153    magn:    0.0170    constr:    0.0000
     atom:    9    charge:    1.7171    magn:   -0.0126    constr:    0.0000
     atom:   10    charge:    1.7148    magn:    0.0572    constr:    0.0000
     atom:   11    charge:    1.7174    magn:   -0.0161    constr:    0.0000
     atom:   12    charge:    1.7150    magn:    0.0563    constr:    0.0000
     atom:   13    charge:    1.7173    magn:   -0.0160    constr:    0.0000
     atom:   14    charge:    1.7156    magn:    0.0443    constr:    0.0000
     atom:   15    charge:    1.7139    magn:   -0.0124    constr:    0.0000
     atom:   16    charge:    1.7109    magn:    0.0551    constr:    0.0000
     atom:   17    charge:    1.7228    magn:   -0.0139    constr:    0.0000
     atom:   18    charge:    1.7109    magn:    0.0551    constr:    0.0000
     atom:   19    charge:    1.7138    magn:   -0.0123    constr:    0.0000
     atom:   20    charge:    1.7156    magn:    0.0437    constr:    0.0000
     atom:   21    charge:    1.7173    magn:   -0.0160    constr:    0.0000
     atom:   22    charge:    1.7158    magn:    0.0500    constr:    0.0000
     atom:   23    charge:    1.7168    magn:   -0.0120    constr:    0.0000
     atom:   24    charge:    1.7155    magn:    0.0158    constr:    0.0000
     atom:   25    charge:    1.7138    magn:   -0.0123    constr:    0.0000
     atom:   26    charge:    1.7115    magn:    0.0496    constr:    0.0000
     atom:   27    charge:    1.8522    magn:   -0.0196    constr:    0.0000
     atom:   28    charge:   11.1458    magn:    0.4803    constr:    0.0000
     atom:   29    charge:    1.8521    magn:   -0.0198    constr:    0.0000
     atom:   30    charge:    1.7116    magn:    0.0489    constr:    0.0000
     atom:   31    charge:    1.7137    magn:   -0.0123    constr:    0.0000
     atom:   32    charge:    1.7155    magn:    0.0160    constr:    0.0000
     atom:   33    charge:    1.7175    magn:   -0.0088    constr:    0.0000
     atom:   34    charge:    1.7141    magn:    0.0115    constr:    0.0000
     atom:   35    charge:    1.7175    magn:   -0.0088    constr:    0.0000
     atom:   36    charge:    1.7142    magn:    0.0056    constr:    0.0000
     atom:   37    charge:    1.7225    magn:   -0.0129    constr:    0.0000
     atom:   38    charge:    1.7115    magn:    0.0485    constr:    0.0000
     atom:   39    charge:    1.8517    magn:   -0.0198    constr:    0.0000
     atom:   40    charge:    1.7116    magn:    0.0478    constr:    0.0000
     atom:   41    charge:    1.7224    magn:   -0.0129    constr:    0.0000
     atom:   42    charge:    1.7142    magn:    0.0056    constr:    0.0000
     atom:   43    charge:    1.7176    magn:   -0.0090    constr:    0.0000
     atom:   44    charge:    1.7140    magn:    0.0126    constr:    0.0000
     atom:   45    charge:    1.7233    magn:   -0.0089    constr:    0.0000
     atom:   46    charge:    1.7140    magn:    0.0127    constr:    0.0000
     atom:   47    charge:    1.7176    magn:   -0.0090    constr:    0.0000
     atom:   48    charge:    1.7152    magn:    0.0178    constr:    0.0000
     atom:   49    charge:    1.7136    magn:   -0.0116    constr:    0.0000
     atom:   50    charge:    1.7162    magn:    0.0388    constr:    0.0000
     atom:   51    charge:    1.7136    magn:   -0.0117    constr:    0.0000
     atom:   52    charge:    1.7152    magn:    0.0177    constr:    0.0000

     End of self-consistent calculation

 ------ SPIN UP ------------

          k = 0.0000 0.0000 0.0000 ( 87777 PWs)   bands (ev):

   -88.8466 -55.7376 -55.6877 -54.0685 -19.8671 -19.0396 -19.0253 -18.9418
   -18.9159 -18.9112 -18.5803 -17.1676 -17.1587 -17.1570 -17.0918 -17.0872
   -16.7820 -16.3167 -16.3139 -16.2102 -16.1659 -16.1655 -15.4835 -14.2296
   -14.2143 -14.1338 -14.0824 -14.0799 -13.4222 -13.1515 -13.1480 -13.1227
   -12.8485 -12.8476 -12.4350 -11.9342 -11.9328 -11.7395 -11.4975 -11.4959
   -10.6236  -9.8022  -9.7988  -9.5222  -9.4037  -9.4024  -9.3173  -9.2868
    -9.2863  -9.2737  -8.8160  -8.8154  -8.2859  -8.2828  -8.1849  -8.0163
    -7.9216  -7.5311  -7.5281  -7.3407  -7.2352  -7.2284  -7.0777  -7.0775
    -6.9228  -6.9073  -6.9009  -6.8018  -6.6530  -6.6465  -6.6269  -6.6215
    -6.6107  -6.6075  -6.5631  -6.2263  -5.7441  -5.7399  -5.7167  -5.6987
    -5.4750  -5.4723  -5.3427  -5.0747  -4.9667  -4.8268  -4.7996  -4.7944
    -4.5519  -4.5472  -4.4839  -4.3307  -4.3200  -3.9586  -3.9574  -3.8693
    -3.7697  -3.7680  -3.2102  -2.9134  -2.9051  -1.9571  -1.8886  -1.8865
    -1.3586  -1.3198  -1.2170  -0.9044   0.8387   0.8852   0.8868   1.3968
     1.4085   1.5189   2.3133   2.3142   2.5323   2.6847   2.6859   2.7819
     3.2925   3.3016   3.4374   3.6632   3.6858   3.7346   3.7368   3.7576

     occupation numbers
     1.0000   1.0000   1.0000   1.0000   1.0000   1.0000   1.0000   1.0000
     1.0000   1.0000   1.0000   1.0000   1.0000   1.0000   1.0000   1.0000
     1.0000   1.0000   1.0000   1.0000   1.0000   1.0000   1.0000   1.0000
     1.0000   1.0000   1.0000   1.0000   1.0000   1.0000   1.0000   1.0000
     1.0000   1.0000   1.0000   1.0000   1.0000   1.0000   1.0000   1.0000
     1.0000   1.0000   1.0000   1.0000   1.0000   1.0000   1.0000   1.0000
     1.0000   1.0000   1.0000   1.0000   1.0000   1.0000   1.0000   1.0000
     1.0000   1.0000   1.0000   1.0000   1.0000   1.0000   1.0000   1.0000
     1.0000   1.0000   1.0000   1.0000   1.0000   1.0000   1.0000   1.0000
     1.0000   1.0000   1.0000   1.0000   1.0000   1.0000   1.0000   1.0000
     1.0000   1.0000   1.0000   1.0000   1.0000   1.0000   1.0000   1.0000
     1.0000   1.0000   1.0000   1.0000   1.0000   1.0000   1.0000   1.0000
     1.0000   1.0000   1.0000   1.0000   1.0000   1.0000   1.0000   1.0000
     1.0000   1.0000   1.0000   0.9744   0.0000   0.0000   0.0000   0.0000
     0.0000   0.0000   0.0000   0.0000   0.0000   0.0000   0.0000   0.0000
     0.0000   0.0000   0.0000   0.0000   0.0000   0.0000   0.0000   0.0000

 ------ SPIN DOWN ----------

          k = 0.0000 0.0000 0.0000 ( 87777 PWs)   bands (ev):

   -88.0807 -55.0982 -55.0830 -53.1119 -19.8291 -18.9947 -18.9829 -18.9063
   -18.8936 -18.8886 -18.5271 -17.1353 -17.1302 -17.1262 -17.0424 -17.0391
   -16.7550 -16.2741 -16.2734 -16.1811 -16.1263 -16.1259 -15.4606 -14.1609
   -14.1521 -14.0781 -14.0732 -14.0699 -13.4324 -13.1273 -13.1251 -13.0938
   -12.8306 -12.8300 -12.4061 -11.8996 -11.8974 -11.7193 -11.4764 -11.4762
   -10.6009  -9.7516  -9.7493  -9.4926  -9.3742  -9.3740  -9.3016  -9.2657
    -9.2651  -9.2581  -8.8040  -8.8032  -8.2486  -8.2457  -8.1638  -7.9285
    -7.9059  -7.5182  -7.5147  -7.3073  -7.0770  -7.0723  -7.0296  -7.0290
    -6.8530  -6.8505  -6.8308  -6.7877  -6.6373  -6.6316  -6.6117  -6.5987
    -6.5956  -6.5470  -6.5280  -6.2012  -5.6914  -5.6882  -5.4831  -5.4793
    -5.4322  -5.4304  -5.2284  -5.0616  -4.9583  -4.7572  -4.7166  -4.7155
    -4.4688  -4.4641  -4.4176  -4.2080  -4.2071  -3.8371  -3.8357  -3.7867
    -3.7558  -3.7542  -3.1701  -2.6884  -2.6843  -1.8638  -1.8615  -1.8131
    -0.9408  -0.9227  -0.8298  -0.8079   0.9277   0.9300   0.9788   1.5482
     1.5486   1.6327   2.4729   2.4753   2.5449   2.8111   2.8130   2.8448
     3.4435   3.4462   3.5240   3.6793   3.7011   3.7408   3.7462   3.7619

     occupation numbers
     1.0000   1.0000   1.0000   1.0000   1.0000   1.0000   1.0000   1.0000
     1.0000   1.0000   1.0000   1.0000   1.0000   1.0000   1.0000   1.0000
     1.0000   1.0000   1.0000   1.0000   1.0000   1.0000   1.0000   1.0000
     1.0000   1.0000   1.0000   1.0000   1.0000   1.0000   1.0000   1.0000
     1.0000   1.0000   1.0000   1.0000   1.0000   1.0000   1.0000   1.0000
     1.0000   1.0000   1.0000   1.0000   1.0000   1.0000   1.0000   1.0000
     1.0000   1.0000   1.0000   1.0000   1.0000   1.0000   1.0000   1.0000
     1.0000   1.0000   1.0000   1.0000   1.0000   1.0000   1.0000   1.0000
     1.0000   1.0000   1.0000   1.0000   1.0000   1.0000   1.0000   1.0000
     1.0000   1.0000   1.0000   1.0000   1.0000   1.0000   1.0000   1.0000
     1.0000   1.0000   1.0000   1.0000   1.0000   1.0000   1.0000   1.0000
     1.0000   1.0000   1.0000   1.0000   1.0000   1.0000   1.0000   1.0000
     1.0000   1.0000   1.0000   1.0000   1.0000   1.0000   1.0000   1.0000
     1.0001   1.0255   0.0000   0.0000   0.0000   0.0000   0.0000   0.0000
     0.0000   0.0000   0.0000   0.0000   0.0000   0.0000   0.0000   0.0000
     0.0000   0.0000   0.0000   0.0000   0.0000   0.0000   0.0000   0.0000

     the Fermi energy is    -0.8928 ev

!    total energy              =    -860.05650422 Ry
     Harris-Foulkes estimate   =    -860.05650340 Ry
     estimated scf accuracy    <       0.00000083 Ry

     The total energy is the sum of the following terms:

     one-electron contribution =   -2791.40183284 Ry
     hartree contribution      =    1439.51820619 Ry
     xc contribution           =    -259.31872327 Ry
     ewald contribution        =     751.14572256 Ry
     smearing contrib. (-TS)   =       0.00012314 Ry

     total magnetization       =     1.95 Bohr mag/cell
     absolute magnetization    =     3.12 Bohr mag/cell

     convergence has been achieved in 101 iterations

     Writing output data file gr-12-baricentro.save/

     General routines

     Parallel routines

   This run was terminated on:  17:19: 4  20Nov2022

   JOB DONE.