     Program PWSCF v.6.4.1 starts on 16Nov2022 at 21:25:15

     R & G space division:  proc/nbgrp/npool/nimage =       6
     Reading input from distance-5.0.in

     Current dimensions of program PWSCF are:
     Max number of different atomic species (ntypx) = 10
     Max number of k-points (npk) =  40000
     Max angular momentum in pseudopotentials (lmaxx) =  3

     IMPORTANT: XC functional enforced from input :
     Exchange-correlation      = RVV10 ( 1  4 13  4 3 0)
     Any further DFT definition will be discarded
     Please, verify this is what you really want

               file H.pbe-rrkjus.UPF: wavefunction(s)  1S renormalized

     Subspace diagonalization in iterative solution of the eigenvalue problem:
     a serial algorithm will be used

     bravais-lattice index     =            4
     lattice parameter (alat)  =      23.2937  a.u.
     unit-cell volume          =    8879.8548 (a.u.)^3
     number of atoms/cell      =           52
     number of atomic types    =            3
     number of electrons       =       214.00
     number of Kohn-Sham states=          128
     kinetic-energy cutoff     =      70.0000  Ry
     charge density cutoff     =     490.0000  Ry
     convergence threshold     =      1.0E-06
     mixing beta               =       0.3000
     number of iterations used =            4  plain     mixing
     Exchange-correlation      = RVV10 ( 1  4 13  4 3 0)

     celldm(1)=  23.293684  celldm(2)=   0.000000  celldm(3)=   0.811261
     celldm(4)=   0.000000  celldm(5)=   0.000000  celldm(6)=   0.000000

     crystal axes: (cart. coord. in units of alat)
               a(1) = (   1.000000   0.000000   0.000000 )
               a(2) = (  -0.500000   0.866025   0.000000 )
               a(3) = (   0.000000   0.000000   0.811261 )

     reciprocal axes: (cart. coord. in units 2 pi/alat)
               b(1) = (  1.000000  0.577350 -0.000000 )
               b(2) = (  0.000000  1.154701  0.000000 )
               b(3) = (  0.000000 -0.000000  1.232649 )

     PseudoPot. # 1 for H  read from file:
     /home/cristian/Escritorio/Proyecto_Grafeno/pseudopotenciales/H.pbe-rrkjus.UPF
     MD5 check sum: 7cc9d459525c9a0585f487a71c3c9563
     Pseudo is Ultrasoft, Zval =  1.0
     Generated by new atomic code, or converted to UPF format
     Using radial grid of 1061 points,  2 beta functions with:
                l(1) =   0
                l(2) =   0
     Q(r) pseudized with 0 coefficients

     PseudoPot. # 2 for C  read from file:
     /home/cristian/Escritorio/Proyecto_Grafeno/pseudopotenciales/C.pbe-n-rrkjus_psl.1.0.0.UPF
     MD5 check sum: 1fdd950c42eb37d8afe3dd2f8d12311e
     Pseudo is Ultrasoft + core correction, Zval =  4.0
     Generated using "atomic" code by A. Dal Corso v.6.3MaX
     Using radial grid of 1073 points,  4 beta functions with:
                l(1) =   0
                l(2) =   0
                l(3) =   1
                l(4) =   1
     Q(r) pseudized with 0 coefficients

     PseudoPot. # 3 for Fe read from file:
     /home/cristian/Escritorio/Proyecto_Grafeno/pseudopotenciales/Fe.pbe-spn-rrkjus_psl.1.0.0.UPF
     MD5 check sum: 72ea77fed8e64ab3a2ccf2804dfc1862
     Pseudo is Ultrasoft + core correction, Zval = 16.0
     Generated using "atomic" code by A. Dal Corso v.6.3
     Using radial grid of 1191 points,  6 beta functions with:
                l(1) =   0
                l(2) =   0
                l(3) =   1
                l(4) =   1
                l(5) =   2
                l(6) =   2
     Q(r) pseudized with 0 coefficients

     vdW kernel table read from file rVV10_kernel_table
     MD5 check sum: b8e2538accc0c0b3206b45ba4daaba6c

     atomic species   valence    mass     pseudopotential
        H              1.00     1.00794     H ( 1.00)
        C              4.00    12.01070     C ( 1.00)
        Fe            16.00    55.84500     Fe( 1.00)

     Starting magnetic structure
     atomic species   magnetization
        H            0.500
        C            0.300
        Fe           0.800

     No symmetry found

                                    s                        frac. trans.

      isym =  1     identity

 cryst.   s( 1) = (     1          0          0      )
                  (     0          1          0      )
                  (     0          0          1      )

 cart.    s( 1) = (  1.0000000  0.0000000  0.0000000 )
                  (  0.0000000  1.0000000  0.0000000 )
                  (  0.0000000  0.0000000  1.0000000 )

     point group C_1 (1)
     there are  1 classes
     the character table:

       E
A      1.00

     the symmetry operations in each class and the name of the first element:

     E        1
          identity

   Cartesian axes

     site n.     atom                  positions (alat units)
         1           H   tau(   1) = (   0.2666667   0.4618802   0.4056306  )
         2           H   tau(   2) = (   0.2666667   0.4618802   0.4666433  )
         3           C   tau(   3) = (   0.0000000   0.0000000   0.0000000  )
         4           C   tau(   4) = (   0.0000000   0.1154701   0.0000000  )
         5           C   tau(   5) = (  -0.1000000   0.1732051   0.0000000  )
         6           C   tau(   6) = (  -0.1000000   0.2886751   0.0000000  )
         7           C   tau(   7) = (  -0.2000000   0.3464102   0.0000000  )
         8           C   tau(   8) = (  -0.2000000   0.4618802   0.0000000  )
         9           C   tau(   9) = (  -0.3000000   0.5196152   0.0000000  )
        10           C   tau(  10) = (  -0.3000000   0.6350853   0.0000000  )
        11           C   tau(  11) = (  -0.4000000   0.6928203   0.0000000  )
        12           C   tau(  12) = (  -0.4000000   0.8082904   0.0000000  )
        13           C   tau(  13) = (   0.2000000   0.0000000   0.0000000  )
        14           C   tau(  14) = (   0.2000000   0.1154701   0.0000000  )
        15           C   tau(  15) = (   0.1000000   0.1732051   0.0000000  )
        16           C   tau(  16) = (   0.1000000   0.2886751   0.0000000  )
        17           C   tau(  17) = (   0.0000000   0.3464102   0.0000000  )
        18           C   tau(  18) = (   0.0000000   0.4618802   0.0000000  )
        19           C   tau(  19) = (  -0.1000000   0.5196152   0.0000000  )
        20           C   tau(  20) = (  -0.1000000   0.6350853   0.0000000  )
        21           C   tau(  21) = (  -0.2000000   0.6928203   0.0000000  )
        22           C   tau(  22) = (  -0.2000000   0.8082904   0.0000000  )
        23           C   tau(  23) = (   0.4000000   0.0000000   0.0000000  )
        24           C   tau(  24) = (   0.4000000   0.1154701   0.0000000  )
        25           C   tau(  25) = (   0.3000000   0.1732051   0.0000000  )
        26           C   tau(  26) = (   0.3000000   0.2886751   0.0000000  )
        27           C   tau(  27) = (   0.2000000   0.3464102   0.0000000  )
        28           Fe  tau(  28) = (   0.2000000   0.4618802   0.0000000  )
        29           C   tau(  29) = (   0.1000000   0.5196152   0.0000000  )
        30           C   tau(  30) = (   0.1000000   0.6350853   0.0000000  )
        31           C   tau(  31) = (   0.0000000   0.6928203   0.0000000  )
        32           C   tau(  32) = (   0.0000000   0.8082904   0.0000000  )
        33           C   tau(  33) = (   0.6000000   0.0000000   0.0000000  )
        34           C   tau(  34) = (   0.6000000   0.1154701   0.0000000  )
        35           C   tau(  35) = (   0.5000000   0.1732051   0.0000000  )
        36           C   tau(  36) = (   0.5000000   0.2886751   0.0000000  )
        37           C   tau(  37) = (   0.4000000   0.3464102   0.0000000  )
        38           C   tau(  38) = (   0.4000000   0.4618802   0.0000000  )
        39           C   tau(  39) = (   0.3000000   0.5196152   0.0000000  )
        40           C   tau(  40) = (   0.3000000   0.6350853   0.0000000  )
        41           C   tau(  41) = (   0.2000000   0.6928203   0.0000000  )
        42           C   tau(  42) = (   0.2000000   0.8082904   0.0000000  )
        43           C   tau(  43) = (   0.8000000   0.0000000   0.0000000  )
        44           C   tau(  44) = (   0.8000000   0.1154701   0.0000000  )
        45           C   tau(  45) = (   0.7000000   0.1732051   0.0000000  )
        46           C   tau(  46) = (   0.7000000   0.2886751   0.0000000  )
        47           C   tau(  47) = (   0.6000000   0.3464102   0.0000000  )
        48           C   tau(  48) = (   0.6000000   0.4618802   0.0000000  )
        49           C   tau(  49) = (   0.5000000   0.5196152   0.0000000  )
        50           C   tau(  50) = (   0.5000000   0.6350853   0.0000000  )
        51           C   tau(  51) = (   0.4000000   0.6928203   0.0000000  )
        52           C   tau(  52) = (   0.4000000   0.8082904   0.0000000  )

   Crystallographic axes

     site n.     atom                  positions (cryst. coord.)
         1           H   tau(   1) = (  0.5333333  0.5333333  0.5000000  )
         2           H   tau(   2) = (  0.5333333  0.5333333  0.5752072  )
         3           C   tau(   3) = (  0.0000000  0.0000000  0.0000000  )
         4           C   tau(   4) = (  0.0666667  0.1333333  0.0000000  )
         5           C   tau(   5) = (  0.0000000  0.2000000  0.0000000  )
         6           C   tau(   6) = (  0.0666667  0.3333333  0.0000000  )
         7           C   tau(   7) = (  0.0000000  0.4000000  0.0000000  )
         8           C   tau(   8) = (  0.0666667  0.5333333  0.0000000  )
         9           C   tau(   9) = (  0.0000000  0.6000000  0.0000000  )
        10           C   tau(  10) = (  0.0666667  0.7333333  0.0000000  )
        11           C   tau(  11) = (  0.0000000  0.8000000  0.0000000  )
        12           C   tau(  12) = (  0.0666667  0.9333333  0.0000000  )
        13           C   tau(  13) = (  0.2000000  0.0000000  0.0000000  )
        14           C   tau(  14) = (  0.2666667  0.1333333  0.0000000  )
        15           C   tau(  15) = (  0.2000000  0.2000000  0.0000000  )
        16           C   tau(  16) = (  0.2666667  0.3333333  0.0000000  )
        17           C   tau(  17) = (  0.2000000  0.4000000  0.0000000  )
        18           C   tau(  18) = (  0.2666667  0.5333333  0.0000000  )
        19           C   tau(  19) = (  0.2000000  0.6000000  0.0000000  )
        20           C   tau(  20) = (  0.2666667  0.7333333  0.0000000  )
        21           C   tau(  21) = (  0.2000000  0.8000000  0.0000000  )
        22           C   tau(  22) = (  0.2666667  0.9333333  0.0000000  )
        23           C   tau(  23) = (  0.4000000  0.0000000  0.0000000  )
        24           C   tau(  24) = (  0.4666667  0.1333333  0.0000000  )
        25           C   tau(  25) = (  0.4000000  0.2000000  0.0000000  )
        26           C   tau(  26) = (  0.4666667  0.3333333  0.0000000  )
        27           C   tau(  27) = (  0.4000000  0.4000000  0.0000000  )
        28           Fe  tau(  28) = (  0.4666667  0.5333333  0.0000000  )
        29           C   tau(  29) = (  0.4000000  0.6000000  0.0000000  )
        30           C   tau(  30) = (  0.4666667  0.7333333  0.0000000  )
[...]
        42           C   tau(  42) = (  0.6666667  0.9333333  0.0000000  )
        43           C   tau(  43) = (  0.8000000  0.0000000  0.0000000  )
        44           C   tau(  44) = (  0.8666667  0.1333333  0.0000000  )
        45           C   tau(  45) = (  0.8000000  0.2000000  0.0000000  )
        46           C   tau(  46) = (  0.8666667  0.3333333  0.0000000  )
        47           C   tau(  47) = (  0.8000000  0.4000000  0.0000000  )
        48           C   tau(  48) = (  0.8666667  0.5333333  0.0000000  )
        49           C   tau(  49) = (  0.8000000  0.6000000  0.0000000  )
        50           C   tau(  50) = (  0.8666667  0.7333333  0.0000000  )
        51           C   tau(  51) = (  0.8000000  0.8000000  0.0000000  )
        52           C   tau(  52) = (  0.8666667  0.9333333  0.0000000  )

     number of k points=     1  Marzari-Vanderbilt smearing, width (Ry)=  0.0010
                       cart. coord. in units 2pi/alat
        k(    1) = (   0.0000000   0.0000000   0.0000000), wk =   1.0000000

                       cryst. coord.
        k(    1) = (   0.0000000   0.0000000   0.0000000), wk =   1.0000000

     Check: negative core charge=   -0.000002

     Initial potential from superposition of free atoms

     starting charge  213.80512, renormalised to  214.00000

     negative rho (up, down):  6.650E-05 9.258E-03

Carrying out rVV10 run using the following parameters:
Nqs =      20    Nr_points =    1024   r_max =   100.000
b_value =  6.30000    beta =  0.00901
     q_mesh =  0.00010000  0.00030000  0.00058939  0.00100810
               0.00161396  0.00249058  0.00375900  0.00559430
               0.00824984  0.01209221  0.01765183  0.02569619
               0.03733578  0.05417739  0.07854596  0.11380545
               0.16482331  0.23864234  0.34545298  0.50000000

Gradients computed in Reciprocal space

     Starting wfcs are  208 randomized atomic wfcs

     Self-consistent Calculation

     iteration #  1     ecut=    70.00 Ry     beta= 0.30
     Davidson diagonalization with overlap
     ethr =  1.00E-02,  avg # of iterations =  2.5

[...]

     total energy              =    -858.11338846 Ry
     Harris-Foulkes estimate   =    -858.63381637 Ry
     estimated scf accuracy    <      10.05470369 Ry

     total magnetization       =     6.00 Bohr mag/cell
     absolute magnetization    =     6.66 Bohr mag/cell

[...]

     Magnetic moment per site:
     atom:    1    charge:    0.2118    magn:   -0.0000    constr:    0.0000
     atom:    2    charge:    0.2109    magn:   -0.0000    constr:    0.0000
     atom:    3    charge:    1.7172    magn:   -0.0124    constr:    0.0000
     atom:    4    charge:    1.7152    magn:    0.0177    constr:    0.0000
     atom:    5    charge:    1.7177    magn:   -0.0082    constr:    0.0000
     atom:    6    charge:    1.7141    magn:    0.0055    constr:    0.0000
     atom:    7    charge:    1.7177    magn:   -0.0082    constr:    0.0000
     atom:    8    charge:    1.7152    magn:    0.0177    constr:    0.0000
     atom:    9    charge:    1.7172    magn:   -0.0124    constr:    0.0000
     atom:   10    charge:    1.7148    magn:    0.0590    constr:    0.0000
     atom:   11    charge:    1.7176    magn:   -0.0171    constr:    0.0000
     atom:   12    charge:    1.7148    magn:    0.0588    constr:    0.0000
     atom:   13    charge:    1.7176    magn:   -0.0171    constr:    0.0000
     atom:   14    charge:    1.7155    magn:    0.0459    constr:    0.0000
     atom:   15    charge:    1.7140    magn:   -0.0133    constr:    0.0000
     atom:   16    charge:    1.7106    magn:    0.0552    constr:    0.0000
     atom:   17    charge:    1.7230    magn:   -0.0113    constr:    0.0000
     atom:   18    charge:    1.7106    magn:    0.0554    constr:    0.0000
     atom:   19    charge:    1.7140    magn:   -0.0134    constr:    0.0000
     atom:   20    charge:    1.7155    magn:    0.0460    constr:    0.0000
     atom:   21    charge:    1.7176    magn:   -0.0172    constr:    0.0000
     atom:   22    charge:    1.7148    magn:    0.0591    constr:    0.0000
     atom:   23    charge:    1.7172    magn:   -0.0124    constr:    0.0000
     atom:   24    charge:    1.7152    magn:    0.0176    constr:    0.0000
     atom:   25    charge:    1.7140    magn:   -0.0132    constr:    0.0000
     atom:   26    charge:    1.7106    magn:    0.0552    constr:    0.0000
     atom:   27    charge:    1.8521    magn:   -0.0180    constr:    0.0000
     atom:   28    charge:   11.1428    magn:    0.4652    constr:    0.0000
     atom:   29    charge:    1.8521    magn:   -0.0181    constr:    0.0000
     atom:   30    charge:    1.7106    magn:    0.0554    constr:    0.0000
     atom:   31    charge:    1.7140    magn:   -0.0134    constr:    0.0000
     atom:   32    charge:    1.7152    magn:    0.0176    constr:    0.0000
     atom:   33    charge:    1.7177    magn:   -0.0082    constr:    0.0000
     atom:   34    charge:    1.7138    magn:    0.0124    constr:    0.0000
     atom:   35    charge:    1.7177    magn:   -0.0081    constr:    0.0000
     atom:   36    charge:    1.7141    magn:    0.0053    constr:    0.0000
     atom:   37    charge:    1.7230    magn:   -0.0110    constr:    0.0000
     atom:   38    charge:    1.7106    magn:    0.0551    constr:    0.0000
     atom:   39    charge:    1.8521    magn:   -0.0180    constr:    0.0000
     atom:   40    charge:    1.7106    magn:    0.0551    constr:    0.0000
     atom:   41    charge:    1.7230    magn:   -0.0112    constr:    0.0000
     atom:   42    charge:    1.7141    magn:    0.0054    constr:    0.0000
     atom:   43    charge:    1.7177    magn:   -0.0081    constr:    0.0000
     atom:   44    charge:    1.7138    magn:    0.0124    constr:    0.0000
     atom:   45    charge:    1.7238    magn:   -0.0039    constr:    0.0000
     atom:   46    charge:    1.7138    magn:    0.0124    constr:    0.0000
     atom:   47    charge:    1.7177    magn:   -0.0081    constr:    0.0000
     atom:   48    charge:    1.7152    magn:    0.0175    constr:    0.0000
     atom:   49    charge:    1.7140    magn:   -0.0131    constr:    0.0000
     atom:   50    charge:    1.7155    magn:    0.0459    constr:    0.0000
     atom:   51    charge:    1.7140    magn:   -0.0132    constr:    0.0000
     atom:   52    charge:    1.7152    magn:    0.0176    constr:    0.0000

[...]

     total energy              =    -860.05391033 Ry
     Harris-Foulkes estimate   =    -860.05391079 Ry
     estimated scf accuracy    <       0.00000274 Ry

[...]

     iteration #117     ecut=    70.00 Ry     beta= 0.30
     Davidson diagonalization with overlap
     ethr =  1.28E-09,  avg # of iterations =  2.0

     negative rho (up, down):  5.328E-04 7.179E-03

     Magnetic moment per site:
     atom:    1    charge:    0.2118    magn:   -0.0000    constr:    0.0000
     atom:    2    charge:    0.2109    magn:   -0.0000    constr:    0.0000
     atom:    3    charge:    1.7172    magn:   -0.0126    constr:    0.0000
     atom:    4    charge:    1.7152    magn:    0.0179    constr:    0.0000
     atom:    5    charge:    1.7177    magn:   -0.0083    constr:    0.0000
     atom:    6    charge:    1.7141    magn:    0.0057    constr:    0.0000
     atom:    7    charge:    1.7177    magn:   -0.0083    constr:    0.0000
     atom:    8    charge:    1.7152    magn:    0.0179    constr:    0.0000
     atom:    9    charge:    1.7172    magn:   -0.0126    constr:    0.0000
     atom:   10    charge:    1.7148    magn:    0.0589    constr:    0.0000
     atom:   11    charge:    1.7176    magn:   -0.0173    constr:    0.0000
     atom:   12    charge:    1.7148    magn:    0.0589    constr:    0.0000
     atom:   13    charge:    1.7176    magn:   -0.0173    constr:    0.0000
     atom:   14    charge:    1.7155    magn:    0.0461    constr:    0.0000
     atom:   15    charge:    1.7140    magn:   -0.0135    constr:    0.0000
     atom:   16    charge:    1.7106    magn:    0.0554    constr:    0.0000
     atom:   17    charge:    1.7230    magn:   -0.0112    constr:    0.0000
     atom:   18    charge:    1.7106    magn:    0.0554    constr:    0.0000
     atom:   19    charge:    1.7140    magn:   -0.0136    constr:    0.0000
     atom:   20    charge:    1.7155    magn:    0.0461    constr:    0.0000
     atom:   21    charge:    1.7176    magn:   -0.0173    constr:    0.0000
     atom:   22    charge:    1.7148    magn:    0.0589    constr:    0.0000
     atom:   23    charge:    1.7172    magn:   -0.0126    constr:    0.0000
     atom:   24    charge:    1.7152    magn:    0.0178    constr:    0.0000
     atom:   25    charge:    1.7140    magn:   -0.0135    constr:    0.0000
     atom:   26    charge:    1.7106    magn:    0.0553    constr:    0.0000
     atom:   27    charge:    1.8521    magn:   -0.0184    constr:    0.0000
     atom:   28    charge:   11.1431    magn:    0.4658    constr:    0.0000
     atom:   29    charge:    1.8521    magn:   -0.0184    constr:    0.0000
     atom:   30    charge:    1.7106    magn:    0.0554    constr:    0.0000
     atom:   31    charge:    1.7140    magn:   -0.0136    constr:    0.0000
     atom:   32    charge:    1.7152    magn:    0.0179    constr:    0.0000
     atom:   33    charge:    1.7177    magn:   -0.0083    constr:    0.0000
     atom:   34    charge:    1.7138    magn:    0.0125    constr:    0.0000
     atom:   35    charge:    1.7177    magn:   -0.0083    constr:    0.0000
     atom:   36    charge:    1.7141    magn:    0.0057    constr:    0.0000
     atom:   37    charge:    1.7230    magn:   -0.0112    constr:    0.0000
     atom:   38    charge:    1.7106    magn:    0.0553    constr:    0.0000
     atom:   39    charge:    1.8521    magn:   -0.0184    constr:    0.0000
     atom:   40    charge:    1.7106    magn:    0.0554    constr:    0.0000
     atom:   41    charge:    1.7230    magn:   -0.0112    constr:    0.0000
     atom:   42    charge:    1.7141    magn:    0.0057    constr:    0.0000
     atom:   43    charge:    1.7177    magn:   -0.0083    constr:    0.0000
     atom:   44    charge:    1.7138    magn:    0.0125    constr:    0.0000
     atom:   45    charge:    1.7238    magn:   -0.0037    constr:    0.0000
     atom:   46    charge:    1.7138    magn:    0.0125    constr:    0.0000
     atom:   47    charge:    1.7177    magn:   -0.0083    constr:    0.0000
     atom:   48    charge:    1.7152    magn:    0.0178    constr:    0.0000
     atom:   49    charge:    1.7140    magn:   -0.0135    constr:    0.0000
     atom:   50    charge:    1.7155    magn:    0.0461    constr:    0.0000
     atom:   51    charge:    1.7140    magn:   -0.0135    constr:    0.0000
     atom:   52    charge:    1.7152    magn:    0.0179    constr:    0.0000

     End of self-consistent calculation

 ------ SPIN UP ------------

          k = 0.0000 0.0000 0.0000 ( 87777 PWs)   bands (ev):

   -88.7506 -55.6297 -55.6296 -53.9400 -19.8847 -19.0516 -19.0512 -18.9609
   -18.9228 -18.9226 -18.5826 -17.1744 -17.1743 -17.1742 -17.1031 -17.1030
   -16.7966 -16.3281 -16.3280 -16.2238 -16.1751 -16.1750 -15.4854 -14.2339
   -14.2337 -14.1445 -14.0962 -14.0961 -13.4256 -13.1619 -13.1618 -13.1366
   -12.8568 -12.8568 -12.4507 -11.9417 -11.9416 -11.7510 -11.5054 -11.5054
   -10.6270  -9.7957  -9.7957  -9.5305  -9.4187  -9.4187  -9.3346  -9.3026
    -9.3026  -9.2896  -8.8255  -8.8254  -8.2836  -8.2835  -8.1973  -8.0329
    -7.9339  -7.5442  -7.5441  -7.3387  -7.2301  -7.2294  -7.0803  -7.0802
    -6.9425  -6.9190  -6.9188  -6.8111  -6.6660  -6.6659  -6.6338  -6.6216
    -6.6215  -6.5845  -6.5742  -6.3038  -5.7372  -5.7371  -5.6859  -5.6854
    -5.4794  -5.4794  -5.2976  -5.0899  -4.9763  -4.8423  -4.8153  -4.8151
    -4.5408  -4.5407  -4.5018  -4.3359  -4.3359  -3.9790  -3.9787  -3.8897
    -3.7804  -3.7803  -3.2105  -2.9037  -2.9036  -1.9743  -1.9029  -1.9027
    -1.3108  -1.3103  -1.1305  -0.8924   0.8231   0.8709   0.8711   1.3937
     1.3940   1.5064   2.3641   2.3644   2.5211   2.6651   2.6653   2.7665
     3.2943   3.2951   3.4158   3.6513   3.6771   3.7252   3.7515   3.8592

     occupation numbers
     1.0000   1.0000   1.0000   1.0000   1.0000   1.0000   1.0000   1.0000
     1.0000   1.0000   1.0000   1.0000   1.0000   1.0000   1.0000   1.0000
     1.0000   1.0000   1.0000   1.0000   1.0000   1.0000   1.0000   1.0000
     1.0000   1.0000   1.0000   1.0000   1.0000   1.0000   1.0000   1.0000
     1.0000   1.0000   1.0000   1.0000   1.0000   1.0000   1.0000   1.0000
     1.0000   1.0000   1.0000   1.0000   1.0000   1.0000   1.0000   1.0000
     1.0000   1.0000   1.0000   1.0000   1.0000   1.0000   1.0000   1.0000
     1.0000   1.0000   1.0000   1.0000   1.0000   1.0000   1.0000   1.0000
     1.0000   1.0000   1.0000   1.0000   1.0000   1.0000   1.0000   1.0000
     1.0000   1.0000   1.0000   1.0000   1.0000   1.0000   1.0000   1.0000
     1.0000   1.0000   1.0000   1.0000   1.0000   1.0000   1.0000   1.0000
     1.0000   1.0000   1.0000   1.0000   1.0000   1.0000   1.0000   1.0000
     1.0000   1.0000   1.0000   1.0000   1.0000   1.0000   1.0000   1.0000
     1.0000   1.0000   1.0000   1.0309   0.0000   0.0000   0.0000   0.0000
     0.0000   0.0000   0.0000   0.0000   0.0000   0.0000   0.0000   0.0000
     0.0000   0.0000   0.0000   0.0000   0.0000   0.0000   0.0000   0.0000

 ------ SPIN DOWN ----------

          k = 0.0000 0.0000 0.0000 ( 87777 PWs)   bands (ev):

   -88.0090 -55.0263 -55.0262 -53.0174 -19.8418 -19.0044 -19.0041 -18.9200
   -18.8959 -18.8957 -18.5226 -17.1465 -17.1369 -17.1368 -17.0483 -17.0482
   -16.7653 -16.2822 -16.2821 -16.1885 -16.1307 -16.1306 -15.4598 -14.1618
   -14.1616 -14.0859 -14.0858 -14.0814 -13.4301 -13.1363 -13.1363 -13.1040
   -12.8370 -12.8369 -12.4191 -11.9034 -11.9033 -11.7273 -11.4827 -11.4826
   -10.6027  -9.7449  -9.7448  -9.4984  -9.3860  -9.3860  -9.3172  -9.2787
    -9.2786  -9.2711  -8.8123  -8.8123  -8.2469  -8.2469  -8.1765  -7.9336
    -7.9163  -7.5292  -7.5291  -7.3052  -7.0615  -7.0609  -7.0323  -7.0322
    -6.8582  -6.8580  -6.8400  -6.7957  -6.6489  -6.6488  -6.6229  -6.6079
    -6.6078  -6.5557  -6.4463  -6.3032  -5.6888  -5.6888  -5.4452  -5.4447
    -5.4367  -5.4367  -5.2082  -5.0758  -4.9662  -4.7670  -4.7211  -4.7209
    -4.4561  -4.4560  -4.4256  -4.2074  -4.2073  -3.8437  -3.8433  -3.7899
    -3.7653  -3.7652  -3.1635  -2.6687  -2.6686  -1.8747  -1.8746  -1.8121
    -0.8988  -0.8748  -0.8021  -0.8014   0.9197   0.9199   0.9809   1.5520
     1.5521   1.6323   2.5186   2.5188   2.5356   2.8075   2.8079   2.8433
     3.4539   3.4553   3.5102   3.6694   3.6935   3.7341   3.7379   3.7579

     occupation numbers
     1.0000   1.0000   1.0000   1.0000   1.0000   1.0000   1.0000   1.0000
     1.0000   1.0000   1.0000   1.0000   1.0000   1.0000   1.0000   1.0000
     1.0000   1.0000   1.0000   1.0000   1.0000   1.0000   1.0000   1.0000
     1.0000   1.0000   1.0000   1.0000   1.0000   1.0000   1.0000   1.0000
     1.0000   1.0000   1.0000   1.0000   1.0000   1.0000   1.0000   1.0000
     1.0000   1.0000   1.0000   1.0000   1.0000   1.0000   1.0000   1.0000
     1.0000   1.0000   1.0000   1.0000   1.0000   1.0000   1.0000   1.0000
     1.0000   1.0000   1.0000   1.0000   1.0000   1.0000   1.0000   1.0000
     1.0000   1.0000   1.0000   1.0000   1.0000   1.0000   1.0000   1.0000
     1.0000   1.0000   1.0000   1.0000   1.0000   1.0000   1.0000   1.0000
     1.0000   1.0000   1.0000   1.0000   1.0000   1.0000   1.0000   1.0000
     1.0000   1.0000   1.0000   1.0000   1.0000   1.0000   1.0000   1.0000
     1.0000   1.0000   1.0000   1.0000   1.0000   1.0000   1.0000   1.0000
     1.0076   0.9615   0.0000   0.0000   0.0000   0.0000   0.0000   0.0000
     0.0000   0.0000   0.0000   0.0000   0.0000   0.0000   0.0000   0.0000
     0.0000   0.0000   0.0000   0.0000   0.0000   0.0000   0.0000   0.0000

     the Fermi energy is    -0.8635 ev

!    total energy              =    -860.05391084 Ry
     Harris-Foulkes estimate   =    -860.05391069 Ry
     estimated scf accuracy    <       0.00000027 Ry

     The total energy is the sum of the following terms:

     one-electron contribution =   -2779.03500052 Ry
     hartree contribution      =    1433.31305071 Ry
     xc contribution           =    -259.30142389 Ry
     ewald contribution        =     744.96931771 Ry
     smearing contrib. (-TS)   =       0.00014515 Ry

     total magnetization       =     2.06 Bohr mag/cell
     absolute magnetization    =     3.19 Bohr mag/cell

     convergence has been achieved in 117 iterations

     Writing output data file gr-12-baricentro.save/

     General routines

     Parallel routines

   This run was terminated on:   0:35:53  17Nov2022

   JOB DONE.