     Program PWSCF v.6.4.1 starts on 20Nov2022 at 17:19: 4

     R & G space division:  proc/nbgrp/npool/nimage =       6
     Reading input from distance-2.8.in

     Current dimensions of program PWSCF are:
     Max number of different atomic species (ntypx) = 10
     Max number of k-points (npk) =  40000
     Max angular momentum in pseudopotentials (lmaxx) =  3

     IMPORTANT: XC functional enforced from input :
     Exchange-correlation      = RVV10 ( 1  4 13  4 3 0)
     Any further DFT definition will be discarded
     Please, verify this is what you really want

               file H.pbe-rrkjus.UPF: wavefunction(s)  1S renormalized

     Subspace diagonalization in iterative solution of the eigenvalue problem:
     a serial algorithm will be used

     bravais-lattice index     =            4
     lattice parameter (alat)  =      23.2937  a.u.
     unit-cell volume          =    8879.8548 (a.u.)^3
     number of atoms/cell      =           52
     number of atomic types    =            3
     number of electrons       =       214.00
     number of Kohn-Sham states=          128
     kinetic-energy cutoff     =      70.0000  Ry
     charge density cutoff     =     490.0000  Ry
     convergence threshold     =      1.0E-06
     mixing beta               =       0.3000
     number of iterations used =            4  plain     mixing
     Exchange-correlation      = RVV10 ( 1  4 13  4 3 0)

     celldm(1)=  23.293684  celldm(2)=   0.000000  celldm(3)=   0.811261
     celldm(4)=   0.000000  celldm(5)=   0.000000  celldm(6)=   0.000000

     crystal axes: (cart. coord. in units of alat)
               a(1) = (   1.000000   0.000000   0.000000 )
               a(2) = (  -0.500000   0.866025   0.000000 )
               a(3) = (   0.000000   0.000000   0.811261 )

     reciprocal axes: (cart. coord. in units 2 pi/alat)
               b(1) = (  1.000000  0.577350 -0.000000 )
               b(2) = (  0.000000  1.154701  0.000000 )
               b(3) = (  0.000000 -0.000000  1.232649 )

     PseudoPot. # 1 for H  read from file:
     /home/cristian/Escritorio/Proyecto_Grafeno/pseudopotenciales/H.pbe-rrkjus.UPF
     MD5 check sum: 7cc9d459525c9a0585f487a71c3c9563
     Pseudo is Ultrasoft, Zval =  1.0
     Generated by new atomic code, or converted to UPF format
     Using radial grid of 1061 points,  2 beta functions with:
                l(1) =   0
                l(2) =   0
     Q(r) pseudized with 0 coefficients

     PseudoPot. # 2 for C  read from file:
     /home/cristian/Escritorio/Proyecto_Grafeno/pseudopotenciales/C.pbe-n-rrkjus_psl.1.0.0.UPF
     MD5 check sum: 1fdd950c42eb37d8afe3dd2f8d12311e
     Pseudo is Ultrasoft + core correction, Zval =  4.0
     Generated using "atomic" code by A. Dal Corso v.6.3MaX
     Using radial grid of 1073 points,  4 beta functions with:
                l(1) =   0
                l(2) =   0
                l(3) =   1
                l(4) =   1
     Q(r) pseudized with 0 coefficients

     PseudoPot. # 3 for Fe read from file:
     /home/cristian/Escritorio/Proyecto_Grafeno/pseudopotenciales/Fe.pbe-spn-rrkjus_psl.1.0.0.UPF
     MD5 check sum: 72ea77fed8e64ab3a2ccf2804dfc1862
     Pseudo is Ultrasoft + core correction, Zval = 16.0
     Generated using "atomic" code by A. Dal Corso v.6.3
     Using radial grid of 1191 points,  6 beta functions with:
                l(1) =   0
                l(2) =   0
                l(3) =   1
                l(4) =   1
                l(5) =   2
                l(6) =   2
     Q(r) pseudized with 0 coefficients

     vdW kernel table read from file rVV10_kernel_table
     MD5 check sum: b8e2538accc0c0b3206b45ba4daaba6c

     atomic species   valence    mass     pseudopotential
        H              1.00     1.00794     H ( 1.00)
        C              4.00    12.01070     C ( 1.00)
        Fe            16.00    55.84500     Fe( 1.00)

     Starting magnetic structure
     atomic species   magnetization
        H            0.500
        C            0.300
        Fe           0.800

     No symmetry found

                                    s                        frac. trans.

      isym =  1     identity

 cryst.   s( 1) = (     1          0          0      )
                  (     0          1          0      )
                  (     0          0          1      )

 cart.    s( 1) = (  1.0000000  0.0000000  0.0000000 )
                  (  0.0000000  1.0000000  0.0000000 )
                  (  0.0000000  0.0000000  1.0000000 )

     point group C_1 (1)
     there are  1 classes
     the character table:

       E
A      1.00

     the symmetry operations in each class and the name of the first element:

     E        1
          identity

   Cartesian axes

     site n.     atom                  positions (alat units)
         1           H   tau(   1) = (   0.2666667   0.4618802   0.2271531  )
         2           H   tau(   2) = (   0.2666667   0.4618802   0.2881658  )
         3           C   tau(   3) = (   0.0000000   0.0000000   0.0000000  )
         4           C   tau(   4) = (   0.0000000   0.1154701   0.0000000  )
         5           C   tau(   5) = (  -0.1000000   0.1732051   0.0000000  )
         6           C   tau(   6) = (  -0.1000000   0.2886751   0.0000000  )
         7           C   tau(   7) = (  -0.2000000   0.3464102   0.0000000  )
         8           C   tau(   8) = (  -0.2000000   0.4618802   0.0000000  )
         9           C   tau(   9) = (  -0.3000000   0.5196152   0.0000000  )
        10           C   tau(  10) = (  -0.3000000   0.6350853   0.0000000  )
        11           C   tau(  11) = (  -0.4000000   0.6928203   0.0000000  )
        12           C   tau(  12) = (  -0.4000000   0.8082904   0.0000000  )
        13           C   tau(  13) = (   0.2000000   0.0000000   0.0000000  )
        14           C   tau(  14) = (   0.2000000   0.1154701   0.0000000  )
        15           C   tau(  15) = (   0.1000000   0.1732051   0.0000000  )
        16           C   tau(  16) = (   0.1000000   0.2886751   0.0000000  )
        17           C   tau(  17) = (   0.0000000   0.3464102   0.0000000  )
        18           C   tau(  18) = (   0.0000000   0.4618802   0.0000000  )
        19           C   tau(  19) = (  -0.1000000   0.5196152   0.0000000  )
        20           C   tau(  20) = (  -0.1000000   0.6350853   0.0000000  )
        21           C   tau(  21) = (  -0.2000000   0.6928203   0.0000000  )
        22           C   tau(  22) = (  -0.2000000   0.8082904   0.0000000  )
        23           C   tau(  23) = (   0.4000000   0.0000000   0.0000000  )
        24           C   tau(  24) = (   0.4000000   0.1154701   0.0000000  )
        25           C   tau(  25) = (   0.3000000   0.1732051   0.0000000  )
        26           C   tau(  26) = (   0.3000000   0.2886751   0.0000000  )
        27           C   tau(  27) = (   0.2000000   0.3464102   0.0000000  )
        28           Fe  tau(  28) = (   0.2000000   0.4618802   0.0000000  )
        29           C   tau(  29) = (   0.1000000   0.5196152   0.0000000  )
        30           C   tau(  30) = (   0.1000000   0.6350853   0.0000000  )
        31           C   tau(  31) = (   0.0000000   0.6928203   0.0000000  )
        32           C   tau(  32) = (   0.0000000   0.8082904   0.0000000  )
        33           C   tau(  33) = (   0.6000000   0.0000000   0.0000000  )
        34           C   tau(  34) = (   0.6000000   0.1154701   0.0000000  )
        35           C   tau(  35) = (   0.5000000   0.1732051   0.0000000  )
        36           C   tau(  36) = (   0.5000000   0.2886751   0.0000000  )
        37           C   tau(  37) = (   0.4000000   0.3464102   0.0000000  )
        38           C   tau(  38) = (   0.4000000   0.4618802   0.0000000  )
        39           C   tau(  39) = (   0.3000000   0.5196152   0.0000000  )
        40           C   tau(  40) = (   0.3000000   0.6350853   0.0000000  )
        41           C   tau(  41) = (   0.2000000   0.6928203   0.0000000  )
        42           C   tau(  42) = (   0.2000000   0.8082904   0.0000000  )
        43           C   tau(  43) = (   0.8000000   0.0000000   0.0000000  )
        44           C   tau(  44) = (   0.8000000   0.1154701   0.0000000  )
        45           C   tau(  45) = (   0.7000000   0.1732051   0.0000000  )
        46           C   tau(  46) = (   0.7000000   0.2886751   0.0000000  )
        47           C   tau(  47) = (   0.6000000   0.3464102   0.0000000  )
        48           C   tau(  48) = (   0.6000000   0.4618802   0.0000000  )
        49           C   tau(  49) = (   0.5000000   0.5196152   0.0000000  )
        50           C   tau(  50) = (   0.5000000   0.6350853   0.0000000  )
        51           C   tau(  51) = (   0.4000000   0.6928203   0.0000000  )
        52           C   tau(  52) = (   0.4000000   0.8082904   0.0000000  )

   Crystallographic axes

     site n.     atom                  positions (cryst. coord.)
         1           H   tau(   1) = (  0.5333333  0.5333333  0.2800000  )
         2           H   tau(   2) = (  0.5333333  0.5333333  0.3552072  )
         3           C   tau(   3) = (  0.0000000  0.0000000  0.0000000  )
         4           C   tau(   4) = (  0.0666667  0.1333333  0.0000000  )
         5           C   tau(   5) = (  0.0000000  0.2000000  0.0000000  )
         6           C   tau(   6) = (  0.0666667  0.3333333  0.0000000  )
         7           C   tau(   7) = (  0.0000000  0.4000000  0.0000000  )
         8           C   tau(   8) = (  0.0666667  0.5333333  0.0000000  )
         9           C   tau(   9) = (  0.0000000  0.6000000  0.0000000  )
        10           C   tau(  10) = (  0.0666667  0.7333333  0.0000000  )
        11           C   tau(  11) = (  0.0000000  0.8000000  0.0000000  )
        12           C   tau(  12) = (  0.0666667  0.9333333  0.0000000  )
        13           C   tau(  13) = (  0.2000000  0.0000000  0.0000000  )
        14           C   tau(  14) = (  0.2666667  0.1333333  0.0000000  )
        15           C   tau(  15) = (  0.2000000  0.2000000  0.0000000  )
        16           C   tau(  16) = (  0.2666667  0.3333333  0.0000000  )
        17           C   tau(  17) = (  0.2000000  0.4000000  0.0000000  )
        18           C   tau(  18) = (  0.2666667  0.5333333  0.0000000  )
        19           C   tau(  19) = (  0.2000000  0.6000000  0.0000000  )
        20           C   tau(  20) = (  0.2666667  0.7333333  0.0000000  )
        21           C   tau(  21) = (  0.2000000  0.8000000  0.0000000  )
        22           C   tau(  22) = (  0.2666667  0.9333333  0.0000000  )
        23           C   tau(  23) = (  0.4000000  0.0000000  0.0000000  )
        24           C   tau(  24) = (  0.4666667  0.1333333  0.0000000  )
        25           C   tau(  25) = (  0.4000000  0.2000000  0.0000000  )
        26           C   tau(  26) = (  0.4666667  0.3333333  0.0000000  )
        27           C   tau(  27) = (  0.4000000  0.4000000  0.0000000  )
        28           Fe  tau(  28) = (  0.4666667  0.5333333  0.0000000  )
        29           C   tau(  29) = (  0.4000000  0.6000000  0.0000000  )
        30           C   tau(  30) = (  0.4666667  0.7333333  0.0000000  )
        31           C   tau(  31) = (  0.4000000  0.8000000  0.0000000  )
        32           C   tau(  32) = (  0.4666667  0.9333333  0.0000000  )
        33           C   tau(  33) = (  0.6000000  0.0000000  0.0000000  )
        34           C   tau(  34) = (  0.6666667  0.1333333  0.0000000  )
        35           C   tau(  35) = (  0.6000000  0.2000000  0.0000000  )
        36           C   tau(  36) = (  0.6666667  0.3333333  0.0000000  )
        37           C   tau(  37) = (  0.6000000  0.4000000  0.0000000  )
        38           C   tau(  38) = (  0.6666667  0.5333333  0.0000000  )
        39           C   tau(  39) = (  0.6000000  0.6000000  0.0000000  )
        40           C   tau(  40) = (  0.6666667  0.7333333  0.0000000  )
        41           C   tau(  41) = (  0.6000000  0.8000000  0.0000000  )
        42           C   tau(  42) = (  0.6666667  0.9333333  0.0000000  )
        43           C   tau(  43) = (  0.8000000  0.0000000  0.0000000  )
        44           C   tau(  44) = (  0.8666667  0.1333333  0.0000000  )
        45           C   tau(  45) = (  0.8000000  0.2000000  0.0000000  )
        46           C   tau(  46) = (  0.8666667  0.3333333  0.0000000  )
        47           C   tau(  47) = (  0.8000000  0.4000000  0.0000000  )
        48           C   tau(  48) = (  0.8666667  0.5333333  0.0000000  )
        49           C   tau(  49) = (  0.8000000  0.6000000  0.0000000  )
        50           C   tau(  50) = (  0.8666667  0.7333333  0.0000000  )
        51           C   tau(  51) = (  0.8000000  0.8000000  0.0000000  )
        52           C   tau(  52) = (  0.8666667  0.9333333  0.0000000  )

     number of k points=     1  Marzari-Vanderbilt smearing, width (Ry)=  0.0010
                       cart. coord. in units 2pi/alat
        k(    1) = (   0.0000000   0.0000000   0.0000000), wk =   1.0000000

                       cryst. coord.
        k(    1) = (   0.0000000   0.0000000   0.0000000), wk =   1.0000000

     Check: negative core charge=   -0.000002

     Initial potential from superposition of free atoms

     starting charge  213.80512, renormalised to  214.00000

     negative rho (up, down):  5.809E-05 1.064E-02

Carrying out rVV10 run using the following parameters:
Nqs =      20    Nr_points =    1024   r_max =   100.000
b_value =  6.30000    beta =  0.00901
     q_mesh =  0.00010000  0.00030000  0.00058939  0.00100810
               0.00161396  0.00249058  0.00375900  0.00559430
               0.00824984  0.01209221  0.01765183  0.02569619
               0.03733578  0.05417739  0.07854596  0.11380545
               0.16482331  0.23864234  0.34545298  0.50000000

Gradients computed in Reciprocal space

     Starting wfcs are  208 randomized atomic wfcs

     Self-consistent Calculation

     iteration #  1     ecut=    70.00 Ry     beta= 0.30
     Davidson diagonalization with overlap
     ethr =  1.00E-02,  avg # of iterations =  2.5

[...]

     total energy              =    -858.04761862 Ry
     Harris-Foulkes estimate   =    -858.62905810 Ry
     estimated scf accuracy    <      10.19670957 Ry

     total magnetization       =     6.00 Bohr mag/cell
     absolute magnetization    =     6.65 Bohr mag/cell

[...]

     total energy              =    -860.05622296 Ry
     Harris-Foulkes estimate   =    -860.05622291 Ry
     estimated scf accuracy    <       0.00000122 Ry

[...]

     iteration # 74     ecut=    70.00 Ry     beta= 0.30
     Davidson diagonalization with overlap
     ethr =  5.69E-10,  avg # of iterations =  2.0

     negative rho (up, down):  5.913E-04 1.139E-02

     Magnetic moment per site:
     atom:    1    charge:    0.2101    magn:    0.0000    constr:    0.0000
     atom:    2    charge:    0.2125    magn:    0.0005    constr:    0.0000
     atom:    3    charge:    1.7171    magn:   -0.0124    constr:    0.0000
     atom:    4    charge:    1.7154    magn:    0.0166    constr:    0.0000
     atom:    5    charge:    1.7176    magn:   -0.0088    constr:    0.0000
     atom:    6    charge:    1.7143    magn:    0.0056    constr:    0.0000
     atom:    7    charge:    1.7176    magn:   -0.0089    constr:    0.0000
     atom:    8    charge:    1.7154    magn:    0.0167    constr:    0.0000
     atom:    9    charge:    1.7171    magn:   -0.0124    constr:    0.0000
     atom:   10    charge:    1.7149    magn:    0.0564    constr:    0.0000
     atom:   11    charge:    1.7174    magn:   -0.0157    constr:    0.0000
     atom:   12    charge:    1.7149    magn:    0.0562    constr:    0.0000
     atom:   13    charge:    1.7172    magn:   -0.0157    constr:    0.0000
     atom:   14    charge:    1.7156    magn:    0.0437    constr:    0.0000
     atom:   15    charge:    1.7138    magn:   -0.0120    constr:    0.0000
     atom:   16    charge:    1.7109    magn:    0.0548    constr:    0.0000
     atom:   17    charge:    1.7229    magn:   -0.0142    constr:    0.0000
     atom:   18    charge:    1.7109    magn:    0.0552    constr:    0.0000
     atom:   19    charge:    1.7138    magn:   -0.0121    constr:    0.0000
     atom:   20    charge:    1.7156    magn:    0.0438    constr:    0.0000
     atom:   21    charge:    1.7173    magn:   -0.0157    constr:    0.0000
     atom:   22    charge:    1.7159    magn:    0.0487    constr:    0.0000
     atom:   23    charge:    1.7167    magn:   -0.0117    constr:    0.0000
     atom:   24    charge:    1.7155    magn:    0.0154    constr:    0.0000
     atom:   25    charge:    1.7137    magn:   -0.0120    constr:    0.0000
     atom:   26    charge:    1.7117    magn:    0.0484    constr:    0.0000
     atom:   27    charge:    1.8523    magn:   -0.0195    constr:    0.0000
     atom:   28    charge:   11.1467    magn:    0.4841    constr:    0.0000
     atom:   29    charge:    1.8522    magn:   -0.0198    constr:    0.0000
     atom:   30    charge:    1.7116    magn:    0.0487    constr:    0.0000
     atom:   31    charge:    1.7137    magn:   -0.0122    constr:    0.0000
     atom:   32    charge:    1.7155    magn:    0.0155    constr:    0.0000
     atom:   33    charge:    1.7175    magn:   -0.0087    constr:    0.0000
     atom:   34    charge:    1.7142    magn:    0.0113    constr:    0.0000
     atom:   35    charge:    1.7175    magn:   -0.0087    constr:    0.0000
     atom:   36    charge:    1.7142    magn:    0.0054    constr:    0.0000
     atom:   37    charge:    1.7223    magn:   -0.0126    constr:    0.0000
     atom:   38    charge:    1.7118    magn:    0.0468    constr:    0.0000
     atom:   39    charge:    1.8518    magn:   -0.0195    constr:    0.0000
     atom:   40    charge:    1.7117    magn:    0.0466    constr:    0.0000
     atom:   41    charge:    1.7224    magn:   -0.0128    constr:    0.0000
     atom:   42    charge:    1.7142    magn:    0.0055    constr:    0.0000
     atom:   43    charge:    1.7176    magn:   -0.0088    constr:    0.0000
     atom:   44    charge:    1.7140    magn:    0.0125    constr:    0.0000
     atom:   45    charge:    1.7233    magn:   -0.0092    constr:    0.0000
     atom:   46    charge:    1.7140    magn:    0.0125    constr:    0.0000
     atom:   47    charge:    1.7176    magn:   -0.0088    constr:    0.0000
     atom:   48    charge:    1.7151    magn:    0.0176    constr:    0.0000
     atom:   49    charge:    1.7135    magn:   -0.0112    constr:    0.0000
     atom:   50    charge:    1.7163    magn:    0.0373    constr:    0.0000
     atom:   51    charge:    1.7135    magn:   -0.0112    constr:    0.0000
     atom:   52    charge:    1.7152    magn:    0.0176    constr:    0.0000

     End of self-consistent calculation

 ------ SPIN UP ------------

          k = 0.0000 0.0000 0.0000 ( 87777 PWs)   bands (ev):

   -88.8675 -55.7593 -55.7016 -54.0968 -19.8641 -19.0378 -19.0211 -18.9381
   -18.9141 -18.9088 -18.5798 -17.1662 -17.1554 -17.1544 -17.0898 -17.0844
   -16.7793 -16.3144 -16.3115 -16.2073 -16.1640 -16.1639 -15.4832 -14.2289
   -14.2116 -14.1318 -14.0795 -14.0768 -13.4209 -13.1496 -13.1452 -13.1200
   -12.8467 -12.8458 -12.4326 -11.9326 -11.9314 -11.7371 -11.4959 -11.4941
   -10.6233  -9.8037  -9.7995  -9.5210  -9.4011  -9.3996  -9.3141  -9.2836
    -9.2830  -9.2705  -8.8141  -8.8135  -8.2858  -8.2825  -8.1833  -8.0148
    -7.9192  -7.5286  -7.5252  -7.3410  -7.2404  -7.2309  -7.0773  -7.0770
    -6.9214  -6.9051  -6.8978  -6.8002  -6.6544  -6.6504  -6.6432  -6.6188
    -6.6085  -6.6044  -6.5606  -6.2027  -5.7464  -5.7401  -5.7225  -5.6998
    -5.4738  -5.4709  -5.3522  -5.0720  -4.9644  -4.8243  -4.7966  -4.7909
    -4.5546  -4.5483  -4.4790  -4.3295  -4.3178  -3.9549  -3.9541  -3.8654
    -3.7672  -3.7655  -3.2079  -2.9162  -2.9058  -1.9542  -1.8857  -1.8833
    -1.3754  -1.3220  -1.2235  -0.9063   0.8411   0.8878   0.8896   1.3972
     1.4098   1.5211   2.3006   2.3025   2.5333   2.6878   2.6892   2.7849
     3.2917   3.3014   3.4406   3.6673   3.6894   3.7365   3.7390   3.7591

     occupation numbers
     1.0000   1.0000   1.0000   1.0000   1.0000   1.0000   1.0000   1.0000
     1.0000   1.0000   1.0000   1.0000   1.0000   1.0000   1.0000   1.0000
     1.0000   1.0000   1.0000   1.0000   1.0000   1.0000   1.0000   1.0000
     1.0000   1.0000   1.0000   1.0000   1.0000   1.0000   1.0000   1.0000
     1.0000   1.0000   1.0000   1.0000   1.0000   1.0000   1.0000   1.0000
     1.0000   1.0000   1.0000   1.0000   1.0000   1.0000   1.0000   1.0000
     1.0000   1.0000   1.0000   1.0000   1.0000   1.0000   1.0000   1.0000
     1.0000   1.0000   1.0000   1.0000   1.0000   1.0000   1.0000   1.0000
     1.0000   1.0000   1.0000   1.0000   1.0000   1.0000   1.0000   1.0000
     1.0000   1.0000   1.0000   1.0000   1.0000   1.0000   1.0000   1.0000
     1.0000   1.0000   1.0000   1.0000   1.0000   1.0000   1.0000   1.0000
     1.0000   1.0000   1.0000   1.0000   1.0000   1.0000   1.0000   1.0000
     1.0000   1.0000   1.0000   1.0000   1.0000   1.0000   1.0000   1.0000
     1.0000   1.0000   1.0000   0.9718   0.0000   0.0000   0.0000   0.0000
     0.0000   0.0000   0.0000   0.0000   0.0000   0.0000   0.0000   0.0000
     0.0000   0.0000   0.0000   0.0000   0.0000   0.0000   0.0000   0.0000

 ------ SPIN DOWN ----------

          k = 0.0000 0.0000 0.0000 ( 87777 PWs)   bands (ev):

   -88.0960 -55.1131 -55.0958 -53.1317 -19.8266 -18.9930 -18.9792 -18.9031
   -18.8922 -18.8867 -18.5274 -17.1334 -17.1281 -17.1240 -17.0410 -17.0371
   -16.7527 -16.2723 -16.2716 -16.1788 -16.1252 -16.1246 -15.4606 -14.1604
   -14.1509 -14.0770 -14.0705 -14.0668 -13.4312 -13.1255 -13.1227 -13.0916
   -12.8291 -12.8283 -12.4039 -11.8985 -11.8961 -11.7173 -11.4749 -11.4748
   -10.6005  -9.7524  -9.7501  -9.4917  -9.3719  -9.3717  -9.2986  -9.2629
    -9.2622  -9.2552  -8.8020  -8.8015  -8.2484  -8.2451  -8.1618  -7.9283
    -7.9037  -7.5158  -7.5120  -7.3072  -7.0850  -7.0747  -7.0292  -7.0279
    -6.8516  -6.8485  -6.8288  -6.7863  -6.6348  -6.6285  -6.6091  -6.5968
    -6.5927  -6.5653  -6.5444  -6.1677  -5.6911  -5.6881  -5.4902  -5.4815
    -5.4312  -5.4292  -5.2328  -5.0590  -4.9562  -4.7552  -4.7152  -4.7137
    -4.4710  -4.4659  -4.4137  -4.2074  -4.2066  -3.8355  -3.8340  -3.7849
    -3.7534  -3.7518  -3.1680  -2.6919  -2.6870  -1.8612  -1.8587  -1.8126
    -0.9469  -0.9241  -0.8358  -0.8101   0.9296   0.9320   0.9791   1.5477
     1.5481   1.6334   2.4604   2.4666   2.5460   2.8125   2.8142   2.8463
     3.4414   3.4446   3.5260   3.6833   3.7050   3.7423   3.7479   3.7632

     occupation numbers
     1.0000   1.0000   1.0000   1.0000   1.0000   1.0000   1.0000   1.0000
     1.0000   1.0000   1.0000   1.0000   1.0000   1.0000   1.0000   1.0000
     1.0000   1.0000   1.0000   1.0000   1.0000   1.0000   1.0000   1.0000
     1.0000   1.0000   1.0000   1.0000   1.0000   1.0000   1.0000   1.0000
     1.0000   1.0000   1.0000   1.0000   1.0000   1.0000   1.0000   1.0000
     1.0000   1.0000   1.0000   1.0000   1.0000   1.0000   1.0000   1.0000
     1.0000   1.0000   1.0000   1.0000   1.0000   1.0000   1.0000   1.0000
     1.0000   1.0000   1.0000   1.0000   1.0000   1.0000   1.0000   1.0000
     1.0000   1.0000   1.0000   1.0000   1.0000   1.0000   1.0000   1.0000
     1.0000   1.0000   1.0000   1.0000   1.0000   1.0000   1.0000   1.0000
     1.0000   1.0000   1.0000   1.0000   1.0000   1.0000   1.0000   1.0000
     1.0000   1.0000   1.0000   1.0000   1.0000   1.0000   1.0000   1.0000
     1.0000   1.0000   1.0000   1.0000   1.0000   1.0000   1.0000   1.0000
     1.0000   1.0281   0.0000   0.0000   0.0000   0.0000   0.0000   0.0000
     0.0000   0.0000   0.0000   0.0000   0.0000   0.0000   0.0000   0.0000
     0.0000   0.0000   0.0000   0.0000   0.0000   0.0000   0.0000   0.0000

     the Fermi energy is    -0.8947 ev

!    total energy              =    -860.05622456 Ry
     Harris-Foulkes estimate   =    -860.05622351 Ry
     estimated scf accuracy    <       0.00000098 Ry

     The total energy is the sum of the following terms:

     one-electron contribution =   -2794.90223692 Ry
     hartree contribution      =    1441.28109405 Ry
     xc contribution           =    -259.32628392 Ry
     ewald contribution        =     752.89107582 Ry
     smearing contrib. (-TS)   =       0.00012640 Ry

     total magnetization       =     1.94 Bohr mag/cell
     absolute magnetization    =     3.10 Bohr mag/cell

     convergence has been achieved in  74 iterations

     Writing output data file gr-12-baricentro.save/

     General routines

     Parallel routines

   This run was terminated on:  19:28:56  20Nov2022

   JOB DONE.