     Program PWSCF v.6.4.1 starts on 18Mar2023 at 11: 9:33

     R & G space division:  proc/nbgrp/npool/nimage =       6
     Reading input from manganeso-sustitucion.in

     Current dimensions of program PWSCF are:
     Max number of different atomic species (ntypx) = 10
     Max number of k-points (npk) =  40000
     Max angular momentum in pseudopotentials (lmaxx) =  3

     IMPORTANT: XC functional enforced from input :
     Exchange-correlation      = RVV10 ( 1  4 13  4 3 0)
     Any further DFT definition will be discarded
     Please, verify this is what you really want

               file Mn.pbe-spn-rrkjus_psl.0.3.1.UPF: wavefunction(s)  3D renormalized

     Subspace diagonalization in iterative solution of the eigenvalue problem:
     a serial algorithm will be used

     bravais-lattice index     =            4
     lattice parameter (alat)  =      23.2937  a.u.
     unit-cell volume          =    8879.8548 (a.u.)^3
     number of atoms/cell      =           50
     number of atomic types    =            2
     number of electrons       =       211.00
     number of Kohn-Sham states=          127
     kinetic-energy cutoff     =      70.0000  Ry
     charge density cutoff     =     490.0000  Ry
     convergence threshold     =      1.0E-10
     mixing beta               =       0.7000
     number of iterations used =            8  plain     mixing
     Exchange-correlation      = RVV10 ( 1  4 13  4 3 0)
     nstep                     =           50

     celldm(1)=  23.293684  celldm(2)=   0.000000  celldm(3)=   0.811261
     celldm(4)=   0.000000  celldm(5)=   0.000000  celldm(6)=   0.000000

     crystal axes: (cart. coord. in units of alat)
               a(1) = (   1.000000   0.000000   0.000000 )
               a(2) = (  -0.500000   0.866025   0.000000 )
               a(3) = (   0.000000   0.000000   0.811261 )

     reciprocal axes: (cart. coord. in units 2 pi/alat)
               b(1) = (  1.000000  0.577350 -0.000000 )
               b(2) = (  0.000000  1.154701  0.000000 )
               b(3) = (  0.000000 -0.000000  1.232649 )

     PseudoPot. # 1 for C  read from file:
     /home/cristian/Escritorio/Proyecto_Grafeno/pseudopotenciales/C.pbe-n-rrkjus_psl.1.0.0.UPF
     MD5 check sum: 1fdd950c42eb37d8afe3dd2f8d12311e
     Pseudo is Ultrasoft + core correction, Zval =  4.0
     Generated using "atomic" code by A. Dal Corso v.6.3MaX
     Using radial grid of 1073 points,  4 beta functions with:
                l(1) =   0
                l(2) =   0
                l(3) =   1
                l(4) =   1
     Q(r) pseudized with 0 coefficients

     PseudoPot. # 2 for Mn read from file:
     /home/cristian/Escritorio/Proyecto_Grafeno/pseudopotenciales/Mn.pbe-spn-rrkjus_psl.0.3.1.UPF
     MD5 check sum: e1cac159bdd2ba70c18e85765a5d4279
     Pseudo is Ultrasoft + core correction, Zval = 15.0
     Generated using "atomic" code by A. Dal Corso v.6.2.2
     Using radial grid of 1187 points,  6 beta functions with:
                l(1) =   0
                l(2) =   0
                l(3) =   1
                l(4) =   1
                l(5) =   2
                l(6) =   2
     Q(r) pseudized with 0 coefficients

     vdW kernel table read from file rVV10_kernel_table
     MD5 check sum: b8e2538accc0c0b3206b45ba4daaba6c

     atomic species   valence    mass     pseudopotential
        C              4.00    12.01070     C ( 1.00)
        Mn            15.00    54.93804     Mn( 1.00)

     Starting magnetic structure
     atomic species   magnetization
        C            0.000
        Mn           0.300

      4 Sym. Ops. (no inversion) found

                                    s                        frac. trans.

      isym =  1     identity

 cryst.   s( 1) = (     1          0          0      )
                  (     0          1          0      )
                  (     0          0          1      )

 cart.    s( 1) = (  1.0000000  0.0000000  0.0000000 )
                  (  0.0000000  1.0000000  0.0000000 )
                  (  0.0000000  0.0000000  1.0000000 )

      isym =  2     180 deg rotation - cryst. axis [1,-1,0]

[...]

      isym =  3     inv. 180 deg rotation - cart. axis [0,0,1]

[...]

      isym =  4     inv. 180 deg rotation - cryst. axis [1,1,0]

 cryst.   s( 4) = (     0         -1          0      )
                  (    -1          0          0      )
                  (     0          0          1      )

 cart.    s( 4) = (  0.5000000 -0.8660254  0.0000000 )
                  ( -0.8660254 -0.5000000  0.0000000 )
                  (  0.0000000  0.0000000  1.0000000 )

     point group C_2v (mm2)
     there are  4 classes
     the character table:

       E     C2    s_v   s_v'
A_1    1.00  1.00  1.00  1.00
A_2    1.00  1.00 -1.00 -1.00
B_1    1.00 -1.00  1.00 -1.00
B_2    1.00 -1.00 -1.00  1.00

     the symmetry operations in each class and the name of the first element:

     E        1
          identity
     C2       2
          180 deg rotation - cryst. axis [1,-1,0]
     s_v      4
          inv. 180 deg rotation - cryst. axis [1,1,0]
     s_v'     3
          inv. 180 deg rotation - cart. axis [0,0,1]

   Cartesian axes

     site n.     atom                  positions (alat units)
         1           C   tau(   1) = (   0.0000000   0.0000000   0.0000000  )
         2           C   tau(   2) = (   0.0000000   0.1154701   0.0000000  )
         3           C   tau(   3) = (  -0.1000000   0.1732051   0.0000000  )
         4           C   tau(   4) = (  -0.1000000   0.2886751   0.0000000  )
         5           C   tau(   5) = (  -0.2000000   0.3464102   0.0000000  )
         6           C   tau(   6) = (  -0.2000000   0.4618802   0.0000000  )
         7           C   tau(   7) = (  -0.3000000   0.5196152   0.0000000  )
         8           C   tau(   8) = (  -0.3000000   0.6350853   0.0000000  )
         9           C   tau(   9) = (  -0.4000000   0.6928203   0.0000000  )
        10           C   tau(  10) = (  -0.4000000   0.8082904   0.0000000  )
        11           C   tau(  11) = (   0.2000000   0.0000000   0.0000000  )
        12           C   tau(  12) = (   0.2000000   0.1154701   0.0000000  )
        13           C   tau(  13) = (   0.1000000   0.1732051   0.0000000  )
        14           C   tau(  14) = (   0.1000000   0.2886751   0.0000000  )
        15           C   tau(  15) = (   0.0000000   0.3464102   0.0000000  )
        16           C   tau(  16) = (   0.0000000   0.4618802   0.0000000  )
        17           C   tau(  17) = (  -0.1000000   0.5196152   0.0000000  )
        18           C   tau(  18) = (  -0.1000000   0.6350853   0.0000000  )
        19           C   tau(  19) = (  -0.2000000   0.6928203   0.0000000  )
        20           C   tau(  20) = (  -0.2000000   0.8082904   0.0000000  )
        21           C   tau(  21) = (   0.4000000   0.0000000   0.0000000  )
        22           C   tau(  22) = (   0.4000000   0.1154701   0.0000000  )
        23           C   tau(  23) = (   0.3000000   0.1732051   0.0000000  )
        24           C   tau(  24) = (   0.3000000   0.2886751   0.0000000  )
        25           C   tau(  25) = (   0.2000000   0.3464102   0.0000000  )
        26           Mn  tau(  26) = (   0.2000000   0.4618802   0.0000000  )
        27           C   tau(  27) = (   0.1000000   0.5196152   0.0000000  )
        28           C   tau(  28) = (   0.1000000   0.6350853   0.0000000  )
        29           C   tau(  29) = (   0.0000000   0.6928203   0.0000000  )
        30           C   tau(  30) = (   0.0000000   0.8082904   0.0000000  )
        31           C   tau(  31) = (   0.6000000   0.0000000   0.0000000  )
        32           C   tau(  32) = (   0.6000000   0.1154701   0.0000000  )
        33           C   tau(  33) = (   0.5000000   0.1732051   0.0000000  )
        34           C   tau(  34) = (   0.5000000   0.2886751   0.0000000  )
        35           C   tau(  35) = (   0.4000000   0.3464102   0.0000000  )
        36           C   tau(  36) = (   0.4000000   0.4618802   0.0000000  )
        37           C   tau(  37) = (   0.3000000   0.5196152   0.0000000  )
        38           C   tau(  38) = (   0.3000000   0.6350853   0.0000000  )
        39           C   tau(  39) = (   0.2000000   0.6928203   0.0000000  )
        40           C   tau(  40) = (   0.2000000   0.8082904   0.0000000  )
        41           C   tau(  41) = (   0.8000000   0.0000000   0.0000000  )
        42           C   tau(  42) = (   0.8000000   0.1154701   0.0000000  )
        43           C   tau(  43) = (   0.7000000   0.1732051   0.0000000  )
        44           C   tau(  44) = (   0.7000000   0.2886751   0.0000000  )
        45           C   tau(  45) = (   0.6000000   0.3464102   0.0000000  )
        46           C   tau(  46) = (   0.6000000   0.4618802   0.0000000  )
        47           C   tau(  47) = (   0.5000000   0.5196152   0.0000000  )
        48           C   tau(  48) = (   0.5000000   0.6350853   0.0000000  )
        49           C   tau(  49) = (   0.4000000   0.6928203   0.0000000  )
        50           C   tau(  50) = (   0.4000000   0.8082904   0.0000000  )

   Crystallographic axes

     site n.     atom                  positions (cryst. coord.)
         1           C   tau(   1) = (  0.0000000  0.0000000  0.0000000  )
         2           C   tau(   2) = (  0.0666667  0.1333333  0.0000000  )
         3           C   tau(   3) = (  0.0000000  0.2000000  0.0000000  )
         4           C   tau(   4) = (  0.0666667  0.3333333  0.0000000  )
         5           C   tau(   5) = (  0.0000000  0.4000000  0.0000000  )
         6           C   tau(   6) = (  0.0666667  0.5333333  0.0000000  )
         7           C   tau(   7) = (  0.0000000  0.6000000  0.0000000  )
         8           C   tau(   8) = (  0.0666667  0.7333333  0.0000000  )
         9           C   tau(   9) = (  0.0000000  0.8000000  0.0000000  )
        10           C   tau(  10) = (  0.0666667  0.9333333  0.0000000  )
        11           C   tau(  11) = (  0.2000000  0.0000000  0.0000000  )
        12           C   tau(  12) = (  0.2666667  0.1333333  0.0000000  )
        13           C   tau(  13) = (  0.2000000  0.2000000  0.0000000  )
        14           C   tau(  14) = (  0.2666667  0.3333333  0.0000000  )
        15           C   tau(  15) = (  0.2000000  0.4000000  0.0000000  )
        16           C   tau(  16) = (  0.2666667  0.5333333  0.0000000  )
        17           C   tau(  17) = (  0.2000000  0.6000000  0.0000000  )
        18           C   tau(  18) = (  0.2666667  0.7333333  0.0000000  )
        19           C   tau(  19) = (  0.2000000  0.8000000  0.0000000  )
        20           C   tau(  20) = (  0.2666667  0.9333333  0.0000000  )
        21           C   tau(  21) = (  0.4000000  0.0000000  0.0000000  )
        22           C   tau(  22) = (  0.4666667  0.1333333  0.0000000  )
        23           C   tau(  23) = (  0.4000000  0.2000000  0.0000000  )
        24           C   tau(  24) = (  0.4666667  0.3333333  0.0000000  )
        25           C   tau(  25) = (  0.4000000  0.4000000  0.0000000  )
        26           Mn  tau(  26) = (  0.4666667  0.5333333  0.0000000  )
[...]
     atom   21 type  1   force =     0.22824689    0.13177868   -0.00000000
     atom   22 type  1   force =    -0.43605722    0.25315907   -0.00000000
     atom   23 type  1   force =    -0.18144121    1.23457402   -0.00000000
     atom   24 type  1   force =    -1.98920711    1.80376381   -0.00000000
     atom   25 type  1   force =    -0.00000180    6.24072465   -0.00000000
     atom   26 type  2   force =     0.00000387   -0.00000236   -0.00000000
     atom   27 type  1   force =     5.40462301   -3.12036055    0.00000000
     atom   28 type  1   force =     0.56749979   -2.62458776   -0.00000000
     atom   29 type  1   force =     0.97845367   -0.77442072    0.00000000
     atom   30 type  1   force =     0.00121428   -0.50421744   -0.00000000
     atom   31 type  1   force =    -0.00652940   -0.28585345   -0.00000000
     atom   32 type  1   force =    -0.12021694   -0.06940852   -0.00000000
     atom   33 type  1   force =    -0.25082194    0.13727344    0.00000000
     atom   34 type  1   force =    -0.81061408    0.46800825   -0.00000000
     atom   35 type  1   force =    -1.33164473    0.76882544   -0.00000000
     atom   36 type  1   force =    -2.55670884    0.82082198   -0.00000000
     atom   37 type  1   force =    -5.40462698   -3.12036077   -0.00000000
     atom   38 type  1   force =    -0.56750227   -2.62458644   -0.00000000
     atom   39 type  1   force =    -0.00000085   -1.53765049   -0.00000000
     atom   40 type  1   force =    -0.00000016   -0.93601818   -0.00000000
     atom   41 type  1   force =     0.00652893   -0.28585383   -0.00000000
     atom   42 type  1   force =     0.12021821   -0.06940802   -0.00000000
     atom   43 type  1   force =    -0.00000061    0.00000035    0.00000000
     atom   44 type  1   force =     0.00000107    0.13881519   -0.00000000
     atom   45 type  1   force =    -0.24429326    0.14858145   -0.00000000
     atom   46 type  1   force =    -0.43727080    0.25105710   -0.00000000
     atom   47 type  1   force =    -1.15989307   -0.46015431   -0.00000000
     atom   48 type  1   force =    -0.50006083   -0.28870973   -0.00000000
     atom   49 type  1   force =    -0.97845218   -0.77442005    0.00000000
     atom   50 type  1   force =    -0.00121443   -0.50421675   -0.00000000
     The core correction contribution to forces
     atom    1 type  1   force =    -0.00052770    0.00030467    0.00000000
     atom    2 type  1   force =     0.00017754   -0.00035217    0.00000000
     atom    3 type  1   force =    -0.00061316   -0.00023588    0.00000000
     atom    4 type  1   force =     0.00046514    0.00026855   -0.00000000
     atom    5 type  1   force =    -0.00051086   -0.00041307    0.00000000
     atom    6 type  1   force =    -0.00021622    0.00032984   -0.00000000
     atom    7 type  1   force =    -0.00000001   -0.00060935    0.00000000
     atom    8 type  1   force =    -0.00000000    0.00010295   -0.00000000
     atom    9 type  1   force =    -0.00023770   -0.00013724    0.00000000
     atom   10 type  1   force =     0.00008916   -0.00005147   -0.00000000
     atom   11 type  1   force =     0.00000000    0.00027448    0.00000000
     atom   12 type  1   force =    -0.00000000   -0.00076169    0.00000000
     atom   13 type  1   force =    -0.00102885    0.00005589   -0.00000000
     atom   14 type  1   force =    -0.00032050   -0.00129549   -0.00000000
     atom   15 type  1   force =    -0.00143918   -0.00083091    0.00000000
     atom   16 type  1   force =    -0.00128217    0.00037018    0.00000000
     atom   17 type  1   force =    -0.00046603   -0.00091896   -0.00000000
     atom   18 type  1   force =    -0.00065964    0.00038085    0.00000000
     atom   19 type  1   force =     0.00023771   -0.00013724    0.00000000
     atom   20 type  1   force =    -0.00008916   -0.00005147   -0.00000000
     atom   21 type  1   force =     0.00052771    0.00030468    0.00000000
     atom   22 type  1   force =    -0.00017754   -0.00035217    0.00000000
     atom   23 type  1   force =     0.00102885    0.00005589    0.00000000
     atom   24 type  1   force =     0.00032050   -0.00129548   -0.00000000
     atom   25 type  1   force =     0.00000000    0.00328457    0.00000000
     atom   26 type  2   force =     0.00000001   -0.00000001    0.00000000
     atom   27 type  1   force =     0.00284450   -0.00164228    0.00000000
     atom   28 type  1   force =    -0.00096167    0.00092530   -0.00000000
     atom   29 type  1   force =     0.00056283    0.00086307   -0.00000000
     atom   30 type  1   force =    -0.00039376    0.00002234    0.00000000
     atom   31 type  1   force =     0.00010230    0.00064895   -0.00000000
     atom   32 type  1   force =     0.00040942    0.00023638    0.00000000
     atom   33 type  1   force =     0.00061315   -0.00023588    0.00000000
     atom   34 type  1   force =    -0.00046513    0.00026855    0.00000000
     atom   35 type  1   force =     0.00143918   -0.00083091   -0.00000000
     atom   36 type  1   force =     0.00128217    0.00037018    0.00000000
     atom   37 type  1   force =    -0.00284452   -0.00164229    0.00000000
     atom   38 type  1   force =     0.00096168    0.00092530   -0.00000000
     atom   39 type  1   force =     0.00000000    0.00166183    0.00000000
     atom   40 type  1   force =     0.00000000   -0.00053710   -0.00000000
     atom   41 type  1   force =    -0.00010230    0.00064895    0.00000000
     atom   42 type  1   force =    -0.00040942    0.00023638    0.00000000
     atom   43 type  1   force =    -0.00000001    0.00000001   -0.00000000
     atom   44 type  1   force =     0.00000000   -0.00047276   -0.00000000
     atom   45 type  1   force =     0.00051085   -0.00041307    0.00000000
     atom   46 type  1   force =     0.00021622    0.00032984    0.00000000
     atom   47 type  1   force =     0.00046603   -0.00091896    0.00000000
     atom   48 type  1   force =     0.00065964    0.00038085    0.00000000
     atom   49 type  1   force =    -0.00056283    0.00086307    0.00000000
     atom   50 type  1   force =     0.00039376    0.00002233    0.00000000
     The Hubbard contrib.    to forces
     atom    1 type  1   force =     0.00000000    0.00000000    0.00000000
     atom    2 type  1   force =     0.00000000    0.00000000    0.00000000
     atom    3 type  1   force =     0.00000000    0.00000000    0.00000000
     atom    4 type  1   force =     0.00000000    0.00000000    0.00000000
     atom    5 type  1   force =     0.00000000    0.00000000    0.00000000
     atom    6 type  1   force =     0.00000000    0.00000000    0.00000000
     atom    7 type  1   force =     0.00000000    0.00000000    0.00000000
     atom    8 type  1   force =     0.00000000    0.00000000    0.00000000
     atom    9 type  1   force =     0.00000000    0.00000000    0.00000000
     atom   10 type  1   force =     0.00000000    0.00000000    0.00000000
     atom   11 type  1   force =     0.00000000    0.00000000    0.00000000
     atom   12 type  1   force =     0.00000000    0.00000000    0.00000000
     atom   13 type  1   force =     0.00000000    0.00000000    0.00000000
     atom   14 type  1   force =     0.00000000    0.00000000    0.00000000
     atom   15 type  1   force =     0.00000000    0.00000000    0.00000000
     atom   16 type  1   force =     0.00000000    0.00000000    0.00000000
     atom   17 type  1   force =     0.00000000    0.00000000    0.00000000
     atom   18 type  1   force =     0.00000000    0.00000000    0.00000000
     atom   19 type  1   force =     0.00000000    0.00000000    0.00000000
     atom   20 type  1   force =     0.00000000    0.00000000    0.00000000
     atom   21 type  1   force =     0.00000000    0.00000000    0.00000000
     atom   22 type  1   force =     0.00000000    0.00000000    0.00000000
     atom   23 type  1   force =     0.00000000    0.00000000    0.00000000
     atom   24 type  1   force =     0.00000000    0.00000000    0.00000000
     atom   25 type  1   force =     0.00000000    0.00000000    0.00000000
     atom   26 type  2   force =     0.00000000    0.00000000    0.00000000
     atom   27 type  1   force =     0.00000000    0.00000000    0.00000000
     atom   28 type  1   force =     0.00000000    0.00000000    0.00000000
     atom   29 type  1   force =     0.00000000    0.00000000    0.00000000
     atom   30 type  1   force =     0.00000000    0.00000000    0.00000000
     atom   31 type  1   force =     0.00000000    0.00000000    0.00000000
     atom   32 type  1   force =     0.00000000    0.00000000    0.00000000
     atom   33 type  1   force =     0.00000000    0.00000000    0.00000000
     atom   34 type  1   force =     0.00000000    0.00000000    0.00000000
     atom   35 type  1   force =     0.00000000    0.00000000    0.00000000
     atom   36 type  1   force =     0.00000000    0.00000000    0.00000000
     atom   37 type  1   force =     0.00000000    0.00000000    0.00000000
     atom   38 type  1   force =     0.00000000    0.00000000    0.00000000
     atom   39 type  1   force =     0.00000000    0.00000000    0.00000000
     atom   40 type  1   force =     0.00000000    0.00000000    0.00000000
     atom   41 type  1   force =     0.00000000    0.00000000    0.00000000
     atom   42 type  1   force =     0.00000000    0.00000000    0.00000000
     atom   43 type  1   force =     0.00000000    0.00000000    0.00000000
     atom   44 type  1   force =     0.00000000    0.00000000    0.00000000
     atom   45 type  1   force =     0.00000000    0.00000000    0.00000000
     atom   46 type  1   force =     0.00000000    0.00000000    0.00000000
     atom   47 type  1   force =     0.00000000    0.00000000    0.00000000
     atom   48 type  1   force =     0.00000000    0.00000000    0.00000000
     atom   49 type  1   force =     0.00000000    0.00000000    0.00000000
     atom   50 type  1   force =     0.00000000    0.00000000    0.00000000
     The SCF correction term to forces
     atom    1 type  1   force =    -0.00000006    0.00000003    0.00000000
     atom    2 type  1   force =     0.00000006    0.00000007    0.00000000
     atom    3 type  1   force =     0.00000012   -0.00000001    0.00000000
     atom    4 type  1   force =     0.00000018    0.00000007    0.00000000
     atom    5 type  1   force =     0.00000000    0.00000007   -0.00000000
     atom    6 type  1   force =    -0.00000001   -0.00000004    0.00000000
     atom    7 type  1   force =    -0.00000008   -0.00000010   -0.00000000
     atom    8 type  1   force =    -0.00000005   -0.00000006    0.00000000
     atom    9 type  1   force =    -0.00000013   -0.00000008    0.00000000
     atom   10 type  1   force =    -0.00000006    0.00000004    0.00000000
     atom   11 type  1   force =    -0.00000000    0.00000015    0.00000000
     atom   12 type  1   force =     0.00000003    0.00000021    0.00000000
     atom   13 type  1   force =     0.00000010    0.00000023    0.00000000
     atom   14 type  1   force =     0.00000023    0.00000031   -0.00000000
     atom   15 type  1   force =     0.00000037    0.00000011   -0.00000000
     atom   16 type  1   force =     0.00000036   -0.00000014    0.00000000
     atom   17 type  1   force =     0.00000015   -0.00000008    0.00000000
     atom   18 type  1   force =     0.00000006   -0.00000003    0.00000000
     atom   19 type  1   force =     0.00000005   -0.00000003    0.00000000
     atom   20 type  1   force =     0.00000003    0.00000007    0.00000000
     atom   21 type  1   force =     0.00000005    0.00000012    0.00000000
     atom   22 type  1   force =    -0.00000004    0.00000016    0.00000000
     atom   23 type  1   force =    -0.00000003    0.00000031    0.00000000
     atom   24 type  1   force =    -0.00000011    0.00000039    0.00000000
     atom   25 type  1   force =     0.00000013    0.00000053   -0.00000000
     atom   26 type  2   force =     0.00000079   -0.00000046    0.00000000
     atom   27 type  1   force =     0.00000055   -0.00000032   -0.00000000
     atom   28 type  1   force =     0.00000030   -0.00000024    0.00000000
     atom   29 type  1   force =     0.00000015   -0.00000008    0.00000000
     atom   30 type  1   force =     0.00000003    0.00000003    0.00000000
     atom   31 type  1   force =    -0.00000006   -0.00000004    0.00000000
     atom   32 type  1   force =    -0.00000008    0.00000004    0.00000000
     atom   33 type  1   force =    -0.00000016    0.00000009    0.00000000
     atom   34 type  1   force =    -0.00000026    0.00000015    0.00000000
     atom   35 type  1   force =    -0.00000035    0.00000020    0.00000000
     atom   36 type  1   force =    -0.00000039   -0.00000011    0.00000000
     atom   37 type  1   force =    -0.00000039   -0.00000037   -0.00000000
     atom   38 type  1   force =    -0.00000015   -0.00000036    0.00000000
     atom   39 type  1   force =     0.00000009   -0.00000038   -0.00000000
     atom   40 type  1   force =     0.00000003   -0.00000019    0.00000000
     atom   41 type  1   force =     0.00000007   -0.00000010    0.00000000
     atom   42 type  1   force =     0.00000003   -0.00000002    0.00000000
     atom   43 type  1   force =    -0.00000004    0.00000002    0.00000000
     atom   44 type  1   force =    -0.00000007    0.00000005    0.00000000
     atom   45 type  1   force =    -0.00000015    0.00000009   -0.00000000
     atom   46 type  1   force =    -0.00000016   -0.00000004    0.00000000
     atom   47 type  1   force =    -0.00000028   -0.00000013   -0.00000000
     atom   48 type  1   force =    -0.00000017   -0.00000013    0.00000000
     atom   49 type  1   force =    -0.00000015   -0.00000020    0.00000000
     atom   50 type  1   force =    -0.00000003   -0.00000008    0.00000000

     Total force =     0.001804     Total SCF correction =     0.000002

     bfgs converged in   9 scf cycles and   8 bfgs steps
     (criteria: energy <  1.0E-04 Ry, force <  1.0E-03 Ry/Bohr)

     End of BFGS Geometry Optimization

     Final energy   =    -824.1214471674 Ry
Begin final coordinates

ATOMIC_POSITIONS (angstrom)
C        0.003625847  -0.002093383   0.000000000
C       -0.021165336   1.401051654  -0.000000000
C       -1.243654806   2.125475069   0.000000000
C       -1.247398877   3.549834034  -0.000000000
C       -2.479057972   4.265255904   0.000000000
C       -2.495182531   5.686174548   0.000000000
C       -3.697946203   6.409216877   0.000000000
C       -3.697945987   7.830337149   0.000000000
C       -4.920149556   8.546070921   0.000000000
C       -4.928891312   9.962397170   0.000000000
C        2.465297452  -0.012060955  -0.000000000
C        2.465297456   1.394694674  -0.000000000
C        1.207429751   2.077257501  -0.000000000
C        1.183095671   3.477756409  -0.000000000
C       -0.030615807   4.252344204   0.000000000
C       -0.094573082   5.690742984  -0.000000000
C       -1.295273663   6.412066352  -0.000000000
C       -1.257456454   7.842693266   0.000000000
C       -2.475742473   8.546071026   0.000000000
C       -2.467000509   9.962397258  -0.000000000
C        4.926969015  -0.002093085   0.000000000
C        4.951760242   1.401051849  -0.000000000
C        3.723165132   2.077257663   0.000000000
C        3.747499072   3.477756622  -0.000000000
C        2.465297362   3.997446496   0.000000000
Mn       2.465296910   5.693360609   0.000000000
C        0.996591914   6.541317834   0.000000000
C        1.187628844   7.911581865   0.000000000
C       -0.037405808   8.590757386  -0.000000000
C       -0.008719499   9.992854851   0.000000000
C        7.393137797   0.014299229  -0.000000000
C        7.403275401   1.427602752  -0.000000000
C        6.174249729   2.125475217   0.000000000
C        6.177993733   3.549834099   0.000000000
C        4.961210560   4.252344191   0.000000000
C        5.025167328   5.690742957   0.000000000
C        3.934001840   6.541317273  -0.000000000
C        3.742965813   7.911581555   0.000000000
C        2.465297365   8.575392629  -0.000000000
C        2.465297484   9.980412764  -0.000000000
C        9.863943942   0.014299121  -0.000000000
C        9.853806357   1.427602691   0.000000000
C        8.628540836   2.135010069   0.000000000
C        8.628540826   3.549824721   0.000000000
C        7.409652707   4.265255942   0.000000000
C        7.425777003   5.686174578   0.000000000
C        6.225868034   6.412066247  -0.000000000
C        6.188051086   7.842693104   0.000000000
C        4.968000485   8.590757077  -0.000000000
C        4.939314382   9.992854557   0.000000000
End final coordinates

     Writing output data file vacancia-vanadio.save/

     General routines

     Parallel routines

   This run was terminated on:  16:29:42  18Mar2023

   JOB DONE.