     Program PWSCF v.6.4.1 starts on 13Feb2023 at  9:31:57

     R & G space division:  proc/nbgrp/npool/nimage =       6
     Reading input from mn-relax.in

     Current dimensions of program PWSCF are:
     Max number of different atomic species (ntypx) = 10
     Max number of k-points (npk) =  40000
     Max angular momentum in pseudopotentials (lmaxx) =  3
               file H.pbe-rrkjus.UPF: wavefunction(s)  1S renormalized
               file Mn.pbe-spn-rrkjus_psl.0.3.1.UPF: wavefunction(s)  3D renormalized

     Subspace diagonalization in iterative solution of the eigenvalue problem:
     a serial algorithm will be used

     bravais-lattice index     =            4
     lattice parameter (alat)  =      23.2937  a.u.
     unit-cell volume          =    8879.8548 (a.u.)^3
     number of atoms/cell      =           52
     number of atomic types    =            3
     number of electrons       =       213.00
     number of Kohn-Sham states=          128
     kinetic-energy cutoff     =      70.0000  Ry
     charge density cutoff     =     490.0000  Ry
     convergence threshold     =      1.0E-10
     mixing beta               =       0.7000
     number of iterations used =            8  plain     mixing
     Exchange-correlation      = PBE ( 1  4  3  4 0 0)
     nstep                     =           50

     celldm(1)=  23.293684  celldm(2)=   0.000000  celldm(3)=   0.811261
     celldm(4)=   0.000000  celldm(5)=   0.000000  celldm(6)=   0.000000

     crystal axes: (cart. coord. in units of alat)
               a(1) = (   1.000000   0.000000   0.000000 )
               a(2) = (  -0.500000   0.866025   0.000000 )
               a(3) = (   0.000000   0.000000   0.811261 )

     reciprocal axes: (cart. coord. in units 2 pi/alat)
               b(1) = (  1.000000  0.577350 -0.000000 )
               b(2) = (  0.000000  1.154701  0.000000 )
               b(3) = (  0.000000 -0.000000  1.232649 )

     PseudoPot. # 1 for H  read from file:
     /home/cristian/Escritorio/Proyecto_Grafeno/pseudopotenciales/H.pbe-rrkjus.UPF
     MD5 check sum: 7cc9d459525c9a0585f487a71c3c9563
     Pseudo is Ultrasoft, Zval =  1.0
     Generated by new atomic code, or converted to UPF format
     Using radial grid of 1061 points,  2 beta functions with:
                l(1) =   0
                l(2) =   0
     Q(r) pseudized with 0 coefficients

     PseudoPot. # 2 for C  read from file:
     /home/cristian/Escritorio/Proyecto_Grafeno/pseudopotenciales/C.pbe-n-rrkjus_psl.1.0.0.UPF
     MD5 check sum: 1fdd950c42eb37d8afe3dd2f8d12311e
     Pseudo is Ultrasoft + core correction, Zval =  4.0
     Generated using "atomic" code by A. Dal Corso v.6.3MaX
     Using radial grid of 1073 points,  4 beta functions with:
                l(1) =   0
                l(2) =   0
                l(3) =   1
                l(4) =   1
     Q(r) pseudized with 0 coefficients

     PseudoPot. # 3 for Mn read from file:
     /home/cristian/Escritorio/Proyecto_Grafeno/pseudopotenciales/Mn.pbe-spn-rrkjus_psl.0.3.1.UPF
     MD5 check sum: e1cac159bdd2ba70c18e85765a5d4279
     Pseudo is Ultrasoft + core correction, Zval = 15.0
     Generated using "atomic" code by A. Dal Corso v.6.2.2
     Using radial grid of 1187 points,  6 beta functions with:
                l(1) =   0
                l(2) =   0
                l(3) =   1
                l(4) =   1
                l(5) =   2
                l(6) =   2
     Q(r) pseudized with 0 coefficients

     atomic species   valence    mass     pseudopotential
        H              1.00     1.00794     H ( 1.00)
        C              4.00    12.01070     C ( 1.00)
        Mn            15.00    54.93804     Mn( 1.00)

     Starting magnetic structure
     atomic species   magnetization
        H            0.500
        C            0.300
        Mn           0.800

      2 Sym. Ops. (no inversion) found

                                    s                        frac. trans.

      isym =  1     identity

 cryst.   s( 1) = (     1          0          0      )
                  (     0          1          0      )
                  (     0          0          1      )

 cart.    s( 1) = (  1.0000000  0.0000000  0.0000000 )
                  (  0.0000000  1.0000000  0.0000000 )
                  (  0.0000000  0.0000000  1.0000000 )

      isym =  2     inv. 180 deg rotation - cryst. axis [1,1,0]

 cryst.   s( 2) = (     0         -1          0      )
                  (    -1          0          0      )
                  (     0          0          1      )

 cart.    s( 2) = (  0.5000000 -0.8660254  0.0000000 )
                  ( -0.8660254 -0.5000000  0.0000000 )
                  (  0.0000000  0.0000000  1.0000000 )

     point group C_s (m)
     there are  2 classes
     the character table:

       E     s
A'     1.00  1.00
A''    1.00 -1.00

     the symmetry operations in each class and the name of the first element:

     E        1
          identity
     s        2
          inv. 180 deg rotation - cryst. axis [1,1,0]

   Cartesian axes

     site n.     atom                  positions (alat units)
         1           H   tau(   1) = (   0.3000000   0.4041452   0.2271531  )
         2           H   tau(   2) = (   0.3000000   0.4041452   0.2881658  )
         3           C   tau(   3) = (   0.0000000   0.0000000   0.0000000  )
         4           C   tau(   4) = (   0.0000000   0.1154701   0.0000000  )
         5           C   tau(   5) = (  -0.1000000   0.1732051   0.0000000  )
         6           C   tau(   6) = (  -0.1000000   0.2886751   0.0000000  )
         7           C   tau(   7) = (  -0.2000000   0.3464102   0.0000000  )
         8           C   tau(   8) = (  -0.2000000   0.4618802   0.0000000  )
         9           C   tau(   9) = (  -0.3000000   0.5196152   0.0000000  )
        10           C   tau(  10) = (  -0.3000000   0.6350853   0.0000000  )
        11           C   tau(  11) = (  -0.4000000   0.6928203   0.0000000  )
        12           C   tau(  12) = (  -0.4000000   0.8082904   0.0000000  )
        13           C   tau(  13) = (   0.2000000   0.0000000   0.0000000  )
        14           C   tau(  14) = (   0.2000000   0.1154701   0.0000000  )
        15           C   tau(  15) = (   0.1000000   0.1732051   0.0000000  )
        16           C   tau(  16) = (   0.1000000   0.2886751   0.0000000  )
        17           C   tau(  17) = (   0.0000000   0.3464102   0.0000000  )
        18           C   tau(  18) = (   0.0000000   0.4618802   0.0000000  )
        19           C   tau(  19) = (  -0.1000000   0.5196152   0.0000000  )
        20           C   tau(  20) = (  -0.1000000   0.6350853   0.0000000  )
        21           C   tau(  21) = (  -0.2000000   0.6928203   0.0000000  )
        22           C   tau(  22) = (  -0.2000000   0.8082904   0.0000000  )
        23           C   tau(  23) = (   0.4000000   0.0000000   0.0000000  )
        24           C   tau(  24) = (   0.4000000   0.1154701   0.0000000  )
        25           C   tau(  25) = (   0.3000000   0.1732051   0.0000000  )
        26           C   tau(  26) = (   0.3000000   0.2886751   0.0000000  )
        27           C   tau(  27) = (   0.2000000   0.3464102   0.0000000  )
        28           Mn  tau(  28) = (   0.2000000   0.4618802   0.0000000  )
        29           C   tau(  29) = (   0.1000000   0.5196152   0.0000000  )
        30           C   tau(  30) = (   0.1000000   0.6350853   0.0000000  )
        31           C   tau(  31) = (   0.0000000   0.6928203   0.0000000  )
        32           C   tau(  32) = (   0.0000000   0.8082904   0.0000000  )
        33           C   tau(  33) = (   0.6000000   0.0000000   0.0000000  )
        34           C   tau(  34) = (   0.6000000   0.1154701   0.0000000  )
        35           C   tau(  35) = (   0.5000000   0.1732051   0.0000000  )
        36           C   tau(  36) = (   0.5000000   0.2886751   0.0000000  )
        37           C   tau(  37) = (   0.4000000   0.3464102   0.0000000  )
        38           C   tau(  38) = (   0.4000000   0.4618802   0.0000000  )
        39           C   tau(  39) = (   0.3000000   0.5196152   0.0000000  )
        40           C   tau(  40) = (   0.3000000   0.6350853   0.0000000  )
        41           C   tau(  41) = (   0.2000000   0.6928203   0.0000000  )
        42           C   tau(  42) = (   0.2000000   0.8082904   0.0000000  )
        43           C   tau(  43) = (   0.8000000   0.0000000   0.0000000  )
        44           C   tau(  44) = (   0.8000000   0.1154701   0.0000000  )
        45           C   tau(  45) = (   0.7000000   0.1732051   0.0000000  )
        46           C   tau(  46) = (   0.7000000   0.2886751   0.0000000  )
        47           C   tau(  47) = (   0.6000000   0.3464102   0.0000000  )
        48           C   tau(  48) = (   0.6000000   0.4618802   0.0000000  )
        49           C   tau(  49) = (   0.5000000   0.5196152   0.0000000  )
        50           C   tau(  50) = (   0.5000000   0.6350853   0.0000000  )
        51           C   tau(  51) = (   0.4000000   0.6928203   0.0000000  )
        52           C   tau(  52) = (   0.4000000   0.8082904   0.0000000  )

   Crystallographic axes

     site n.     atom                  positions (cryst. coord.)
         1           H   tau(   1) = (  0.5333333  0.4666667  0.2800000  )
         2           H   tau(   2) = (  0.5333333  0.4666667  0.3552072  )
         3           C   tau(   3) = (  0.0000000  0.0000000  0.0000000  )
         4           C   tau(   4) = (  0.0666667  0.1333333  0.0000000  )
         5           C   tau(   5) = (  0.0000000  0.2000000  0.0000000  )
         6           C   tau(   6) = (  0.0666667  0.3333333  0.0000000  )
         7           C   tau(   7) = (  0.0000000  0.4000000  0.0000000  )
         8           C   tau(   8) = (  0.0666667  0.5333333  0.0000000  )
         9           C   tau(   9) = (  0.0000000  0.6000000  0.0000000  )
        10           C   tau(  10) = (  0.0666667  0.7333333  0.0000000  )
        11           C   tau(  11) = (  0.0000000  0.8000000  0.0000000  )
        12           C   tau(  12) = (  0.0666667  0.9333333  0.0000000  )
        13           C   tau(  13) = (  0.2000000  0.0000000  0.0000000  )
        14           C   tau(  14) = (  0.2666667  0.1333333  0.0000000  )
        15           C   tau(  15) = (  0.2000000  0.2000000  0.0000000  )
        16           C   tau(  16) = (  0.2666667  0.3333333  0.0000000  )
        17           C   tau(  17) = (  0.2000000  0.4000000  0.0000000  )
        18           C   tau(  18) = (  0.2666667  0.5333333  0.0000000  )
        19           C   tau(  19) = (  0.2000000  0.6000000  0.0000000  )
        20           C   tau(  20) = (  0.2666667  0.7333333  0.0000000  )
        21           C   tau(  21) = (  0.2000000  0.8000000  0.0000000  )
        22           C   tau(  22) = (  0.2666667  0.9333333  0.0000000  )
        23           C   tau(  23) = (  0.4000000  0.0000000  0.0000000  )
        24           C   tau(  24) = (  0.4666667  0.1333333  0.0000000  )
        25           C   tau(  25) = (  0.4000000  0.2000000  0.0000000  )
[...]
     atom   34 type  2   force =    -0.12782905   -0.03881317   -0.56749115
     atom   35 type  2   force =    -0.32452558    0.23853643   -0.44284638
     atom   36 type  2   force =    -0.76703436    0.44284749   -0.19061804
     atom   37 type  2   force =    -1.38770819    0.80119370   -0.14159476
     atom   38 type  2   force =    -2.13360814    0.24062653   -0.69085458
     atom   39 type  2   force =    -3.29394729   -1.91659980   -2.11767202
     atom   40 type  2   force =    -0.79312409   -1.97999928   -1.00676441
     atom   41 type  2   force =     0.00151682   -1.56211457   -0.70115459
     atom   42 type  2   force =    -0.00785622   -0.80761376   -0.74629810
     atom   43 type  2   force =    -0.02910153   -0.36619423   -0.68404495
     atom   44 type  2   force =     0.08118479   -0.04687206   -0.67656868
     atom   45 type  2   force =    -0.02224196    0.01284140   -0.41541336
     atom   46 type  2   force =    -0.03030134    0.13010979   -0.56749115
     atom   47 type  2   force =    -0.36884140    0.16177918   -0.44284638
     atom   48 type  2   force =    -0.45923650    0.04237124   -0.81925054
     atom   49 type  2   force =    -1.00054989   -0.25082150   -0.80211032
     atom   50 type  2   force =    -0.63881905   -0.39654498   -0.57512665
     atom   51 type  2   force =    -0.68051328   -0.78060207   -0.75468541
     atom   52 type  2   force =    -0.17099007   -0.40955933   -0.69630866
     The core correction contribution to forces
     atom    1 type  1   force =     0.00000000    0.00000000    0.00000000
     atom    2 type  1   force =     0.00000000    0.00000000    0.00000000
     atom    3 type  2   force =    -0.00011615    0.00006706   -0.00017125
     atom    4 type  2   force =     0.00001144   -0.00012864   -0.00016136
     atom    5 type  2   force =    -0.00018009   -0.00020744   -0.00020596
     atom    6 type  2   force =     0.00029305    0.00015952   -0.00031274
     atom    7 type  2   force =    -0.00030079   -0.00013264   -0.00025134
     atom    8 type  2   force =    -0.00002425    0.00018687   -0.00038133
     atom    9 type  2   force =     0.00001414   -0.00021138   -0.00038594
     atom   10 type  2   force =     0.00001528    0.00006333   -0.00034320
     atom   11 type  2   force =     0.00001108   -0.00002512   -0.00025496
     atom   12 type  2   force =    -0.00000774    0.00000447   -0.00027328
     atom   13 type  2   force =     0.00002730    0.00000297   -0.00025496
     atom   14 type  2   force =    -0.00000249   -0.00020350   -0.00035818
     atom   15 type  2   force =    -0.00034517    0.00000192   -0.00001490
     atom   16 type  2   force =     0.00061238   -0.00057711    0.00055098
     atom   17 type  2   force =    -0.00063124   -0.00036138    0.00022143
     atom   18 type  2   force =    -0.00021845    0.00084247    0.00055102
     atom   19 type  2   force =    -0.00025225   -0.00039793   -0.00018893
     atom   20 type  2   force =    -0.00022868    0.00013203   -0.00030938
     atom   21 type  2   force =     0.00003786   -0.00002186   -0.00030464
     atom   22 type  2   force =    -0.00004721   -0.00004490   -0.00034320
     atom   23 type  2   force =     0.00019013    0.00009345   -0.00038594
     atom   24 type  2   force =    -0.00004313   -0.00017524   -0.00023051
     atom   25 type  2   force =     0.00039991   -0.00004127   -0.00003424
     atom   26 type  2   force =    -0.00065082   -0.00052717    0.00064145
     atom   27 type  2   force =     0.00003048    0.00035822   -0.00117428
     atom   28 type  3   force =    -0.00018513    0.00010688   -0.02935924
     atom   29 type  2   force =     0.00032965   -0.00019033   -0.00118830
     atom   30 type  2   force =    -0.00083883   -0.00023205    0.00055102
     atom   31 type  2   force =     0.00021849    0.00041742   -0.00018893
     atom   32 type  2   force =    -0.00017396   -0.00007244   -0.00038133
     atom   33 type  2   force =    -0.00003553    0.00032682   -0.00025134
     atom   34 type  2   force =     0.00010901    0.00004571   -0.00013941
     atom   35 type  2   force =     0.00023802   -0.00023638   -0.00015833
     atom   36 type  2   force =    -0.00034010    0.00019636    0.00000639
     atom   37 type  2   force =     0.00063371   -0.00036587    0.00037298
     atom   38 type  2   force =     0.00013113    0.00082721    0.00064145
     atom   39 type  2   force =    -0.00029499   -0.00020551   -0.00117428
     atom   40 type  2   force =     0.00080598   -0.00024179    0.00055098
     atom   41 type  2   force =    -0.00000266    0.00072736    0.00022143
     atom   42 type  2   force =     0.00000838   -0.00033355   -0.00031274
     atom   43 type  2   force =     0.00008961    0.00025968   -0.00020596
     atom   44 type  2   force =    -0.00014379    0.00008302   -0.00023388
     atom   45 type  2   force =     0.00003820   -0.00002205   -0.00017688
     atom   46 type  2   force =     0.00001492   -0.00011726   -0.00013941
     atom   47 type  2   force =     0.00032373   -0.00008794   -0.00015833
     atom   48 type  2   force =     0.00013020    0.00012497   -0.00023051
     atom   49 type  2   force =     0.00023569   -0.00032569   -0.00003424
     atom   50 type  2   force =     0.00017499    0.00010391   -0.00035818
     atom   51 type  2   force =    -0.00017424    0.00029796   -0.00001490
     atom   52 type  2   force =     0.00011713    0.00005441   -0.00016136
     The Hubbard contrib.    to forces
     atom    1 type  1   force =     0.00000000    0.00000000    0.00000000
     atom    2 type  1   force =     0.00000000    0.00000000    0.00000000
     atom    3 type  2   force =     0.00000000    0.00000000    0.00000000
     atom    4 type  2   force =     0.00000000    0.00000000    0.00000000
     atom    5 type  2   force =     0.00000000    0.00000000    0.00000000
     atom    6 type  2   force =     0.00000000    0.00000000    0.00000000
     atom    7 type  2   force =     0.00000000    0.00000000    0.00000000
     atom    8 type  2   force =     0.00000000    0.00000000    0.00000000
     atom    9 type  2   force =     0.00000000    0.00000000    0.00000000
     atom   10 type  2   force =     0.00000000    0.00000000    0.00000000
     atom   11 type  2   force =     0.00000000    0.00000000    0.00000000
     atom   12 type  2   force =     0.00000000    0.00000000    0.00000000
     atom   13 type  2   force =     0.00000000    0.00000000    0.00000000
     atom   14 type  2   force =     0.00000000    0.00000000    0.00000000
     atom   15 type  2   force =     0.00000000    0.00000000    0.00000000
     atom   16 type  2   force =     0.00000000    0.00000000    0.00000000
     atom   17 type  2   force =     0.00000000    0.00000000    0.00000000
     atom   18 type  2   force =     0.00000000    0.00000000    0.00000000
     atom   19 type  2   force =     0.00000000    0.00000000    0.00000000
     atom   20 type  2   force =     0.00000000    0.00000000    0.00000000
     atom   21 type  2   force =     0.00000000    0.00000000    0.00000000
     atom   22 type  2   force =     0.00000000    0.00000000    0.00000000
     atom   23 type  2   force =     0.00000000    0.00000000    0.00000000
     atom   24 type  2   force =     0.00000000    0.00000000    0.00000000
     atom   25 type  2   force =     0.00000000    0.00000000    0.00000000
     atom   26 type  2   force =     0.00000000    0.00000000    0.00000000
     atom   27 type  2   force =     0.00000000    0.00000000    0.00000000
     atom   28 type  3   force =     0.00000000    0.00000000    0.00000000
     atom   29 type  2   force =     0.00000000    0.00000000    0.00000000
     atom   30 type  2   force =     0.00000000    0.00000000    0.00000000
     atom   31 type  2   force =     0.00000000    0.00000000    0.00000000
     atom   32 type  2   force =     0.00000000    0.00000000    0.00000000
     atom   33 type  2   force =     0.00000000    0.00000000    0.00000000
     atom   34 type  2   force =     0.00000000    0.00000000    0.00000000
     atom   35 type  2   force =     0.00000000    0.00000000    0.00000000
     atom   36 type  2   force =     0.00000000    0.00000000    0.00000000
     atom   37 type  2   force =     0.00000000    0.00000000    0.00000000
     atom   38 type  2   force =     0.00000000    0.00000000    0.00000000
     atom   39 type  2   force =     0.00000000    0.00000000    0.00000000
     atom   40 type  2   force =     0.00000000    0.00000000    0.00000000
     atom   41 type  2   force =     0.00000000    0.00000000    0.00000000
     atom   42 type  2   force =     0.00000000    0.00000000    0.00000000
     atom   43 type  2   force =     0.00000000    0.00000000    0.00000000
     atom   44 type  2   force =     0.00000000    0.00000000    0.00000000
     atom   45 type  2   force =     0.00000000    0.00000000    0.00000000
     atom   46 type  2   force =     0.00000000    0.00000000    0.00000000
     atom   47 type  2   force =     0.00000000    0.00000000    0.00000000
     atom   48 type  2   force =     0.00000000    0.00000000    0.00000000
     atom   49 type  2   force =     0.00000000    0.00000000    0.00000000
     atom   50 type  2   force =     0.00000000    0.00000000    0.00000000
     atom   51 type  2   force =     0.00000000    0.00000000    0.00000000
     atom   52 type  2   force =     0.00000000    0.00000000    0.00000000
     The SCF correction term to forces
     atom    1 type  1   force =    -0.00000000    0.00000000   -0.00000003
     atom    2 type  1   force =     0.00000000   -0.00000000   -0.00000002
     atom    3 type  2   force =    -0.00000064    0.00000037    0.00000002
     atom    4 type  2   force =    -0.00000042    0.00000060    0.00000002
     atom    5 type  2   force =    -0.00000038    0.00000020    0.00000000
     atom    6 type  2   force =    -0.00000009   -0.00000010    0.00000000
     atom    7 type  2   force =    -0.00000009   -0.00000061   -0.00000000
     atom    8 type  2   force =     0.00000010   -0.00000084    0.00000002
     atom    9 type  2   force =    -0.00000017   -0.00000072    0.00000003
     atom   10 type  2   force =    -0.00000017   -0.00000044    0.00000006
     atom   11 type  2   force =    -0.00000048   -0.00000025    0.00000004
     atom   12 type  2   force =    -0.00000038    0.00000022    0.00000003
     atom   13 type  2   force =    -0.00000002    0.00000054    0.00000004
     atom   14 type  2   force =     0.00000001    0.00000083    0.00000003
     atom   15 type  2   force =    -0.00000017    0.00000065    0.00000003
     atom   16 type  2   force =     0.00000003    0.00000034    0.00000011
     atom   17 type  2   force =     0.00000012   -0.00000008    0.00000007
     atom   18 type  2   force =     0.00000050   -0.00000036    0.00000007
     atom   19 type  2   force =     0.00000048   -0.00000063    0.00000002
     atom   20 type  2   force =     0.00000062   -0.00000036    0.00000003
     atom   21 type  2   force =     0.00000020   -0.00000011    0.00000007
     atom   22 type  2   force =     0.00000030    0.00000037    0.00000006
     atom   23 type  2   force =     0.00000054    0.00000050    0.00000003
     atom   24 type  2   force =     0.00000040    0.00000069    0.00000002
     atom   25 type  2   force =     0.00000020    0.00000078    0.00000003
     atom   26 type  2   force =     0.00000019    0.00000045    0.00000014
     atom   27 type  2   force =     0.00000012    0.00000007    0.00000033
     atom   28 type  3   force =     0.00000014   -0.00000008    0.00000234
     atom   29 type  2   force =     0.00000026   -0.00000015    0.00000026
     atom   30 type  2   force =     0.00000056   -0.00000026    0.00000007
     atom   31 type  2   force =     0.00000078   -0.00000011    0.00000002
     atom   32 type  2   force =     0.00000077    0.00000034    0.00000002
     atom   33 type  2   force =     0.00000048    0.00000039   -0.00000000
     atom   34 type  2   force =     0.00000043    0.00000027   -0.00000001
     atom   35 type  2   force =     0.00000040    0.00000039    0.00000001
     atom   36 type  2   force =    -0.00000010    0.00000006    0.00000002
     atom   37 type  2   force =    -0.00000002    0.00000001    0.00000013
     atom   38 type  2   force =    -0.00000030   -0.00000039    0.00000014
     atom   39 type  2   force =    -0.00000000   -0.00000014    0.00000033
     atom   40 type  2   force =    -0.00000028   -0.00000020    0.00000011
     atom   41 type  2   force =     0.00000013   -0.00000006    0.00000007
     atom   42 type  2   force =     0.00000004    0.00000013    0.00000000
     atom   43 type  2   force =    -0.00000037    0.00000023    0.00000000
     atom   44 type  2   force =    -0.00000043    0.00000025   -0.00000001
     atom   45 type  2   force =    -0.00000004    0.00000002   -0.00000001
     atom   46 type  2   force =    -0.00000001   -0.00000051   -0.00000001
     atom   47 type  2   force =    -0.00000014   -0.00000054    0.00000001
     atom   48 type  2   force =    -0.00000040   -0.00000070    0.00000002
     atom   49 type  2   force =    -0.00000058   -0.00000056    0.00000003
     atom   50 type  2   force =    -0.00000071   -0.00000042    0.00000003
     atom   51 type  2   force =    -0.00000064   -0.00000018    0.00000003
     atom   52 type  2   force =    -0.00000073    0.00000006    0.00000002

     Total force =     0.013890     Total SCF correction =     0.000005

     number of scf cycles    =  50
     number of bfgs steps    =  49

     energy   old            =    -824.7526675348 Ry
     energy   new            =    -824.7530175358 Ry

     CASE: energy  _new < energy  _old

     new trust radius        =       0.0138139491 bohr
     new conv_thr            =            3.5E-12 Ry

ATOMIC_POSITIONS (angstrom)
H        3.700956241   4.979952362   3.747195312
H        3.928269070   4.848713239   4.452613910
C       -0.003369399   0.001945323   0.077703635
C       -0.009497711   1.421583356   0.053054462
C       -1.240102890   2.134797356   0.059206791
C       -1.239219848   3.559771631   0.022030175
C       -2.473204842   4.271018971   0.068859140
C       -2.477068108   5.693189692   0.080380880
C       -3.702318098   6.408859235   0.104649461
C       -3.702662968   7.831211074   0.106548232
C       -4.933392445   8.543534654   0.089775094
C       -4.934886366   9.965858415   0.092521333
C        2.460872479   0.000675857   0.089775094
C        2.461406412   1.419515513   0.021843647
C        1.222243280   2.123654063  -0.012993302
C        1.215625392   3.539309600  -0.158787846
C       -0.017520773   4.266031364  -0.108268975
C       -0.034554347   5.696861409  -0.151057019
C       -1.254021021   6.409900707   0.009872457
C       -1.243367250   7.834558860   0.043533251
C       -2.471765287   8.543774797   0.102015498
C       -2.470115841   9.966045321   0.106548232
C        4.925092795   0.001871908   0.104649461
C        4.932365462   1.421010578   0.061781902
C        3.701145195   2.123168108  -0.012859088
C        3.708095971   3.536079569  -0.181337616
C        2.460900003   4.169632490  -0.371781527
Mn       2.447646422   5.703551123  -1.372112946
C        1.132071516   6.463098649  -0.357094567
C        1.212339500   7.856544903  -0.151057019
C       -0.014903984   8.556114372   0.009872457
C       -0.005737581   9.973659728   0.080380880
C        7.391073400   0.006348736   0.068859140
C        7.394773906   1.426762934   0.074113712
C        6.163345554   2.134123230   0.038822291
C        6.163694772   3.558089608  -0.025101842
C        4.942061832   4.263399714  -0.154291133
C        4.954956624   5.695705570  -0.181337616
C        3.782685716   6.459032502  -0.371781527
C        3.705924045   7.852633395  -0.158787846
C        2.459991454   8.557208417  -0.108268975
C        2.460780787   9.968360719   0.022030175
C        9.857646563   0.006561928   0.059206791
C        9.855011540   1.426906878   0.081424016
C        8.624666520   2.137246907   0.075959809
C        8.625017382   3.557607140   0.074113712
C        7.396711220   4.270375228   0.038822291
C        7.398794847   5.692991586   0.061781902
C        6.175098455   6.408180849  -0.012859088
C        6.164610086   7.833652427   0.021843647
C        4.935226647   8.554729904  -0.012993302
C        4.927367220   9.972484246   0.053054462

     Writing output data file manganeso-sixhollow-2.8.save/
     NEW-OLD atomic charge density approx. for the potential

     Check: negative core charge=   -0.000002

     negative rho (up, down):  5.395E-04 6.550E-03

     Writing output data file manganeso-sixhollow-2.8.save/

     General routines

     Parallel routines

   This run was terminated on:  12:22:36  14Feb2023

   JOB DONE.