     Program PWSCF v.6.4.1 starts on 10May2022 at 12:19:30

     R & G space division:  proc/nbgrp/npool/nimage =       6
     Reading input from gr-fe.in

     Current dimensions of program PWSCF are:
     Max number of different atomic species (ntypx) = 10
     Max number of k-points (npk) =  40000
     Max angular momentum in pseudopotentials (lmaxx) =  3

     Parameters for DFT-D3 Dispersion Correction:
       Reference C6 values for interpolation:

         atom   Coordination number   C6
         C          0.000            98.23
         C          0.987            86.49
         C          1.998            58.72
         C          2.999            51.56
         C          3.984            36.41
         Fe1        0.000           982.67
         Fe1        1.648           409.99
         Fe1        9.138           219.01

       Values used:

         atom   Coordination number  R0_AB[au]  C6      C8
         C          3.308            2.750     48.42   1400.32
         C          3.308            2.750     48.41   1400.24
         C          3.308            2.750     48.42   1400.27
         C          3.308            2.750     48.41   1399.97
         C          3.308            2.750     48.42   1400.27
         C          3.308            2.750     48.41   1400.24
         C          3.308            2.750     48.42   1400.32
         C          3.308            2.750     48.42   1400.33
         C          3.308            2.750     48.42   1400.31
         C          3.308            2.750     48.42   1400.33
         C          3.308            2.750     48.42   1400.31
         C          3.308            2.750     48.41   1399.97
         C          3.310            2.750     48.37   1399.03
         C          3.636            2.750     39.75   1149.66
         C          3.369            2.750     47.03   1360.15
         C          3.636            2.750     39.75   1149.66
         C          3.310            2.750     48.37   1399.03
         C          3.308            2.750     48.41   1399.97
         C          3.308            2.750     48.42   1400.31
         C          3.308            2.750     48.42   1400.33
         C          3.308            2.750     48.42   1400.32
         C          3.308            2.750     48.41   1400.24
         C          3.310            2.750     48.37   1399.03
         C          3.636            2.750     39.75   1149.66
         C          3.309            2.750     48.39   1399.49
         Fe1        5.490            3.252    219.48  20532.19
         C          3.309            2.750     48.39   1399.49
         C          3.636            2.750     39.75   1149.66
         C          3.310            2.750     48.37   1399.03
         C          3.308            2.750     48.41   1400.24
         C          3.308            2.750     48.42   1400.27
         C          3.308            2.750     48.42   1400.33
         C          3.308            2.750     48.42   1400.27
         C          3.308            2.750     48.41   1399.97
         C          3.369            2.750     47.03   1360.15
         C          3.636            2.750     39.75   1149.66
         C          3.309            2.750     48.39   1399.49
         C          3.636            2.750     39.75   1149.66
         C          3.369            2.750     47.03   1360.15
         C          3.308            2.750     48.41   1399.97
         C          3.308            2.750     48.42   1400.27
         C          3.308            2.750     48.42   1400.33
         C          3.308            2.750     48.42   1400.33
         C          3.308            2.750     48.42   1400.33
         C          3.308            2.750     48.42   1400.27
         C          3.308            2.750     48.41   1400.24
         C          3.310            2.750     48.37   1399.03
         C          3.308            2.750     48.41   1399.97
         C          3.310            2.750     48.37   1399.03
         C          3.308            2.750     48.41   1400.24

         Molecular C6 ( Ry / a.u.^6 ) =    123475.42

     Subspace diagonalization in iterative solution of the eigenvalue problem:
     a serial algorithm will be used

     bravais-lattice index     =            4
     lattice parameter (alat)  =      23.2937  a.u.
     unit-cell volume          =    8879.8548 (a.u.)^3
     number of atoms/cell      =           50
     number of atomic types    =            2
     number of electrons       =       212.00
     number of Kohn-Sham states=          127
     kinetic-energy cutoff     =      70.0000  Ry
     charge density cutoff     =     490.0000  Ry
     convergence threshold     =      1.0E-06
     mixing beta               =       0.7000
     number of iterations used =            8  plain     mixing
     Exchange-correlation      = PBE ( 1  4  3  4 0 0)

     celldm(1)=  23.293684  celldm(2)=   0.000000  celldm(3)=   0.811261
     celldm(4)=   0.000000  celldm(5)=   0.000000  celldm(6)=   0.000000

     crystal axes: (cart. coord. in units of alat)
               a(1) = (   1.000000   0.000000   0.000000 )
               a(2) = (  -0.500000   0.866025   0.000000 )
               a(3) = (   0.000000   0.000000   0.811261 )

     reciprocal axes: (cart. coord. in units 2 pi/alat)
               b(1) = (  1.000000  0.577350 -0.000000 )
               b(2) = (  0.000000  1.154701  0.000000 )
               b(3) = (  0.000000 -0.000000  1.232649 )

     PseudoPot. # 1 for C  read from file:
     /home/cristian/Escritorio/Proyecto_Grafeno/pseudopotenciales/C.pbe-n-rrkjus_psl.1.0.0.UPF
     MD5 check sum: 1fdd950c42eb37d8afe3dd2f8d12311e
     Pseudo is Ultrasoft + core correction, Zval =  4.0
     Generated using "atomic" code by A. Dal Corso v.6.3MaX
     Using radial grid of 1073 points,  4 beta functions with:
                l(1) =   0
                l(2) =   0
                l(3) =   1
                l(4) =   1
     Q(r) pseudized with 0 coefficients

     PseudoPot. # 2 for Fe read from file:
     /home/cristian/Escritorio/Proyecto_Grafeno/pseudopotenciales/Fe.pbe-spn-rrkjus_psl.1.0.0.UPF
     MD5 check sum: 72ea77fed8e64ab3a2ccf2804dfc1862
     Pseudo is Ultrasoft + core correction, Zval = 16.0
     Generated using "atomic" code by A. Dal Corso v.6.3
     Using radial grid of 1191 points,  6 beta functions with:
                l(1) =   0
                l(2) =   0
                l(3) =   1
                l(4) =   1
                l(5) =   2
                l(6) =   2
     Q(r) pseudized with 0 coefficients

     atomic species   valence    mass     pseudopotential
        C              4.00    12.01070     C ( 1.00)
        Fe1           16.00    55.84500     Fe( 1.00)

     Starting magnetic structure
     atomic species   magnetization
        C            0.300
        Fe1          0.000

      4 Sym. Ops. (no inversion) found

                                    s                        frac. trans.

      isym =  1     identity

 cryst.   s( 1) = (     1          0          0      )
                  (     0          1          0      )
                  (     0          0          1      )

 cart.    s( 1) = (  1.0000000  0.0000000  0.0000000 )
                  (  0.0000000  1.0000000  0.0000000 )
                  (  0.0000000  0.0000000  1.0000000 )

      isym =  2     180 deg rotation - cryst. axis [1,-1,0]

[...]

      isym =  3     inv. 180 deg rotation - cart. axis [0,0,1]

[...]

      isym =  4     inv. 180 deg rotation - cryst. axis [1,1,0]

 cryst.   s( 4) = (     0         -1          0      )
                  (    -1          0          0      )
                  (     0          0          1      )

 cart.    s( 4) = (  0.5000000 -0.8660254  0.0000000 )
                  ( -0.8660254 -0.5000000  0.0000000 )
                  (  0.0000000  0.0000000  1.0000000 )

     point group C_2v (mm2)
     there are  4 classes
     the character table:

       E     C2    s_v   s_v'
A_1    1.00  1.00  1.00  1.00
A_2    1.00  1.00 -1.00 -1.00
B_1    1.00 -1.00  1.00 -1.00
B_2    1.00 -1.00 -1.00  1.00

     the symmetry operations in each class and the name of the first element:

     E        1
          identity
     C2       2
          180 deg rotation - cryst. axis [1,-1,0]
     s_v      4
          inv. 180 deg rotation - cryst. axis [1,1,0]
     s_v'     3
          inv. 180 deg rotation - cart. axis [0,0,1]

   Cartesian axes

     site n.     atom                  positions (alat units)
         1           C   tau(   1) = (   0.0000000   0.0000000   0.0000000  )
         2           C   tau(   2) = (   0.0000000   0.1154701   0.0000000  )
         3           C   tau(   3) = (  -0.1000000   0.1732051   0.0000000  )
         4           C   tau(   4) = (  -0.1000000   0.2886751   0.0000000  )
         5           C   tau(   5) = (  -0.2000000   0.3464102   0.0000000  )
         6           C   tau(   6) = (  -0.2000000   0.4618802   0.0000000  )
         7           C   tau(   7) = (  -0.3000000   0.5196152   0.0000000  )
         8           C   tau(   8) = (  -0.3000000   0.6350853   0.0000000  )
         9           C   tau(   9) = (  -0.4000000   0.6928203   0.0000000  )
        10           C   tau(  10) = (  -0.4000000   0.8082904   0.0000000  )
        11           C   tau(  11) = (   0.2000000   0.0000000   0.0000000  )
        12           C   tau(  12) = (   0.2000000   0.1154701   0.0000000  )
        13           C   tau(  13) = (   0.1000000   0.1732051   0.0000000  )
        14           C   tau(  14) = (   0.1000000   0.2886751   0.0000000  )
        15           C   tau(  15) = (   0.0000000   0.3464102   0.0000000  )
        16           C   tau(  16) = (   0.0000000   0.4618802   0.0000000  )
        17           C   tau(  17) = (  -0.1000000   0.5196152   0.0000000  )
        18           C   tau(  18) = (  -0.1000000   0.6350853   0.0000000  )
        19           C   tau(  19) = (  -0.2000000   0.6928203   0.0000000  )
        20           C   tau(  20) = (  -0.2000000   0.8082904   0.0000000  )
        21           C   tau(  21) = (   0.4000000   0.0000000   0.0000000  )
        22           C   tau(  22) = (   0.4000000   0.1154701   0.0000000  )
        23           C   tau(  23) = (   0.3000000   0.1732051   0.0000000  )
        24           C   tau(  24) = (   0.3000000   0.2886751   0.0000000  )
        25           C   tau(  25) = (   0.2000000   0.3464102   0.0000000  )
        26           Fe1 tau(  26) = (   0.2000000   0.4618802   0.0000000  )
        27           C   tau(  27) = (   0.1000000   0.5196152   0.0000000  )
        28           C   tau(  28) = (   0.1000000   0.6350853   0.0000000  )
        29           C   tau(  29) = (   0.0000000   0.6928203   0.0000000  )
        30           C   tau(  30) = (   0.0000000   0.8082904   0.0000000  )
        31           C   tau(  31) = (   0.6000000   0.0000000   0.0000000  )
        32           C   tau(  32) = (   0.6000000   0.1154701   0.0000000  )
        33           C   tau(  33) = (   0.5000000   0.1732051   0.0000000  )
        34           C   tau(  34) = (   0.5000000   0.2886751   0.0000000  )
        35           C   tau(  35) = (   0.4000000   0.3464102   0.0000000  )
        36           C   tau(  36) = (   0.4000000   0.4618802   0.0000000  )
        37           C   tau(  37) = (   0.3000000   0.5196152   0.0000000  )
        38           C   tau(  38) = (   0.3000000   0.6350853   0.0000000  )
        39           C   tau(  39) = (   0.2000000   0.6928203   0.0000000  )
        40           C   tau(  40) = (   0.2000000   0.8082904   0.0000000  )
        41           C   tau(  41) = (   0.8000000   0.0000000   0.0000000  )
        42           C   tau(  42) = (   0.8000000   0.1154701   0.0000000  )
        43           C   tau(  43) = (   0.7000000   0.1732051   0.0000000  )
        44           C   tau(  44) = (   0.7000000   0.2886751   0.0000000  )
        45           C   tau(  45) = (   0.6000000   0.3464102   0.0000000  )
        46           C   tau(  46) = (   0.6000000   0.4618802   0.0000000  )
        47           C   tau(  47) = (   0.5000000   0.5196152   0.0000000  )
        48           C   tau(  48) = (   0.5000000   0.6350853   0.0000000  )
        49           C   tau(  49) = (   0.4000000   0.6928203   0.0000000  )
        50           C   tau(  50) = (   0.4000000   0.8082904   0.0000000  )

   Crystallographic axes

     site n.     atom                  positions (cryst. coord.)
         1           C   tau(   1) = (  0.0000000  0.0000000  0.0000000  )
         2           C   tau(   2) = (  0.0666667  0.1333333  0.0000000  )
         3           C   tau(   3) = (  0.0000000  0.2000000  0.0000000  )
         4           C   tau(   4) = (  0.0666667  0.3333333  0.0000000  )
         5           C   tau(   5) = (  0.0000000  0.4000000  0.0000000  )
         6           C   tau(   6) = (  0.0666667  0.5333333  0.0000000  )
         7           C   tau(   7) = (  0.0000000  0.6000000  0.0000000  )
         8           C   tau(   8) = (  0.0666667  0.7333333  0.0000000  )
         9           C   tau(   9) = (  0.0000000  0.8000000  0.0000000  )
        10           C   tau(  10) = (  0.0666667  0.9333333  0.0000000  )
        11           C   tau(  11) = (  0.2000000  0.0000000  0.0000000  )
        12           C   tau(  12) = (  0.2666667  0.1333333  0.0000000  )
        13           C   tau(  13) = (  0.2000000  0.2000000  0.0000000  )
        14           C   tau(  14) = (  0.2666667  0.3333333  0.0000000  )
        15           C   tau(  15) = (  0.2000000  0.4000000  0.0000000  )
        16           C   tau(  16) = (  0.2666667  0.5333333  0.0000000  )
        17           C   tau(  17) = (  0.2000000  0.6000000  0.0000000  )
        18           C   tau(  18) = (  0.2666667  0.7333333  0.0000000  )
        19           C   tau(  19) = (  0.2000000  0.8000000  0.0000000  )
        20           C   tau(  20) = (  0.2666667  0.9333333  0.0000000  )
        21           C   tau(  21) = (  0.4000000  0.0000000  0.0000000  )
        22           C   tau(  22) = (  0.4666667  0.1333333  0.0000000  )
        23           C   tau(  23) = (  0.4000000  0.2000000  0.0000000  )
        24           C   tau(  24) = (  0.4666667  0.3333333  0.0000000  )
        25           C   tau(  25) = (  0.4000000  0.4000000  0.0000000  )
        26           Fe1 tau(  26) = (  0.4666667  0.5333333  0.0000000  )
        27           C   tau(  27) = (  0.4000000  0.6000000  0.0000000  )
        28           C   tau(  28) = (  0.4666667  0.7333333  0.0000000  )
        29           C   tau(  29) = (  0.4000000  0.8000000  0.0000000  )
        30           C   tau(  30) = (  0.4666667  0.9333333  0.0000000  )
        31           C   tau(  31) = (  0.6000000  0.0000000  0.0000000  )
        32           C   tau(  32) = (  0.6666667  0.1333333  0.0000000  )
        33           C   tau(  33) = (  0.6000000  0.2000000  0.0000000  )
        34           C   tau(  34) = (  0.6666667  0.3333333  0.0000000  )
        35           C   tau(  35) = (  0.6000000  0.4000000  0.0000000  )
        36           C   tau(  36) = (  0.6666667  0.5333333  0.0000000  )
        37           C   tau(  37) = (  0.6000000  0.6000000  0.0000000  )
        38           C   tau(  38) = (  0.6666667  0.7333333  0.0000000  )
        39           C   tau(  39) = (  0.6000000  0.8000000  0.0000000  )
        40           C   tau(  40) = (  0.6666667  0.9333333  0.0000000  )
        41           C   tau(  41) = (  0.8000000  0.0000000  0.0000000  )
        42           C   tau(  42) = (  0.8666667  0.1333333  0.0000000  )
        43           C   tau(  43) = (  0.8000000  0.2000000  0.0000000  )
        44           C   tau(  44) = (  0.8666667  0.3333333  0.0000000  )
        45           C   tau(  45) = (  0.8000000  0.4000000  0.0000000  )
        46           C   tau(  46) = (  0.8666667  0.5333333  0.0000000  )
        47           C   tau(  47) = (  0.8000000  0.6000000  0.0000000  )
        48           C   tau(  48) = (  0.8666667  0.7333333  0.0000000  )
        49           C   tau(  49) = (  0.8000000  0.8000000  0.0000000  )
        50           C   tau(  50) = (  0.8666667  0.9333333  0.0000000  )

     number of k points=     3  Marzari-Vanderbilt smearing, width (Ry)=  0.0010
                       cart. coord. in units 2pi/alat
        k(    1) = (   0.0000000   0.0000000   0.0000000), wk =   0.2500000
        k(    2) = (   0.0000000  -0.5773503   0.0000000), wk =   0.5000000
        k(    3) = (   0.5000000  -0.2886751   0.0000000), wk =   0.2500000

                       cryst. coord.
        k(    1) = (   0.0000000   0.0000000   0.0000000), wk =   0.2500000
        k(    2) = (   0.0000000  -0.5000000   0.0000000), wk =   0.5000000
        k(    3) = (   0.5000000  -0.5000000   0.0000000), wk =   0.2500000

     Check: negative core charge=   -0.000002

     Initial potential from superposition of free atoms

     starting charge  211.99753, renormalised to  212.00000

     negative rho (up, down):  7.794E-05 2.653E-02
     Starting wfcs are  206 randomized atomic wfcs

     Self-consistent Calculation

     iteration #  1     ecut=    70.00 Ry     beta= 0.70
     Davidson diagonalization with overlap
     ethr =  1.00E-02,  avg # of iterations =  3.0

     negative rho (up, down):  3.329E-04 2.579E-02

     total energy              =    -854.07730909 Ry
     Harris-Foulkes estimate   =    -856.21463294 Ry
     estimated scf accuracy    <       6.86695650 Ry

     total magnetization       =     2.00 Bohr mag/cell
     absolute magnetization    =     2.93 Bohr mag/cell

[...]

     total energy              =    -855.90060599 Ry
     Harris-Foulkes estimate   =    -855.90060634 Ry
     estimated scf accuracy    <       0.00001158 Ry

[...]

     iteration # 23     ecut=    70.00 Ry     beta= 0.70
     Davidson diagonalization with overlap
     ethr =  2.50E-09,  avg # of iterations =  2.5

     negative rho (up, down):  7.036E-04 1.383E-02

     Magnetic moment per site:
     atom:    1    charge:    1.7100    magn:   -0.0003    constr:    0.0000
     atom:    2    charge:    1.7102    magn:    0.0101    constr:    0.0000
     atom:    3    charge:    1.7111    magn:    0.0022    constr:    0.0000
     atom:    4    charge:    1.7086    magn:    0.0075    constr:    0.0000
     atom:    5    charge:    1.7111    magn:    0.0022    constr:    0.0000
     atom:    6    charge:    1.7102    magn:    0.0101    constr:    0.0000
     atom:    7    charge:    1.7100    magn:   -0.0003    constr:    0.0000
     atom:    8    charge:    1.7115    magn:    0.0182    constr:    0.0000
     atom:    9    charge:    1.7095    magn:   -0.0010    constr:    0.0000
     atom:   10    charge:    1.7115    magn:    0.0182    constr:    0.0000
     atom:   11    charge:    1.7095    magn:   -0.0010    constr:    0.0000
     atom:   12    charge:    1.7122    magn:    0.0206    constr:    0.0000
     atom:   13    charge:    1.7070    magn:   -0.0004    constr:    0.0000
     atom:   14    charge:    1.7086    magn:    0.0278    constr:    0.0000
     atom:   15    charge:    1.7139    magn:    0.0056    constr:    0.0000
     atom:   16    charge:    1.7086    magn:    0.0278    constr:    0.0000
     atom:   17    charge:    1.7070    magn:   -0.0004    constr:    0.0000
     atom:   18    charge:    1.7122    magn:    0.0206    constr:    0.0000
     atom:   19    charge:    1.7094    magn:   -0.0010    constr:    0.0000
     atom:   20    charge:    1.7115    magn:    0.0182    constr:    0.0000
     atom:   21    charge:    1.7100    magn:   -0.0003    constr:    0.0000
     atom:   22    charge:    1.7102    magn:    0.0101    constr:    0.0000
     atom:   23    charge:    1.7070    magn:   -0.0004    constr:    0.0000
     atom:   24    charge:    1.7086    magn:    0.0278    constr:    0.0000
     atom:   25    charge:    1.8448    magn:   -0.0012    constr:    0.0000
     atom:   26    charge:   11.1542    magn:    0.4381    constr:    0.0000
     atom:   27    charge:    1.8448    magn:   -0.0011    constr:    0.0000
     atom:   28    charge:    1.7086    magn:    0.0278    constr:    0.0000
     atom:   29    charge:    1.7070    magn:   -0.0004    constr:    0.0000
     atom:   30    charge:    1.7102    magn:    0.0101    constr:    0.0000
     atom:   31    charge:    1.7111    magn:    0.0022    constr:    0.0000
     atom:   32    charge:    1.7095    magn:    0.0105    constr:    0.0000
     atom:   33    charge:    1.7111    magn:    0.0022    constr:    0.0000
     atom:   34    charge:    1.7086    magn:    0.0075    constr:    0.0000
     atom:   35    charge:    1.7139    magn:    0.0055    constr:    0.0000
     atom:   36    charge:    1.7086    magn:    0.0278    constr:    0.0000
     atom:   37    charge:    1.8448    magn:   -0.0012    constr:    0.0000
     atom:   38    charge:    1.7086    magn:    0.0278    constr:    0.0000
     atom:   39    charge:    1.7139    magn:    0.0056    constr:    0.0000
     atom:   40    charge:    1.7086    magn:    0.0075    constr:    0.0000
     atom:   41    charge:    1.7111    magn:    0.0022    constr:    0.0000
     atom:   42    charge:    1.7095    magn:    0.0105    constr:    0.0000
     atom:   43    charge:    1.7128    magn:    0.0020    constr:    0.0000
     atom:   44    charge:    1.7095    magn:    0.0105    constr:    0.0000
     atom:   45    charge:    1.7111    magn:    0.0022    constr:    0.0000
     atom:   46    charge:    1.7102    magn:    0.0101    constr:    0.0000
     atom:   47    charge:    1.7070    magn:   -0.0004    constr:    0.0000
     atom:   48    charge:    1.7122    magn:    0.0206    constr:    0.0000
     atom:   49    charge:    1.7070    magn:   -0.0004    constr:    0.0000
     atom:   50    charge:    1.7102    magn:    0.0101    constr:    0.0000

     End of self-consistent calculation

 ------ SPIN UP ------------

          k = 0.0000 0.0000 0.0000 ( 87777 PWs)   bands (ev):

   -88.7194 -55.6108 -55.6107 -54.0522 -19.8966 -19.0197 -19.0197 -18.9924
   -18.9911 -18.9911 -18.6312 -17.1927 -17.1926 -17.1834 -17.1181 -17.1181
   -16.8333 -16.3325 -16.3325 -16.2553 -16.2059 -16.2058 -15.5294 -14.1978
   -14.1977 -14.1448 -14.0965 -14.0965 -13.5389 -13.1812 -13.1812 -13.1553
   -12.9056 -12.9056 -12.4315 -11.9640 -11.9640 -11.7785 -11.5285 -11.5285
   -10.6666  -9.8423  -9.8423  -9.5081  -9.3836  -9.3836  -9.3316  -9.3141
    -9.3141  -9.3079  -8.8503  -8.8503  -8.3484  -8.3483  -8.1663  -8.0133
    -7.9389  -7.5466  -7.5465  -7.3972  -7.2263  -7.2262  -7.1013  -7.1012
    -6.9363  -6.9361  -6.9283  -6.7922  -6.6354  -6.6316  -6.6315  -6.6271
    -6.6133  -6.6132  -6.5820  -5.7647  -5.7647  -5.7538  -5.7538  -5.4844
    -5.4844  -5.4125  -5.0302  -4.9818  -4.8257  -4.8068  -4.8068  -4.5394
    -4.5394  -4.5196  -4.3551  -4.3550  -3.9318  -3.9318  -3.8988  -3.7585
    -3.7585  -3.2870  -2.9258  -2.9258  -1.9628  -1.9312  -1.9312  -1.6314
    -1.1813  -1.1813  -1.0694   0.8316   0.8641   0.8641   1.4027   1.4027
     1.5151   2.2442   2.2442   2.7128   2.7128   2.7479   2.7662   3.2896
     3.2896   3.4259   4.0077   4.0145   4.0230   4.0232   4.1696

     occupation numbers
     1.0000   1.0000   1.0000   1.0000   1.0000   1.0000   1.0000   1.0000
     1.0000   1.0000   1.0000   1.0000   1.0000   1.0000   1.0000   1.0000
     1.0000   1.0000   1.0000   1.0000   1.0000   1.0000   1.0000   1.0000
     1.0000   1.0000   1.0000   1.0000   1.0000   1.0000   1.0000   1.0000
     1.0000   1.0000   1.0000   1.0000   1.0000   1.0000   1.0000   1.0000
     1.0000   1.0000   1.0000   1.0000   1.0000   1.0000   1.0000   1.0000
     1.0000   1.0000   1.0000   1.0000   1.0000   1.0000   1.0000   1.0000
     1.0000   1.0000   1.0000   1.0000   1.0000   1.0000   1.0000   1.0000
     1.0000   1.0000   1.0000   1.0000   1.0000   1.0000   1.0000   1.0000
     1.0000   1.0000   1.0000   1.0000   1.0000   1.0000   1.0000   1.0000
     1.0000   1.0000   1.0000   1.0000   1.0000   1.0000   1.0000   1.0000
     1.0000   1.0000   1.0000   1.0000   1.0000   1.0000   1.0000   1.0000
     1.0000   1.0000   1.0000   1.0000   1.0000   1.0000   1.0000   1.0000
     1.0000   1.0000   1.0000   0.0000   0.0000   0.0000   0.0000   0.0000
     0.0000   0.0000   0.0000   0.0000   0.0000   0.0000   0.0000   0.0000
     0.0000   0.0000   0.0000   0.0000   0.0000   0.0000   0.0000

[...]

 ------ SPIN DOWN ----------

[...]

          k = 0.5000-0.2887 0.0000 ( 87818 PWs)   bands (ev):

   -88.0169 -55.0470 -55.0469 -53.1378 -19.6766 -19.5878 -19.2060 -19.0818
   -18.2970 -18.2652 -18.2506 -18.0796 -17.7884 -17.6338 -16.9248 -16.9009
   -16.8432 -16.5887 -15.6331 -15.5809 -15.4987 -15.4512 -15.2675 -15.1316
   -15.1152 -14.8256 -14.4068 -13.9148 -13.7427 -13.3560 -12.8457 -12.7541
   -12.6081 -12.6043 -12.2373 -11.8478 -11.4324 -11.3587 -11.2667 -10.8796
   -10.8505 -10.5033 -10.4922 -10.1923 -10.1887  -9.6933  -9.5168  -9.0575
    -8.9789  -8.9428  -8.6383  -8.4490  -8.3566  -8.0043  -7.8055  -7.7428
    -7.6775  -7.6161  -7.6053  -7.3908  -7.3183  -7.2698  -7.2639  -7.1856
    -7.0572  -7.0287  -6.8429  -6.6253  -6.6242  -6.4541  -6.3314  -6.3276
    -6.2368  -6.1105  -6.0894  -6.0482  -5.8652  -5.8579  -5.7303  -5.5186
    -5.5017  -5.3636  -5.2685  -5.2509  -4.8625  -4.6233  -4.5898  -4.5401
    -4.5156  -4.4029  -4.3376  -4.1350  -4.0294  -3.8138  -3.6372  -3.0676
    -3.0204  -3.0015  -2.9220  -2.8703  -2.7906  -2.0778  -1.9494  -1.3478
    -0.7929  -0.7797  -0.6923   0.8103   0.9384   1.4969   1.7021   1.7761
     2.0978   2.1331   2.3219   2.3458   2.4083   2.7119   2.8442   3.0608
     3.1517   3.4058   3.7122   3.7932   3.9565   4.0527   4.5666

     occupation numbers
     1.0000   1.0000   1.0000   1.0000   1.0000   1.0000   1.0000   1.0000
     1.0000   1.0000   1.0000   1.0000   1.0000   1.0000   1.0000   1.0000
     1.0000   1.0000   1.0000   1.0000   1.0000   1.0000   1.0000   1.0000
     1.0000   1.0000   1.0000   1.0000   1.0000   1.0000   1.0000   1.0000
     1.0000   1.0000   1.0000   1.0000   1.0000   1.0000   1.0000   1.0000
     1.0000   1.0000   1.0000   1.0000   1.0000   1.0000   1.0000   1.0000
     1.0000   1.0000   1.0000   1.0000   1.0000   1.0000   1.0000   1.0000
     1.0000   1.0000   1.0000   1.0000   1.0000   1.0000   1.0000   1.0000
     1.0000   1.0000   1.0000   1.0000   1.0000   1.0000   1.0000   1.0000
     1.0000   1.0000   1.0000   1.0000   1.0000   1.0000   1.0000   1.0000
     1.0000   1.0000   1.0000   1.0000   1.0000   1.0000   1.0000   1.0000
     1.0000   1.0000   1.0000   1.0000   1.0000   1.0000   1.0000   1.0000
     1.0000   1.0000   1.0000   1.0000   1.0000   1.0000   1.0000   1.0000
     0.3036   0.0188   0.0000   0.0000   0.0000   0.0000   0.0000   0.0000
     0.0000   0.0000   0.0000   0.0000   0.0000   0.0000   0.0000   0.0000
     0.0000   0.0000   0.0000   0.0000   0.0000   0.0000   0.0000

     the Fermi energy is    -0.7949 ev

!    total energy              =    -855.90060632 Ry
     Harris-Foulkes estimate   =    -855.90060675 Ry
     estimated scf accuracy    <       0.00000100 Ry

     The total energy is the sum of the following terms:

     one-electron contribution =   -2807.05990894 Ry
     hartree contribution      =    1447.13746471 Ry
     xc contribution           =    -255.78818080 Ry
     ewald contribution        =     759.94260384 Ry
     DFT-D3 Dispersion         =      -0.13247101 Ry
     smearing contrib. (-TS)   =      -0.00011413 Ry

     total magnetization       =     2.00 Bohr mag/cell
     absolute magnetization    =     2.11 Bohr mag/cell

     convergence has been achieved in  23 iterations

     Writing output data file gr-12.save/

     General routines

     Parallel routines

   This run was terminated on:  14:11:35  10May2022

   JOB DONE.