     Program PWSCF v.6.4.1 starts on 13Oct2022 at 15:58:35

     R & G space division:  proc/nbgrp/npool/nimage =       6
     Reading input from rotate-15.in

     Current dimensions of program PWSCF are:
     Max number of different atomic species (ntypx) = 10
     Max number of k-points (npk) =  40000
     Max angular momentum in pseudopotentials (lmaxx) =  3

     IMPORTANT: XC functional enforced from input :
     Exchange-correlation      = RVV10 ( 1  4 13  4 3 0)
     Any further DFT definition will be discarded
     Please, verify this is what you really want

               file H.pbe-rrkjus.UPF: wavefunction(s)  1S renormalized
               file V.pbe-spnl-rrkjus_psl.1.0.0.UPF: wavefunction(s)  3P 3D renormalized

     Subspace diagonalization in iterative solution of the eigenvalue problem:
     a serial algorithm will be used

     bravais-lattice index     =            4
     lattice parameter (alat)  =      23.2937  a.u.
     unit-cell volume          =    8879.8548 (a.u.)^3
     number of atoms/cell      =           52
     number of atomic types    =            3
     number of electrons       =       211.00
     number of Kohn-Sham states=          127
     kinetic-energy cutoff     =      70.0000  Ry
     charge density cutoff     =     490.0000  Ry
     convergence threshold     =      1.0E-06
     mixing beta               =       0.7000
     number of iterations used =            8  plain     mixing
     Exchange-correlation      = RVV10 ( 1  4 13  4 3 0)

     celldm(1)=  23.293684  celldm(2)=   0.000000  celldm(3)=   0.811261
     celldm(4)=   0.000000  celldm(5)=   0.000000  celldm(6)=   0.000000

     crystal axes: (cart. coord. in units of alat)
               a(1) = (   1.000000   0.000000   0.000000 )
               a(2) = (  -0.500000   0.866025   0.000000 )
               a(3) = (   0.000000   0.000000   0.811261 )

     reciprocal axes: (cart. coord. in units 2 pi/alat)
               b(1) = (  1.000000  0.577350 -0.000000 )
               b(2) = (  0.000000  1.154701  0.000000 )
               b(3) = (  0.000000 -0.000000  1.232649 )

     PseudoPot. # 1 for H  read from file:
     /home/cristian/Escritorio/Proyecto_Grafeno/pseudopotenciales/H.pbe-rrkjus.UPF
     MD5 check sum: 7cc9d459525c9a0585f487a71c3c9563
     Pseudo is Ultrasoft, Zval =  1.0
     Generated by new atomic code, or converted to UPF format
     Using radial grid of 1061 points,  2 beta functions with:
                l(1) =   0
                l(2) =   0
     Q(r) pseudized with 0 coefficients

     PseudoPot. # 2 for C  read from file:
     /home/cristian/Escritorio/Proyecto_Grafeno/pseudopotenciales/C.pbe-n-rrkjus_psl.1.0.0.UPF
     MD5 check sum: 1fdd950c42eb37d8afe3dd2f8d12311e
     Pseudo is Ultrasoft + core correction, Zval =  4.0
     Generated using "atomic" code by A. Dal Corso v.6.3MaX
     Using radial grid of 1073 points,  4 beta functions with:
                l(1) =   0
                l(2) =   0
                l(3) =   1
                l(4) =   1
     Q(r) pseudized with 0 coefficients

     PseudoPot. # 3 for V  read from file:
     /home/cristian/Escritorio/Proyecto_Grafeno/pseudopotenciales/V.pbe-spnl-rrkjus_psl.1.0.0.UPF
     MD5 check sum: 79b3eb63147daf0b665d9f1bcc691206
     Pseudo is Ultrasoft + core correction, Zval = 13.0
     Generated using "atomic" code by A. Dal Corso v.6.2.2
     Using radial grid of 1181 points,  6 beta functions with:
                l(1) =   0
                l(2) =   0
                l(3) =   1
                l(4) =   1
                l(5) =   2
                l(6) =   2
     Q(r) pseudized with 0 coefficients

     vdW kernel table read from file rVV10_kernel_table
     MD5 check sum: b8e2538accc0c0b3206b45ba4daaba6c

     atomic species   valence    mass     pseudopotential
        H              1.00     1.00794     H ( 1.00)
        C              4.00    12.01070     C ( 1.00)
        V             13.00    50.94150     V ( 1.00)

     Starting magnetic structure
     atomic species   magnetization
        H            0.500
        C            0.300
        V            0.800

     No symmetry found

                                    s                        frac. trans.

      isym =  1     identity

 cryst.   s( 1) = (     1          0          0      )
                  (     0          1          0      )
                  (     0          0          1      )

 cart.    s( 1) = (  1.0000000  0.0000000  0.0000000 )
                  (  0.0000000  1.0000000  0.0000000 )
                  (  0.0000000  0.0000000  1.0000000 )

     point group C_1 (1)
     there are  1 classes
     the character table:

       E
A      1.00

     the symmetry operations in each class and the name of the first element:

     E        1
          identity

   Cartesian axes

     site n.     atom                  positions (alat units)
         1           H   tau(   1) = (   0.2294668   0.4697758   0.2271531  )
         2           H   tau(   2) = (   0.1705332   0.4539846   0.2271531  )
         3           C   tau(   3) = (   0.0000000   0.0000000   0.0000000  )
         4           C   tau(   4) = (   0.0000000   0.1154701   0.0000000  )
         5           C   tau(   5) = (  -0.1000000   0.1732051   0.0000000  )
         6           C   tau(   6) = (  -0.1000000   0.2886751   0.0000000  )
         7           C   tau(   7) = (  -0.2000000   0.3464102   0.0000000  )
         8           C   tau(   8) = (  -0.2000000   0.4618802   0.0000000  )
         9           C   tau(   9) = (  -0.3000000   0.5196152   0.0000000  )
        10           C   tau(  10) = (  -0.3000000   0.6350853   0.0000000  )
        11           C   tau(  11) = (  -0.4000000   0.6928203   0.0000000  )
        12           C   tau(  12) = (  -0.4000000   0.8082904   0.0000000  )
        13           C   tau(  13) = (   0.2000000   0.0000000   0.0000000  )
        14           C   tau(  14) = (   0.2000000   0.1154701   0.0000000  )
        15           C   tau(  15) = (   0.1000000   0.1732051   0.0000000  )
        16           C   tau(  16) = (   0.1000000   0.2886751   0.0000000  )
        17           C   tau(  17) = (   0.0000000   0.3464102   0.0000000  )
        18           C   tau(  18) = (   0.0000000   0.4618802   0.0000000  )
        19           C   tau(  19) = (  -0.1000000   0.5196152   0.0000000  )
        20           C   tau(  20) = (  -0.1000000   0.6350853   0.0000000  )
        21           C   tau(  21) = (  -0.2000000   0.6928203   0.0000000  )
        22           C   tau(  22) = (  -0.2000000   0.8082904   0.0000000  )
        23           C   tau(  23) = (   0.4000000   0.0000000   0.0000000  )
        24           C   tau(  24) = (   0.4000000   0.1154701   0.0000000  )
        25           C   tau(  25) = (   0.3000000   0.1732051   0.0000000  )
        26           C   tau(  26) = (   0.3000000   0.2886751   0.0000000  )
        27           C   tau(  27) = (   0.2000000   0.3464102   0.0000000  )
        28           V   tau(  28) = (   0.2000000   0.4618802   0.0000000  )
        29           C   tau(  29) = (   0.1000000   0.5196152   0.0000000  )
        30           C   tau(  30) = (   0.1000000   0.6350853   0.0000000  )
        31           C   tau(  31) = (   0.0000000   0.6928203   0.0000000  )
        32           C   tau(  32) = (   0.0000000   0.8082904   0.0000000  )
        33           C   tau(  33) = (   0.6000000   0.0000000   0.0000000  )
        34           C   tau(  34) = (   0.6000000   0.1154701   0.0000000  )
        35           C   tau(  35) = (   0.5000000   0.1732051   0.0000000  )
        36           C   tau(  36) = (   0.5000000   0.2886751   0.0000000  )
        37           C   tau(  37) = (   0.4000000   0.3464102   0.0000000  )
        38           C   tau(  38) = (   0.4000000   0.4618802   0.0000000  )
        39           C   tau(  39) = (   0.3000000   0.5196152   0.0000000  )
        40           C   tau(  40) = (   0.3000000   0.6350853   0.0000000  )
        41           C   tau(  41) = (   0.2000000   0.6928203   0.0000000  )
        42           C   tau(  42) = (   0.2000000   0.8082904   0.0000000  )
        43           C   tau(  43) = (   0.8000000   0.0000000   0.0000000  )
        44           C   tau(  44) = (   0.8000000   0.1154701   0.0000000  )
        45           C   tau(  45) = (   0.7000000   0.1732051   0.0000000  )
        46           C   tau(  46) = (   0.7000000   0.2886751   0.0000000  )
        47           C   tau(  47) = (   0.6000000   0.3464102   0.0000000  )
        48           C   tau(  48) = (   0.6000000   0.4618802   0.0000000  )
        49           C   tau(  49) = (   0.5000000   0.5196152   0.0000000  )
        50           C   tau(  50) = (   0.5000000   0.6350853   0.0000000  )
        51           C   tau(  51) = (   0.4000000   0.6928203   0.0000000  )
        52           C   tau(  52) = (   0.4000000   0.8082904   0.0000000  )

   Crystallographic axes

     site n.     atom                  positions (cryst. coord.)
         1           H   tau(   1) = (  0.5006920  0.5424504  0.2800000  )
         2           H   tau(   2) = (  0.4326413  0.5242163  0.2800000  )
         3           C   tau(   3) = (  0.0000000  0.0000000  0.0000000  )
         4           C   tau(   4) = (  0.0666667  0.1333333  0.0000000  )
         5           C   tau(   5) = (  0.0000000  0.2000000  0.0000000  )
         6           C   tau(   6) = (  0.0666667  0.3333333  0.0000000  )
         7           C   tau(   7) = (  0.0000000  0.4000000  0.0000000  )
         8           C   tau(   8) = (  0.0666667  0.5333333  0.0000000  )
         9           C   tau(   9) = (  0.0000000  0.6000000  0.0000000  )
        10           C   tau(  10) = (  0.0666667  0.7333333  0.0000000  )
        11           C   tau(  11) = (  0.0000000  0.8000000  0.0000000  )
        12           C   tau(  12) = (  0.0666667  0.9333333  0.0000000  )
        13           C   tau(  13) = (  0.2000000  0.0000000  0.0000000  )
        14           C   tau(  14) = (  0.2666667  0.1333333  0.0000000  )
        15           C   tau(  15) = (  0.2000000  0.2000000  0.0000000  )
        16           C   tau(  16) = (  0.2666667  0.3333333  0.0000000  )
        17           C   tau(  17) = (  0.2000000  0.4000000  0.0000000  )
        18           C   tau(  18) = (  0.2666667  0.5333333  0.0000000  )
        19           C   tau(  19) = (  0.2000000  0.6000000  0.0000000  )
        20           C   tau(  20) = (  0.2666667  0.7333333  0.0000000  )
        21           C   tau(  21) = (  0.2000000  0.8000000  0.0000000  )
        22           C   tau(  22) = (  0.2666667  0.9333333  0.0000000  )
        23           C   tau(  23) = (  0.4000000  0.0000000  0.0000000  )
        24           C   tau(  24) = (  0.4666667  0.1333333  0.0000000  )
        25           C   tau(  25) = (  0.4000000  0.2000000  0.0000000  )
        26           C   tau(  26) = (  0.4666667  0.3333333  0.0000000  )
        27           C   tau(  27) = (  0.4000000  0.4000000  0.0000000  )
        28           V   tau(  28) = (  0.4666667  0.5333333  0.0000000  )
        29           C   tau(  29) = (  0.4000000  0.6000000  0.0000000  )
        30           C   tau(  30) = (  0.4666667  0.7333333  0.0000000  )
        31           C   tau(  31) = (  0.4000000  0.8000000  0.0000000  )
        32           C   tau(  32) = (  0.4666667  0.9333333  0.0000000  )
        33           C   tau(  33) = (  0.6000000  0.0000000  0.0000000  )
        34           C   tau(  34) = (  0.6666667  0.1333333  0.0000000  )
        35           C   tau(  35) = (  0.6000000  0.2000000  0.0000000  )
        36           C   tau(  36) = (  0.6666667  0.3333333  0.0000000  )
        37           C   tau(  37) = (  0.6000000  0.4000000  0.0000000  )
        38           C   tau(  38) = (  0.6666667  0.5333333  0.0000000  )
        39           C   tau(  39) = (  0.6000000  0.6000000  0.0000000  )
        40           C   tau(  40) = (  0.6666667  0.7333333  0.0000000  )
        41           C   tau(  41) = (  0.6000000  0.8000000  0.0000000  )
        42           C   tau(  42) = (  0.6666667  0.9333333  0.0000000  )
        43           C   tau(  43) = (  0.8000000  0.0000000  0.0000000  )
        44           C   tau(  44) = (  0.8666667  0.1333333  0.0000000  )
        45           C   tau(  45) = (  0.8000000  0.2000000  0.0000000  )
        46           C   tau(  46) = (  0.8666667  0.3333333  0.0000000  )
        47           C   tau(  47) = (  0.8000000  0.4000000  0.0000000  )
        48           C   tau(  48) = (  0.8666667  0.5333333  0.0000000  )
        49           C   tau(  49) = (  0.8000000  0.6000000  0.0000000  )
        50           C   tau(  50) = (  0.8666667  0.7333333  0.0000000  )
        51           C   tau(  51) = (  0.8000000  0.8000000  0.0000000  )
        52           C   tau(  52) = (  0.8666667  0.9333333  0.0000000  )

     number of k points=     1  Marzari-Vanderbilt smearing, width (Ry)=  0.0010
                       cart. coord. in units 2pi/alat
        k(    1) = (   0.0000000   0.0000000   0.0000000), wk =   1.0000000

                       cryst. coord.
        k(    1) = (   0.0000000   0.0000000   0.0000000), wk =   1.0000000

     Check: negative core charge=   -0.000002

     Initial potential from superposition of free atoms

     starting charge  210.80465, renormalised to  211.00000

     negative rho (up, down):  1.173E-04 1.537E-02

Carrying out rVV10 run using the following parameters:
Nqs =      20    Nr_points =    1024   r_max =   100.000
b_value =  6.30000    beta =  0.00901
     q_mesh =  0.00010000  0.00030000  0.00058939  0.00100810
               0.00161396  0.00249058  0.00375900  0.00559430
               0.00824984  0.01209221  0.01765183  0.02569619
               0.03733578  0.05417739  0.07854596  0.11380545
               0.16482331  0.23864234  0.34545298  0.50000000

Gradients computed in Reciprocal space

     Starting wfcs are  208 randomized atomic wfcs

     Self-consistent Calculation

     iteration #  1     ecut=    70.00 Ry     beta= 0.70
     Davidson diagonalization with overlap
     ethr =  1.00E-02,  avg # of iterations =  3.0

[...]

     total energy              =    -752.94642822 Ry
     Harris-Foulkes estimate   =    -756.95750782 Ry
     estimated scf accuracy    <      11.85589405 Ry

     total magnetization       =     5.00 Bohr mag/cell
     absolute magnetization    =     6.01 Bohr mag/cell

[...]

     total energy              =    -757.33799500 Ry
     Harris-Foulkes estimate   =    -757.33799569 Ry
     estimated scf accuracy    <       0.00000133 Ry

[...]

     iteration # 28     ecut=    70.00 Ry     beta= 0.70
     Davidson diagonalization with overlap
     ethr =  6.30E-10,  avg # of iterations =  3.0

     negative rho (up, down):  3.405E-02 1.829E-03

     Magnetic moment per site:
     atom:    1    charge:    0.2100    magn:   -0.0000    constr:    0.0000
     atom:    2    charge:    0.2101    magn:   -0.0000    constr:    0.0000
     atom:    3    charge:    1.7177    magn:   -0.0068    constr:    0.0000
     atom:    4    charge:    1.7158    magn:    0.0094    constr:    0.0000
     atom:    5    charge:    1.7183    magn:   -0.0041    constr:    0.0000
     atom:    6    charge:    1.7141    magn:    0.0025    constr:    0.0000
     atom:    7    charge:    1.7184    magn:   -0.0040    constr:    0.0000
     atom:    8    charge:    1.7157    magn:    0.0088    constr:    0.0000
     atom:    9    charge:    1.7178    magn:   -0.0066    constr:    0.0000
     atom:   10    charge:    1.7141    magn:    0.0287    constr:    0.0000
     atom:   11    charge:    1.7187    magn:   -0.0089    constr:    0.0000
     atom:   12    charge:    1.7145    magn:    0.0309    constr:    0.0000
     atom:   13    charge:    1.7186    magn:   -0.0089    constr:    0.0000
     atom:   14    charge:    1.7143    magn:    0.0214    constr:    0.0000
     atom:   15    charge:    1.7170    magn:   -0.0074    constr:    0.0000
     atom:   16    charge:    1.7107    magn:    0.0271    constr:    0.0000
     atom:   17    charge:    1.7272    magn:   -0.0047    constr:    0.0000
     atom:   18    charge:    1.7108    magn:    0.0276    constr:    0.0000
     atom:   19    charge:    1.7170    magn:   -0.0076    constr:    0.0000
     atom:   20    charge:    1.7145    magn:    0.0231    constr:    0.0000
     atom:   21    charge:    1.7186    magn:   -0.0089    constr:    0.0000
     atom:   22    charge:    1.7148    magn:    0.0331    constr:    0.0000
     atom:   23    charge:    1.7176    magn:   -0.0070    constr:    0.0000
     atom:   24    charge:    1.7158    magn:    0.0099    constr:    0.0000
     atom:   25    charge:    1.7169    magn:   -0.0077    constr:    0.0000
     atom:   26    charge:    1.7110    magn:    0.0292    constr:    0.0000
     atom:   27    charge:    1.9150    magn:   -0.0007    constr:    0.0000
     atom:   28    charge:    7.8602    magn:    0.1017    constr:    0.0000
     atom:   29    charge:    1.9149    magn:   -0.0004    constr:    0.0000
     atom:   30    charge:    1.7113    magn:    0.0318    constr:    0.0000
     atom:   31    charge:    1.7169    magn:   -0.0081    constr:    0.0000
     atom:   32    charge:    1.7157    magn:    0.0099    constr:    0.0000
     atom:   33    charge:    1.7183    magn:   -0.0043    constr:    0.0000
     atom:   34    charge:    1.7138    magn:    0.0072    constr:    0.0000
     atom:   35    charge:    1.7183    magn:   -0.0042    constr:    0.0000
     atom:   36    charge:    1.7141    magn:    0.0026    constr:    0.0000
     atom:   37    charge:    1.7270    magn:   -0.0051    constr:    0.0000
     atom:   38    charge:    1.7111    magn:    0.0301    constr:    0.0000
     atom:   39    charge:    1.9149    magn:   -0.0000    constr:    0.0000
     atom:   40    charge:    1.7114    magn:    0.0323    constr:    0.0000
     atom:   41    charge:    1.7269    magn:   -0.0056    constr:    0.0000
     atom:   42    charge:    1.7141    magn:    0.0027    constr:    0.0000
     atom:   43    charge:    1.7183    magn:   -0.0042    constr:    0.0000
     atom:   44    charge:    1.7138    magn:    0.0068    constr:    0.0000
     atom:   45    charge:    1.7246    magn:   -0.0030    constr:    0.0000
     atom:   46    charge:    1.7137    magn:    0.0064    constr:    0.0000
     atom:   47    charge:    1.7184    magn:   -0.0041    constr:    0.0000
     atom:   48    charge:    1.7156    magn:    0.0088    constr:    0.0000
     atom:   49    charge:    1.7169    magn:   -0.0080    constr:    0.0000
     atom:   50    charge:    1.7148    magn:    0.0247    constr:    0.0000
     atom:   51    charge:    1.7169    magn:   -0.0083    constr:    0.0000
     atom:   52    charge:    1.7156    magn:    0.0093    constr:    0.0000

     End of self-consistent calculation

 ------ SPIN UP ------------

          k = 0.0000 0.0000 0.0000 ( 87777 PWs)   bands (ev):

   -62.8172 -37.9054 -37.8994 -36.5794 -19.6189 -18.7792 -18.7728 -18.7063
   -18.6623 -18.6581 -18.2225 -16.9218 -16.9202 -16.9190 -16.7836 -16.7813
   -16.5003 -16.0667 -16.0666 -15.9729 -15.8172 -15.8164 -15.0651 -13.8783
   -13.8729 -13.8694 -13.8465 -13.8460 -13.1163 -12.9016 -12.9009 -12.8836
   -12.4888 -12.4887 -12.0969 -11.6290 -11.6280 -11.5044 -11.1225 -11.1224
   -10.1346  -9.3204  -9.3190  -9.2397  -9.1663  -9.1658  -9.0766  -9.0523
    -9.0516  -9.0360  -8.4474  -8.4468  -7.8779  -7.8764  -7.8468  -7.8237
    -7.6600  -7.5061  -7.2388  -7.2366  -6.9485  -6.9457  -6.8779  -6.6854
    -6.6843  -6.6829  -6.5746  -6.5735  -6.5275  -6.4204  -6.4169  -6.3744
    -6.3705  -6.3692  -6.3173  -6.2430  -5.2440  -5.2424  -5.1415  -5.1372
    -4.9287  -4.9285  -4.8180  -4.7301  -4.6057  -4.5940  -4.5939  -4.2199
    -3.9697  -3.9697  -3.7452  -3.7445  -3.6441  -3.6029  -3.4824  -3.4819
    -2.8611  -2.2446  -2.2419  -2.1997  -2.1968  -1.7325  -1.6678  -1.6662
    -0.5006  -0.2230  -0.2213   1.0646   1.0936   1.0962   1.1651   1.8316
     2.0662   2.0671   2.5404   2.9057   2.9116   2.9909   3.1542   3.4690
     3.6712   3.7447   3.7468   3.7917   3.9636   4.0113   4.0171

     occupation numbers
     1.0000   1.0000   1.0000   1.0000   1.0000   1.0000   1.0000   1.0000
     1.0000   1.0000   1.0000   1.0000   1.0000   1.0000   1.0000   1.0000
     1.0000   1.0000   1.0000   1.0000   1.0000   1.0000   1.0000   1.0000
     1.0000   1.0000   1.0000   1.0000   1.0000   1.0000   1.0000   1.0000
     1.0000   1.0000   1.0000   1.0000   1.0000   1.0000   1.0000   1.0000
     1.0000   1.0000   1.0000   1.0000   1.0000   1.0000   1.0000   1.0000
     1.0000   1.0000   1.0000   1.0000   1.0000   1.0000   1.0000   1.0000
     1.0000   1.0000   1.0000   1.0000   1.0000   1.0000   1.0000   1.0000
     1.0000   1.0000   1.0000   1.0000   1.0000   1.0000   1.0000   1.0000
     1.0000   1.0000   1.0000   1.0000   1.0000   1.0000   1.0000   1.0000
     1.0000   1.0000   1.0000   1.0000   1.0000   1.0000   1.0000   1.0000
     1.0000   1.0000   1.0000   1.0000   1.0000   1.0000   1.0000   1.0000
     1.0000   1.0000   1.0000   1.0000   1.0000   1.0000   1.0000   1.0000
     1.0000   0.5443   0.4557   0.0000   0.0000   0.0000   0.0000   0.0000
     0.0000   0.0000   0.0000   0.0000   0.0000   0.0000   0.0000   0.0000
     0.0000   0.0000   0.0000   0.0000   0.0000   0.0000   0.0000

 ------ SPIN DOWN ----------

          k = 0.0000 0.0000 0.0000 ( 87777 PWs)   bands (ev):

   -62.6207 -37.7511 -37.7295 -36.3107 -19.5971 -18.7586 -18.7502 -18.6860
   -18.6459 -18.6411 -18.1904 -16.9057 -16.9017 -16.8996 -16.7559 -16.7524
   -16.4861 -16.0401 -16.0389 -15.9571 -15.7961 -15.7953 -15.0503 -13.8438
   -13.8426 -13.8412 -13.8332 -13.8261 -13.1194 -12.8912 -12.8901 -12.8680
   -12.4808 -12.4804 -12.0785 -11.6108 -11.6105 -11.4912 -11.1103 -11.1097
   -10.1201  -9.3038  -9.3017  -9.2267  -9.1491  -9.1480  -9.0684  -9.0379
    -9.0378  -9.0267  -8.4409  -8.4398  -7.8665  -7.8648  -7.8381  -7.7784
    -7.6516  -7.4977  -7.2299  -7.2279  -6.8697  -6.8696  -6.8576  -6.6532
    -6.6510  -6.6327  -6.5631  -6.5622  -6.5179  -6.4110  -6.4073  -6.3688
    -6.3636  -6.3626  -6.3091  -6.1660  -5.2359  -5.2340  -5.0558  -5.0533
    -4.9188  -4.9187  -4.8122  -4.7241  -4.5639  -4.5438  -4.5417  -4.1823
    -3.9202  -3.9165  -3.6709  -3.6703  -3.5978  -3.5730  -3.4760  -3.4752
    -2.8269  -2.1766  -2.1746  -2.1350  -2.1299  -1.6520  -1.6509  -1.6378
    -0.4960  -0.0054   0.0146   1.1149   1.1170   1.1420   1.2432   1.9016
     2.1346   2.1398   2.5466   2.9751   2.9825   3.0327   3.1639   3.4760
     3.7065   3.7466   3.7492   3.7999   3.9842   4.0838   4.0861

     occupation numbers
     1.0000   1.0000   1.0000   1.0000   1.0000   1.0000   1.0000   1.0000
     1.0000   1.0000   1.0000   1.0000   1.0000   1.0000   1.0000   1.0000
     1.0000   1.0000   1.0000   1.0000   1.0000   1.0000   1.0000   1.0000
     1.0000   1.0000   1.0000   1.0000   1.0000   1.0000   1.0000   1.0000
     1.0000   1.0000   1.0000   1.0000   1.0000   1.0000   1.0000   1.0000
     1.0000   1.0000   1.0000   1.0000   1.0000   1.0000   1.0000   1.0000
     1.0000   1.0000   1.0000   1.0000   1.0000   1.0000   1.0000   1.0000
     1.0000   1.0000   1.0000   1.0000   1.0000   1.0000   1.0000   1.0000
     1.0000   1.0000   1.0000   1.0000   1.0000   1.0000   1.0000   1.0000
     1.0000   1.0000   1.0000   1.0000   1.0000   1.0000   1.0000   1.0000
     1.0000   1.0000   1.0000   1.0000   1.0000   1.0000   1.0000   1.0000
     1.0000   1.0000   1.0000   1.0000   1.0000   1.0000   1.0000   1.0000
     1.0000   1.0000   1.0000   1.0000   1.0000   1.0000   1.0000   1.0000
     1.0000   0.0000   0.0000   0.0000   0.0000   0.0000   0.0000   0.0000
     0.0000   0.0000   0.0000   0.0000   0.0000   0.0000   0.0000   0.0000
     0.0000   0.0000   0.0000   0.0000   0.0000   0.0000   0.0000

     the Fermi energy is    -0.2203 ev

!    total energy              =    -757.33799576 Ry
     Harris-Foulkes estimate   =    -757.33799569 Ry
     estimated scf accuracy    <       0.00000002 Ry

     The total energy is the sum of the following terms:

     one-electron contribution =   -2590.54502192 Ry
     hartree contribution      =    1342.19959522 Ry
     xc contribution           =    -252.67595694 Ry
     ewald contribution        =     743.68371340 Ry
     smearing contrib. (-TS)   =      -0.00032552 Ry

     total magnetization       =     1.00 Bohr mag/cell
     absolute magnetization    =     1.54 Bohr mag/cell

     convergence has been achieved in  28 iterations

     Writing output data file rotate-15.save/

     General routines

     Parallel routines

   This run was terminated on:  16:48:19  13Oct2022

   JOB DONE.