     Program PWSCF v.6.4.1 starts on 13Oct2022 at 17:28:22

     R & G space division:  proc/nbgrp/npool/nimage =       6
     Reading input from rotate-45.in

     Current dimensions of program PWSCF are:
     Max number of different atomic species (ntypx) = 10
     Max number of k-points (npk) =  40000
     Max angular momentum in pseudopotentials (lmaxx) =  3

     IMPORTANT: XC functional enforced from input :
     Exchange-correlation      = RVV10 ( 1  4 13  4 3 0)
     Any further DFT definition will be discarded
     Please, verify this is what you really want

               file H.pbe-rrkjus.UPF: wavefunction(s)  1S renormalized
               file V.pbe-spnl-rrkjus_psl.1.0.0.UPF: wavefunction(s)  3P 3D renormalized

     Subspace diagonalization in iterative solution of the eigenvalue problem:
     a serial algorithm will be used

     bravais-lattice index     =            4
     lattice parameter (alat)  =      23.2937  a.u.
     unit-cell volume          =    8879.8548 (a.u.)^3
     number of atoms/cell      =           52
     number of atomic types    =            3
     number of electrons       =       211.00
     number of Kohn-Sham states=          127
     kinetic-energy cutoff     =      70.0000  Ry
     charge density cutoff     =     490.0000  Ry
     convergence threshold     =      1.0E-06
     mixing beta               =       0.7000
     number of iterations used =            8  plain     mixing
     Exchange-correlation      = RVV10 ( 1  4 13  4 3 0)

     celldm(1)=  23.293684  celldm(2)=   0.000000  celldm(3)=   0.811261
     celldm(4)=   0.000000  celldm(5)=   0.000000  celldm(6)=   0.000000

     crystal axes: (cart. coord. in units of alat)
               a(1) = (   1.000000   0.000000   0.000000 )
               a(2) = (  -0.500000   0.866025   0.000000 )
               a(3) = (   0.000000   0.000000   0.811261 )

     reciprocal axes: (cart. coord. in units 2 pi/alat)
               b(1) = (  1.000000  0.577350 -0.000000 )
               b(2) = (  0.000000  1.154701  0.000000 )
               b(3) = (  0.000000 -0.000000  1.232649 )

     PseudoPot. # 1 for H  read from file:
     /home/cristian/Escritorio/Proyecto_Grafeno/pseudopotenciales/H.pbe-rrkjus.UPF
     MD5 check sum: 7cc9d459525c9a0585f487a71c3c9563
     Pseudo is Ultrasoft, Zval =  1.0
     Generated by new atomic code, or converted to UPF format
     Using radial grid of 1061 points,  2 beta functions with:
                l(1) =   0
                l(2) =   0
     Q(r) pseudized with 0 coefficients

     PseudoPot. # 2 for C  read from file:
     /home/cristian/Escritorio/Proyecto_Grafeno/pseudopotenciales/C.pbe-n-rrkjus_psl.1.0.0.UPF
     MD5 check sum: 1fdd950c42eb37d8afe3dd2f8d12311e
     Pseudo is Ultrasoft + core correction, Zval =  4.0
     Generated using "atomic" code by A. Dal Corso v.6.3MaX
     Using radial grid of 1073 points,  4 beta functions with:
                l(1) =   0
                l(2) =   0
                l(3) =   1
                l(4) =   1
     Q(r) pseudized with 0 coefficients

     PseudoPot. # 3 for V  read from file:
     /home/cristian/Escritorio/Proyecto_Grafeno/pseudopotenciales/V.pbe-spnl-rrkjus_psl.1.0.0.UPF
     MD5 check sum: 79b3eb63147daf0b665d9f1bcc691206
     Pseudo is Ultrasoft + core correction, Zval = 13.0
     Generated using "atomic" code by A. Dal Corso v.6.2.2
     Using radial grid of 1181 points,  6 beta functions with:
                l(1) =   0
                l(2) =   0
                l(3) =   1
                l(4) =   1
                l(5) =   2
                l(6) =   2
     Q(r) pseudized with 0 coefficients

     vdW kernel table read from file rVV10_kernel_table
     MD5 check sum: b8e2538accc0c0b3206b45ba4daaba6c

     atomic species   valence    mass     pseudopotential
        H              1.00     1.00794     H ( 1.00)
        C              4.00    12.01070     C ( 1.00)
        V             13.00    50.94150     V ( 1.00)

     Starting magnetic structure
     atomic species   magnetization
        H            0.500
        C            0.300
        V            0.800

     No symmetry found

                                    s                        frac. trans.

      isym =  1     identity

 cryst.   s( 1) = (     1          0          0      )
                  (     0          1          0      )
                  (     0          0          1      )

 cart.    s( 1) = (  1.0000000  0.0000000  0.0000000 )
                  (  0.0000000  1.0000000  0.0000000 )
                  (  0.0000000  0.0000000  1.0000000 )

     point group C_1 (1)
     there are  1 classes
     the character table:

       E
A      1.00

     the symmetry operations in each class and the name of the first element:

     E        1
          identity

   Cartesian axes

     site n.     atom                  positions (alat units)
         1           H   tau(   1) = (   0.2215712   0.4834514   0.2271531  )
         2           H   tau(   2) = (   0.1784288   0.4403090   0.2271531  )
         3           C   tau(   3) = (   0.0000000   0.0000000   0.0000000  )
         4           C   tau(   4) = (   0.0000000   0.1154701   0.0000000  )
         5           C   tau(   5) = (  -0.1000000   0.1732051   0.0000000  )
         6           C   tau(   6) = (  -0.1000000   0.2886751   0.0000000  )
         7           C   tau(   7) = (  -0.2000000   0.3464102   0.0000000  )
         8           C   tau(   8) = (  -0.2000000   0.4618802   0.0000000  )
         9           C   tau(   9) = (  -0.3000000   0.5196152   0.0000000  )
        10           C   tau(  10) = (  -0.3000000   0.6350853   0.0000000  )
        11           C   tau(  11) = (  -0.4000000   0.6928203   0.0000000  )
        12           C   tau(  12) = (  -0.4000000   0.8082904   0.0000000  )
        13           C   tau(  13) = (   0.2000000   0.0000000   0.0000000  )
        14           C   tau(  14) = (   0.2000000   0.1154701   0.0000000  )
        15           C   tau(  15) = (   0.1000000   0.1732051   0.0000000  )
        16           C   tau(  16) = (   0.1000000   0.2886751   0.0000000  )
        17           C   tau(  17) = (   0.0000000   0.3464102   0.0000000  )
        18           C   tau(  18) = (   0.0000000   0.4618802   0.0000000  )
        19           C   tau(  19) = (  -0.1000000   0.5196152   0.0000000  )
        20           C   tau(  20) = (  -0.1000000   0.6350853   0.0000000  )
        21           C   tau(  21) = (  -0.2000000   0.6928203   0.0000000  )
        22           C   tau(  22) = (  -0.2000000   0.8082904   0.0000000  )
        23           C   tau(  23) = (   0.4000000   0.0000000   0.0000000  )
        24           C   tau(  24) = (   0.4000000   0.1154701   0.0000000  )
        25           C   tau(  25) = (   0.3000000   0.1732051   0.0000000  )
        26           C   tau(  26) = (   0.3000000   0.2886751   0.0000000  )
        27           C   tau(  27) = (   0.2000000   0.3464102   0.0000000  )
        28           V   tau(  28) = (   0.2000000   0.4618802   0.0000000  )
        29           C   tau(  29) = (   0.1000000   0.5196152   0.0000000  )
        30           C   tau(  30) = (   0.1000000   0.6350853   0.0000000  )
        31           C   tau(  31) = (   0.0000000   0.6928203   0.0000000  )
        32           C   tau(  32) = (   0.0000000   0.8082904   0.0000000  )
        33           C   tau(  33) = (   0.6000000   0.0000000   0.0000000  )
        34           C   tau(  34) = (   0.6000000   0.1154701   0.0000000  )
        35           C   tau(  35) = (   0.5000000   0.1732051   0.0000000  )
        36           C   tau(  36) = (   0.5000000   0.2886751   0.0000000  )
        37           C   tau(  37) = (   0.4000000   0.3464102   0.0000000  )
        38           C   tau(  38) = (   0.4000000   0.4618802   0.0000000  )
        39           C   tau(  39) = (   0.3000000   0.5196152   0.0000000  )
        40           C   tau(  40) = (   0.3000000   0.6350853   0.0000000  )
        41           C   tau(  41) = (   0.2000000   0.6928203   0.0000000  )
        42           C   tau(  42) = (   0.2000000   0.8082904   0.0000000  )
        43           C   tau(  43) = (   0.8000000   0.0000000   0.0000000  )
        44           C   tau(  44) = (   0.8000000   0.1154701   0.0000000  )
        45           C   tau(  45) = (   0.7000000   0.1732051   0.0000000  )
        46           C   tau(  46) = (   0.7000000   0.2886751   0.0000000  )
        47           C   tau(  47) = (   0.6000000   0.3464102   0.0000000  )
        48           C   tau(  48) = (   0.6000000   0.4618802   0.0000000  )
        49           C   tau(  49) = (   0.5000000   0.5196152   0.0000000  )
        50           C   tau(  50) = (   0.5000000   0.6350853   0.0000000  )
        51           C   tau(  51) = (   0.4000000   0.6928203   0.0000000  )
        52           C   tau(  52) = (   0.4000000   0.8082904   0.0000000  )

   Crystallographic axes

     site n.     atom                  positions (cryst. coord.)
         1           H   tau(   1) = (  0.5006920  0.5582416  0.2800000  )
         2           H   tau(   2) = (  0.4326413  0.5084250  0.2800000  )
         3           C   tau(   3) = (  0.0000000  0.0000000  0.0000000  )
         4           C   tau(   4) = (  0.0666667  0.1333333  0.0000000  )
         5           C   tau(   5) = (  0.0000000  0.2000000  0.0000000  )
         6           C   tau(   6) = (  0.0666667  0.3333333  0.0000000  )
         7           C   tau(   7) = (  0.0000000  0.4000000  0.0000000  )
         8           C   tau(   8) = (  0.0666667  0.5333333  0.0000000  )
         9           C   tau(   9) = (  0.0000000  0.6000000  0.0000000  )
        10           C   tau(  10) = (  0.0666667  0.7333333  0.0000000  )
        11           C   tau(  11) = (  0.0000000  0.8000000  0.0000000  )
        12           C   tau(  12) = (  0.0666667  0.9333333  0.0000000  )
        13           C   tau(  13) = (  0.2000000  0.0000000  0.0000000  )
        14           C   tau(  14) = (  0.2666667  0.1333333  0.0000000  )
        15           C   tau(  15) = (  0.2000000  0.2000000  0.0000000  )
        16           C   tau(  16) = (  0.2666667  0.3333333  0.0000000  )
        17           C   tau(  17) = (  0.2000000  0.4000000  0.0000000  )
        18           C   tau(  18) = (  0.2666667  0.5333333  0.0000000  )
        19           C   tau(  19) = (  0.2000000  0.6000000  0.0000000  )
        20           C   tau(  20) = (  0.2666667  0.7333333  0.0000000  )
        21           C   tau(  21) = (  0.2000000  0.8000000  0.0000000  )
        22           C   tau(  22) = (  0.2666667  0.9333333  0.0000000  )
        23           C   tau(  23) = (  0.4000000  0.0000000  0.0000000  )
        24           C   tau(  24) = (  0.4666667  0.1333333  0.0000000  )
        25           C   tau(  25) = (  0.4000000  0.2000000  0.0000000  )
        26           C   tau(  26) = (  0.4666667  0.3333333  0.0000000  )
        27           C   tau(  27) = (  0.4000000  0.4000000  0.0000000  )
        28           V   tau(  28) = (  0.4666667  0.5333333  0.0000000  )
        29           C   tau(  29) = (  0.4000000  0.6000000  0.0000000  )
        30           C   tau(  30) = (  0.4666667  0.7333333  0.0000000  )
        31           C   tau(  31) = (  0.4000000  0.8000000  0.0000000  )
        32           C   tau(  32) = (  0.4666667  0.9333333  0.0000000  )
        33           C   tau(  33) = (  0.6000000  0.0000000  0.0000000  )
        34           C   tau(  34) = (  0.6666667  0.1333333  0.0000000  )
        35           C   tau(  35) = (  0.6000000  0.2000000  0.0000000  )
        36           C   tau(  36) = (  0.6666667  0.3333333  0.0000000  )
        37           C   tau(  37) = (  0.6000000  0.4000000  0.0000000  )
        38           C   tau(  38) = (  0.6666667  0.5333333  0.0000000  )
        39           C   tau(  39) = (  0.6000000  0.6000000  0.0000000  )
        40           C   tau(  40) = (  0.6666667  0.7333333  0.0000000  )
        41           C   tau(  41) = (  0.6000000  0.8000000  0.0000000  )
        42           C   tau(  42) = (  0.6666667  0.9333333  0.0000000  )
        43           C   tau(  43) = (  0.8000000  0.0000000  0.0000000  )
        44           C   tau(  44) = (  0.8666667  0.1333333  0.0000000  )
        45           C   tau(  45) = (  0.8000000  0.2000000  0.0000000  )
        46           C   tau(  46) = (  0.8666667  0.3333333  0.0000000  )
        47           C   tau(  47) = (  0.8000000  0.4000000  0.0000000  )
        48           C   tau(  48) = (  0.8666667  0.5333333  0.0000000  )
        49           C   tau(  49) = (  0.8000000  0.6000000  0.0000000  )
        50           C   tau(  50) = (  0.8666667  0.7333333  0.0000000  )
        51           C   tau(  51) = (  0.8000000  0.8000000  0.0000000  )
        52           C   tau(  52) = (  0.8666667  0.9333333  0.0000000  )

     number of k points=     1  Marzari-Vanderbilt smearing, width (Ry)=  0.0010
                       cart. coord. in units 2pi/alat
        k(    1) = (   0.0000000   0.0000000   0.0000000), wk =   1.0000000

                       cryst. coord.
        k(    1) = (   0.0000000   0.0000000   0.0000000), wk =   1.0000000

     Check: negative core charge=   -0.000002

     Initial potential from superposition of free atoms

     starting charge  210.80465, renormalised to  211.00000

     negative rho (up, down):  1.173E-04 1.537E-02

Carrying out rVV10 run using the following parameters:
Nqs =      20    Nr_points =    1024   r_max =   100.000
b_value =  6.30000    beta =  0.00901
     q_mesh =  0.00010000  0.00030000  0.00058939  0.00100810
               0.00161396  0.00249058  0.00375900  0.00559430
               0.00824984  0.01209221  0.01765183  0.02569619
               0.03733578  0.05417739  0.07854596  0.11380545
               0.16482331  0.23864234  0.34545298  0.50000000

Gradients computed in Reciprocal space

     Starting wfcs are  208 randomized atomic wfcs

     Self-consistent Calculation

     iteration #  1     ecut=    70.00 Ry     beta= 0.70
     Davidson diagonalization with overlap
     ethr =  1.00E-02,  avg # of iterations =  3.0

[...]

     total energy              =    -752.94645379 Ry
     Harris-Foulkes estimate   =    -756.95750795 Ry
     estimated scf accuracy    <      11.85587048 Ry

     total magnetization       =     5.00 Bohr mag/cell
     absolute magnetization    =     6.01 Bohr mag/cell

[...]

     total energy              =    -757.33799366 Ry
     Harris-Foulkes estimate   =    -757.33799499 Ry
     estimated scf accuracy    <       0.00000125 Ry

[...]

     iteration # 21     ecut=    70.00 Ry     beta= 0.70
     Davidson diagonalization with overlap
     ethr =  5.91E-10,  avg # of iterations =  2.0

     negative rho (up, down):  3.405E-02 1.828E-03

     Magnetic moment per site:
     atom:    1    charge:    0.2100    magn:   -0.0000    constr:    0.0000
     atom:    2    charge:    0.2101    magn:   -0.0000    constr:    0.0000
     atom:    3    charge:    1.7178    magn:   -0.0064    constr:    0.0000
     atom:    4    charge:    1.7156    magn:    0.0087    constr:    0.0000
     atom:    5    charge:    1.7184    magn:   -0.0039    constr:    0.0000
     atom:    6    charge:    1.7141    magn:    0.0024    constr:    0.0000
     atom:    7    charge:    1.7183    magn:   -0.0040    constr:    0.0000
     atom:    8    charge:    1.7158    magn:    0.0093    constr:    0.0000
     atom:    9    charge:    1.7177    magn:   -0.0066    constr:    0.0000
     atom:   10    charge:    1.7146    magn:    0.0311    constr:    0.0000
     atom:   11    charge:    1.7186    magn:   -0.0087    constr:    0.0000
     atom:   12    charge:    1.7141    magn:    0.0285    constr:    0.0000
     atom:   13    charge:    1.7186    magn:   -0.0087    constr:    0.0000
     atom:   14    charge:    1.7146    magn:    0.0232    constr:    0.0000
     atom:   15    charge:    1.7170    magn:   -0.0075    constr:    0.0000
     atom:   16    charge:    1.7109    magn:    0.0278    constr:    0.0000
     atom:   17    charge:    1.7272    magn:   -0.0047    constr:    0.0000
     atom:   18    charge:    1.7108    magn:    0.0273    constr:    0.0000
     atom:   19    charge:    1.7170    magn:   -0.0073    constr:    0.0000
     atom:   20    charge:    1.7144    magn:    0.0213    constr:    0.0000
     atom:   21    charge:    1.7186    magn:   -0.0087    constr:    0.0000
     atom:   22    charge:    1.7147    magn:    0.0327    constr:    0.0000
     atom:   23    charge:    1.7176    magn:   -0.0068    constr:    0.0000
     atom:   24    charge:    1.7157    magn:    0.0096    constr:    0.0000
     atom:   25    charge:    1.7169    magn:   -0.0080    constr:    0.0000
     atom:   26    charge:    1.7113    magn:    0.0318    constr:    0.0000
     atom:   27    charge:    1.9149    magn:   -0.0003    constr:    0.0000
     atom:   28    charge:    7.8602    magn:    0.1017    constr:    0.0000
     atom:   29    charge:    1.9150    magn:   -0.0007    constr:    0.0000
     atom:   30    charge:    1.7109    magn:    0.0288    constr:    0.0000
     atom:   31    charge:    1.7170    magn:   -0.0075    constr:    0.0000
     atom:   32    charge:    1.7158    magn:    0.0097    constr:    0.0000
     atom:   33    charge:    1.7183    magn:   -0.0041    constr:    0.0000
     atom:   34    charge:    1.7139    magn:    0.0070    constr:    0.0000
     atom:   35    charge:    1.7183    magn:   -0.0041    constr:    0.0000
     atom:   36    charge:    1.7141    magn:    0.0025    constr:    0.0000
     atom:   37    charge:    1.7268    magn:   -0.0055    constr:    0.0000
     atom:   38    charge:    1.7113    magn:    0.0321    constr:    0.0000
     atom:   39    charge:    1.9148    magn:   -0.0000    constr:    0.0000
     atom:   40    charge:    1.7110    magn:    0.0297    constr:    0.0000
     atom:   41    charge:    1.7270    magn:   -0.0050    constr:    0.0000
     atom:   42    charge:    1.7141    magn:    0.0024    constr:    0.0000
     atom:   43    charge:    1.7184    magn:   -0.0040    constr:    0.0000
     atom:   44    charge:    1.7138    magn:    0.0063    constr:    0.0000
     atom:   45    charge:    1.7247    magn:   -0.0029    constr:    0.0000
     atom:   46    charge:    1.7138    magn:    0.0067    constr:    0.0000
     atom:   47    charge:    1.7183    magn:   -0.0041    constr:    0.0000
     atom:   48    charge:    1.7157    magn:    0.0092    constr:    0.0000
     atom:   49    charge:    1.7168    magn:   -0.0081    constr:    0.0000
     atom:   50    charge:    1.7147    magn:    0.0243    constr:    0.0000
     atom:   51    charge:    1.7169    magn:   -0.0078    constr:    0.0000
     atom:   52    charge:    1.7156    magn:    0.0086    constr:    0.0000

     End of self-consistent calculation

 ------ SPIN UP ------------

          k = 0.0000 0.0000 0.0000 ( 87777 PWs)   bands (ev):

   -62.8167 -37.9048 -37.8990 -36.5790 -19.6189 -18.7791 -18.7727 -18.7063
   -18.6624 -18.6581 -18.2225 -16.9217 -16.9202 -16.9190 -16.7836 -16.7814
   -16.5003 -16.0667 -16.0667 -15.9730 -15.8172 -15.8164 -15.0650 -13.8784
   -13.8726 -13.8693 -13.8465 -13.8460 -13.1166 -12.9016 -12.9009 -12.8836
   -12.4889 -12.4888 -12.0968 -11.6290 -11.6281 -11.5044 -11.1225 -11.1224
   -10.1347  -9.3205  -9.3191  -9.2396  -9.1662  -9.1657  -9.0766  -9.0524
    -9.0517  -9.0361  -8.4475  -8.4469  -7.8780  -7.8765  -7.8467  -7.8237
    -7.6600  -7.5061  -7.2388  -7.2367  -6.9484  -6.9457  -6.8780  -6.6853
    -6.6844  -6.6829  -6.5747  -6.5735  -6.5275  -6.4203  -6.4169  -6.3746
    -6.3705  -6.3694  -6.3174  -6.2430  -5.2441  -5.2426  -5.1414  -5.1371
    -4.9288  -4.9285  -4.8179  -4.7302  -4.6057  -4.5940  -4.5938  -4.2198
    -3.9698  -3.9697  -3.7452  -3.7445  -3.6441  -3.6033  -3.4825  -3.4820
    -2.8611  -2.2446  -2.2419  -2.1996  -2.1966  -1.7326  -1.6678  -1.6662
    -0.5011  -0.2223  -0.2208   1.0644   1.0936   1.0962   1.1654   1.8317
     2.0662   2.0670   2.5412   2.9057   2.9116   2.9910   3.1547   3.4696
     3.6714   3.7458   3.7477   3.7920   3.9642   4.0112   4.0171

     occupation numbers
     1.0000   1.0000   1.0000   1.0000   1.0000   1.0000   1.0000   1.0000
     1.0000   1.0000   1.0000   1.0000   1.0000   1.0000   1.0000   1.0000
     1.0000   1.0000   1.0000   1.0000   1.0000   1.0000   1.0000   1.0000
     1.0000   1.0000   1.0000   1.0000   1.0000   1.0000   1.0000   1.0000
     1.0000   1.0000   1.0000   1.0000   1.0000   1.0000   1.0000   1.0000
     1.0000   1.0000   1.0000   1.0000   1.0000   1.0000   1.0000   1.0000
     1.0000   1.0000   1.0000   1.0000   1.0000   1.0000   1.0000   1.0000
     1.0000   1.0000   1.0000   1.0000   1.0000   1.0000   1.0000   1.0000
     1.0000   1.0000   1.0000   1.0000   1.0000   1.0000   1.0000   1.0000
     1.0000   1.0000   1.0000   1.0000   1.0000   1.0000   1.0000   1.0000
     1.0000   1.0000   1.0000   1.0000   1.0000   1.0000   1.0000   1.0000
     1.0000   1.0000   1.0000   1.0000   1.0000   1.0000   1.0000   1.0000
     1.0000   1.0000   1.0000   1.0000   1.0000   1.0000   1.0000   1.0000
     1.0000   0.5413   0.4587   0.0000   0.0000   0.0000   0.0000   0.0000
     0.0000   0.0000   0.0000   0.0000   0.0000   0.0000   0.0000   0.0000
     0.0000   0.0000   0.0000   0.0000   0.0000   0.0000   0.0000

 ------ SPIN DOWN ----------

          k = 0.0000 0.0000 0.0000 ( 87777 PWs)   bands (ev):

   -62.6206 -37.7507 -37.7299 -36.3106 -19.5970 -18.7584 -18.7501 -18.6861
   -18.6460 -18.6411 -18.1904 -16.9055 -16.9018 -16.8996 -16.7558 -16.7524
   -16.4862 -16.0400 -16.0389 -15.9571 -15.7961 -15.7954 -15.0503 -13.8439
   -13.8425 -13.8411 -13.8332 -13.8261 -13.1193 -12.8912 -12.8901 -12.8679
   -12.4808 -12.4804 -12.0785 -11.6108 -11.6105 -11.4912 -11.1103 -11.1096
   -10.1201  -9.3038  -9.3017  -9.2266  -9.1490  -9.1480  -9.0685  -9.0379
    -9.0378  -9.0268  -8.4409  -8.4399  -7.8666  -7.8649  -7.8380  -7.7784
    -7.6515  -7.4976  -7.2298  -7.2279  -6.8698  -6.8691  -6.8576  -6.6531
    -6.6513  -6.6327  -6.5632  -6.5622  -6.5178  -6.4109  -6.4072  -6.3689
    -6.3635  -6.3627  -6.3092  -6.1660  -5.2359  -5.2340  -5.0558  -5.0531
    -4.9188  -4.9187  -4.8121  -4.7241  -4.5639  -4.5438  -4.5417  -4.1823
    -3.9202  -3.9166  -3.6707  -3.6703  -3.5980  -3.5730  -3.4760  -3.4753
    -2.8270  -2.1764  -2.1746  -2.1347  -2.1297  -1.6521  -1.6508  -1.6378
    -0.4956  -0.0054   0.0140   1.1148   1.1170   1.1420   1.2433   1.9015
     2.1347   2.1397   2.5476   2.9751   2.9826   3.0326   3.1647   3.4765
     3.7070   3.7477   3.7502   3.8007   3.9849   4.0836   4.0862

     occupation numbers
     1.0000   1.0000   1.0000   1.0000   1.0000   1.0000   1.0000   1.0000
     1.0000   1.0000   1.0000   1.0000   1.0000   1.0000   1.0000   1.0000
     1.0000   1.0000   1.0000   1.0000   1.0000   1.0000   1.0000   1.0000
     1.0000   1.0000   1.0000   1.0000   1.0000   1.0000   1.0000   1.0000
     1.0000   1.0000   1.0000   1.0000   1.0000   1.0000   1.0000   1.0000
     1.0000   1.0000   1.0000   1.0000   1.0000   1.0000   1.0000   1.0000
     1.0000   1.0000   1.0000   1.0000   1.0000   1.0000   1.0000   1.0000
     1.0000   1.0000   1.0000   1.0000   1.0000   1.0000   1.0000   1.0000
     1.0000   1.0000   1.0000   1.0000   1.0000   1.0000   1.0000   1.0000
     1.0000   1.0000   1.0000   1.0000   1.0000   1.0000   1.0000   1.0000
     1.0000   1.0000   1.0000   1.0000   1.0000   1.0000   1.0000   1.0000
     1.0000   1.0000   1.0000   1.0000   1.0000   1.0000   1.0000   1.0000
     1.0000   1.0000   1.0000   1.0000   1.0000   1.0000   1.0000   1.0000
     1.0000   0.0000   0.0000   0.0000   0.0000   0.0000   0.0000   0.0000
     0.0000   0.0000   0.0000   0.0000   0.0000   0.0000   0.0000   0.0000
     0.0000   0.0000   0.0000   0.0000   0.0000   0.0000   0.0000

     the Fermi energy is    -0.2197 ev

!    total energy              =    -757.33799546 Ry
     Harris-Foulkes estimate   =    -757.33799382 Ry
     estimated scf accuracy    <       0.00000035 Ry

     The total energy is the sum of the following terms:

     one-electron contribution =   -2590.54411518 Ry
     hartree contribution      =    1342.19863139 Ry
     xc contribution           =    -252.67589926 Ry
     ewald contribution        =     743.68371346 Ry
     smearing contrib. (-TS)   =      -0.00032587 Ry

     total magnetization       =     1.00 Bohr mag/cell
     absolute magnetization    =     1.53 Bohr mag/cell

     convergence has been achieved in  21 iterations

     Writing output data file rotate-45.save/

     General routines

     Parallel routines

   This run was terminated on:  18: 7:19  13Oct2022

   JOB DONE.