     Program PWSCF v.6.4.1 starts on 13Oct2022 at 18: 7:19

     R & G space division:  proc/nbgrp/npool/nimage =       6
     Reading input from rotate-60.in

     Current dimensions of program PWSCF are:
     Max number of different atomic species (ntypx) = 10
     Max number of k-points (npk) =  40000
     Max angular momentum in pseudopotentials (lmaxx) =  3

     IMPORTANT: XC functional enforced from input :
     Exchange-correlation      = RVV10 ( 1  4 13  4 3 0)
     Any further DFT definition will be discarded
     Please, verify this is what you really want

               file H.pbe-rrkjus.UPF: wavefunction(s)  1S renormalized
               file V.pbe-spnl-rrkjus_psl.1.0.0.UPF: wavefunction(s)  3P 3D renormalized

     Subspace diagonalization in iterative solution of the eigenvalue problem:
     a serial algorithm will be used

     bravais-lattice index     =            4
     lattice parameter (alat)  =      23.2937  a.u.
     unit-cell volume          =    8879.8548 (a.u.)^3
     number of atoms/cell      =           52
     number of atomic types    =            3
     number of electrons       =       211.00
     number of Kohn-Sham states=          127
     kinetic-energy cutoff     =      70.0000  Ry
     charge density cutoff     =     490.0000  Ry
     convergence threshold     =      1.0E-06
     mixing beta               =       0.7000
     number of iterations used =            8  plain     mixing
     Exchange-correlation      = RVV10 ( 1  4 13  4 3 0)

     celldm(1)=  23.293684  celldm(2)=   0.000000  celldm(3)=   0.811261
     celldm(4)=   0.000000  celldm(5)=   0.000000  celldm(6)=   0.000000

     crystal axes: (cart. coord. in units of alat)
               a(1) = (   1.000000   0.000000   0.000000 )
               a(2) = (  -0.500000   0.866025   0.000000 )
               a(3) = (   0.000000   0.000000   0.811261 )

     reciprocal axes: (cart. coord. in units 2 pi/alat)
               b(1) = (  1.000000  0.577350 -0.000000 )
               b(2) = (  0.000000  1.154701  0.000000 )
               b(3) = (  0.000000 -0.000000  1.232649 )

     PseudoPot. # 1 for H  read from file:
     /home/cristian/Escritorio/Proyecto_Grafeno/pseudopotenciales/H.pbe-rrkjus.UPF
     MD5 check sum: 7cc9d459525c9a0585f487a71c3c9563
     Pseudo is Ultrasoft, Zval =  1.0
     Generated by new atomic code, or converted to UPF format
     Using radial grid of 1061 points,  2 beta functions with:
                l(1) =   0
                l(2) =   0
     Q(r) pseudized with 0 coefficients

     PseudoPot. # 2 for C  read from file:
     /home/cristian/Escritorio/Proyecto_Grafeno/pseudopotenciales/C.pbe-n-rrkjus_psl.1.0.0.UPF
     MD5 check sum: 1fdd950c42eb37d8afe3dd2f8d12311e
     Pseudo is Ultrasoft + core correction, Zval =  4.0
     Generated using "atomic" code by A. Dal Corso v.6.3MaX
     Using radial grid of 1073 points,  4 beta functions with:
                l(1) =   0
                l(2) =   0
                l(3) =   1
                l(4) =   1
     Q(r) pseudized with 0 coefficients

     PseudoPot. # 3 for V  read from file:
     /home/cristian/Escritorio/Proyecto_Grafeno/pseudopotenciales/V.pbe-spnl-rrkjus_psl.1.0.0.UPF
     MD5 check sum: 79b3eb63147daf0b665d9f1bcc691206
     Pseudo is Ultrasoft + core correction, Zval = 13.0
     Generated using "atomic" code by A. Dal Corso v.6.2.2
     Using radial grid of 1181 points,  6 beta functions with:
                l(1) =   0
                l(2) =   0
                l(3) =   1
                l(4) =   1
                l(5) =   2
                l(6) =   2
     Q(r) pseudized with 0 coefficients

     vdW kernel table read from file rVV10_kernel_table
     MD5 check sum: b8e2538accc0c0b3206b45ba4daaba6c

     atomic species   valence    mass     pseudopotential
        H              1.00     1.00794     H ( 1.00)
        C              4.00    12.01070     C ( 1.00)
        V             13.00    50.94150     V ( 1.00)

     Starting magnetic structure
     atomic species   magnetization
        H            0.500
        C            0.300
        V            0.800

      2 Sym. Ops. (no inversion) found

                                    s                        frac. trans.

      isym =  1     identity

 cryst.   s( 1) = (     1          0          0      )
                  (     0          1          0      )
                  (     0          0          1      )

 cart.    s( 1) = (  1.0000000  0.0000000  0.0000000 )
                  (  0.0000000  1.0000000  0.0000000 )
                  (  0.0000000  0.0000000  1.0000000 )

      isym =  2     inv. 180 deg rotation - cryst. axis [1,1,0]

 cryst.   s( 2) = (     0         -1          0      )
                  (    -1          0          0      )
                  (     0          0          1      )

 cart.    s( 2) = (  0.5000000 -0.8660254  0.0000000 )
                  ( -0.8660254 -0.5000000  0.0000000 )
                  (  0.0000000  0.0000000  1.0000000 )

     point group C_s (m)
     there are  2 classes
     the character table:

       E     s
A'     1.00  1.00
A''    1.00 -1.00

     the symmetry operations in each class and the name of the first element:

     E        1
          identity
     s        2
          inv. 180 deg rotation - cryst. axis [1,1,0]

   Cartesian axes

     site n.     atom                  positions (alat units)
         1           H   tau(   1) = (   0.2152532   0.4882995   0.2271531  )
         2           H   tau(   2) = (   0.1847468   0.4354610   0.2271531  )
         3           C   tau(   3) = (   0.0000000   0.0000000   0.0000000  )
         4           C   tau(   4) = (   0.0000000   0.1154701   0.0000000  )
         5           C   tau(   5) = (  -0.1000000   0.1732051   0.0000000  )
         6           C   tau(   6) = (  -0.1000000   0.2886751   0.0000000  )
         7           C   tau(   7) = (  -0.2000000   0.3464102   0.0000000  )
         8           C   tau(   8) = (  -0.2000000   0.4618802   0.0000000  )
         9           C   tau(   9) = (  -0.3000000   0.5196152   0.0000000  )
        10           C   tau(  10) = (  -0.3000000   0.6350853   0.0000000  )
        11           C   tau(  11) = (  -0.4000000   0.6928203   0.0000000  )
        12           C   tau(  12) = (  -0.4000000   0.8082904   0.0000000  )
        13           C   tau(  13) = (   0.2000000   0.0000000   0.0000000  )
        14           C   tau(  14) = (   0.2000000   0.1154701   0.0000000  )
        15           C   tau(  15) = (   0.1000000   0.1732051   0.0000000  )
        16           C   tau(  16) = (   0.1000000   0.2886751   0.0000000  )
        17           C   tau(  17) = (   0.0000000   0.3464102   0.0000000  )
        18           C   tau(  18) = (   0.0000000   0.4618802   0.0000000  )
        19           C   tau(  19) = (  -0.1000000   0.5196152   0.0000000  )
        20           C   tau(  20) = (  -0.1000000   0.6350853   0.0000000  )
        21           C   tau(  21) = (  -0.2000000   0.6928203   0.0000000  )
        22           C   tau(  22) = (  -0.2000000   0.8082904   0.0000000  )
        23           C   tau(  23) = (   0.4000000   0.0000000   0.0000000  )
        24           C   tau(  24) = (   0.4000000   0.1154701   0.0000000  )
        25           C   tau(  25) = (   0.3000000   0.1732051   0.0000000  )
        26           C   tau(  26) = (   0.3000000   0.2886751   0.0000000  )
        27           C   tau(  27) = (   0.2000000   0.3464102   0.0000000  )
        28           V   tau(  28) = (   0.2000000   0.4618802   0.0000000  )
        29           C   tau(  29) = (   0.1000000   0.5196152   0.0000000  )
        30           C   tau(  30) = (   0.1000000   0.6350853   0.0000000  )
        31           C   tau(  31) = (   0.0000000   0.6928203   0.0000000  )
        32           C   tau(  32) = (   0.0000000   0.8082904   0.0000000  )
        33           C   tau(  33) = (   0.6000000   0.0000000   0.0000000  )
        34           C   tau(  34) = (   0.6000000   0.1154701   0.0000000  )
        35           C   tau(  35) = (   0.5000000   0.1732051   0.0000000  )
        36           C   tau(  36) = (   0.5000000   0.2886751   0.0000000  )
        37           C   tau(  37) = (   0.4000000   0.3464102   0.0000000  )
        38           C   tau(  38) = (   0.4000000   0.4618802   0.0000000  )
        39           C   tau(  39) = (   0.3000000   0.5196152   0.0000000  )
        40           C   tau(  40) = (   0.3000000   0.6350853   0.0000000  )
        41           C   tau(  41) = (   0.2000000   0.6928203   0.0000000  )
        42           C   tau(  42) = (   0.2000000   0.8082904   0.0000000  )
        43           C   tau(  43) = (   0.8000000   0.0000000   0.0000000  )
        44           C   tau(  44) = (   0.8000000   0.1154701   0.0000000  )
        45           C   tau(  45) = (   0.7000000   0.1732051   0.0000000  )
        46           C   tau(  46) = (   0.7000000   0.2886751   0.0000000  )
        47           C   tau(  47) = (   0.6000000   0.3464102   0.0000000  )
        48           C   tau(  48) = (   0.6000000   0.4618802   0.0000000  )
        49           C   tau(  49) = (   0.5000000   0.5196152   0.0000000  )
        50           C   tau(  50) = (   0.5000000   0.6350853   0.0000000  )
        51           C   tau(  51) = (   0.4000000   0.6928203   0.0000000  )
        52           C   tau(  52) = (   0.4000000   0.8082904   0.0000000  )

   Crystallographic axes

     site n.     atom                  positions (cryst. coord.)
         1           H   tau(   1) = (  0.4971730  0.5638397  0.2800000  )
         2           H   tau(   2) = (  0.4361603  0.5028270  0.2800000  )
         3           C   tau(   3) = (  0.0000000  0.0000000  0.0000000  )
         4           C   tau(   4) = (  0.0666667  0.1333333  0.0000000  )
         5           C   tau(   5) = (  0.0000000  0.2000000  0.0000000  )
         6           C   tau(   6) = (  0.0666667  0.3333333  0.0000000  )
         7           C   tau(   7) = (  0.0000000  0.4000000  0.0000000  )
         8           C   tau(   8) = (  0.0666667  0.5333333  0.0000000  )
         9           C   tau(   9) = (  0.0000000  0.6000000  0.0000000  )
        10           C   tau(  10) = (  0.0666667  0.7333333  0.0000000  )
        11           C   tau(  11) = (  0.0000000  0.8000000  0.0000000  )
        12           C   tau(  12) = (  0.0666667  0.9333333  0.0000000  )
        13           C   tau(  13) = (  0.2000000  0.0000000  0.0000000  )
        14           C   tau(  14) = (  0.2666667  0.1333333  0.0000000  )
        15           C   tau(  15) = (  0.2000000  0.2000000  0.0000000  )
        16           C   tau(  16) = (  0.2666667  0.3333333  0.0000000  )
        17           C   tau(  17) = (  0.2000000  0.4000000  0.0000000  )
        18           C   tau(  18) = (  0.2666667  0.5333333  0.0000000  )
        19           C   tau(  19) = (  0.2000000  0.6000000  0.0000000  )
        20           C   tau(  20) = (  0.2666667  0.7333333  0.0000000  )
        21           C   tau(  21) = (  0.2000000  0.8000000  0.0000000  )
        22           C   tau(  22) = (  0.2666667  0.9333333  0.0000000  )
        23           C   tau(  23) = (  0.4000000  0.0000000  0.0000000  )
        24           C   tau(  24) = (  0.4666667  0.1333333  0.0000000  )
        25           C   tau(  25) = (  0.4000000  0.2000000  0.0000000  )
        26           C   tau(  26) = (  0.4666667  0.3333333  0.0000000  )
        27           C   tau(  27) = (  0.4000000  0.4000000  0.0000000  )
        28           V   tau(  28) = (  0.4666667  0.5333333  0.0000000  )
        29           C   tau(  29) = (  0.4000000  0.6000000  0.0000000  )
        30           C   tau(  30) = (  0.4666667  0.7333333  0.0000000  )
        31           C   tau(  31) = (  0.4000000  0.8000000  0.0000000  )
        32           C   tau(  32) = (  0.4666667  0.9333333  0.0000000  )
        33           C   tau(  33) = (  0.6000000  0.0000000  0.0000000  )
        34           C   tau(  34) = (  0.6666667  0.1333333  0.0000000  )
        35           C   tau(  35) = (  0.6000000  0.2000000  0.0000000  )
        36           C   tau(  36) = (  0.6666667  0.3333333  0.0000000  )
        37           C   tau(  37) = (  0.6000000  0.4000000  0.0000000  )
        38           C   tau(  38) = (  0.6666667  0.5333333  0.0000000  )
        39           C   tau(  39) = (  0.6000000  0.6000000  0.0000000  )
        40           C   tau(  40) = (  0.6666667  0.7333333  0.0000000  )
        41           C   tau(  41) = (  0.6000000  0.8000000  0.0000000  )
        42           C   tau(  42) = (  0.6666667  0.9333333  0.0000000  )
        43           C   tau(  43) = (  0.8000000  0.0000000  0.0000000  )
        44           C   tau(  44) = (  0.8666667  0.1333333  0.0000000  )
        45           C   tau(  45) = (  0.8000000  0.2000000  0.0000000  )
        46           C   tau(  46) = (  0.8666667  0.3333333  0.0000000  )
        47           C   tau(  47) = (  0.8000000  0.4000000  0.0000000  )
        48           C   tau(  48) = (  0.8666667  0.5333333  0.0000000  )
        49           C   tau(  49) = (  0.8000000  0.6000000  0.0000000  )
        50           C   tau(  50) = (  0.8666667  0.7333333  0.0000000  )
        51           C   tau(  51) = (  0.8000000  0.8000000  0.0000000  )
        52           C   tau(  52) = (  0.8666667  0.9333333  0.0000000  )

     number of k points=     1  Marzari-Vanderbilt smearing, width (Ry)=  0.0010
                       cart. coord. in units 2pi/alat
        k(    1) = (   0.0000000   0.0000000   0.0000000), wk =   1.0000000

                       cryst. coord.
        k(    1) = (   0.0000000   0.0000000   0.0000000), wk =   1.0000000

     Check: negative core charge=   -0.000002

     Initial potential from superposition of free atoms

     starting charge  210.80465, renormalised to  211.00000

     negative rho (up, down):  1.157E-04 1.525E-02

Carrying out rVV10 run using the following parameters:
Nqs =      20    Nr_points =    1024   r_max =   100.000
b_value =  6.30000    beta =  0.00901
     q_mesh =  0.00010000  0.00030000  0.00058939  0.00100810
               0.00161396  0.00249058  0.00375900  0.00559430
               0.00824984  0.01209221  0.01765183  0.02569619
               0.03733578  0.05417739  0.07854596  0.11380545
               0.16482331  0.23864234  0.34545298  0.50000000

Gradients computed in Reciprocal space

     Starting wfcs are  208 randomized atomic wfcs

     Self-consistent Calculation

     iteration #  1     ecut=    70.00 Ry     beta= 0.70
     Davidson diagonalization with overlap
     ethr =  1.00E-02,  avg # of iterations =  3.0

[...]

     total energy              =    -752.94645401 Ry
     Harris-Foulkes estimate   =    -756.95750580 Ry
     estimated scf accuracy    <      11.85586571 Ry

     total magnetization       =     5.00 Bohr mag/cell
     absolute magnetization    =     6.01 Bohr mag/cell

[...]

     total energy              =    -757.33799530 Ry
     Harris-Foulkes estimate   =    -757.33799572 Ry
     estimated scf accuracy    <       0.00000359 Ry

[...]

     iteration # 27     ecut=    70.00 Ry     beta= 0.70
     Davidson diagonalization with overlap
     ethr =  7.07E-10,  avg # of iterations =  3.0

     negative rho (up, down):  3.405E-02 1.830E-03

     Magnetic moment per site:
     atom:    1    charge:    0.2101    magn:   -0.0000    constr:    0.0000
     atom:    2    charge:    0.2101    magn:   -0.0000    constr:    0.0000
     atom:    3    charge:    1.7178    magn:   -0.0066    constr:    0.0000
     atom:    4    charge:    1.7156    magn:    0.0088    constr:    0.0000
     atom:    5    charge:    1.7184    magn:   -0.0041    constr:    0.0000
     atom:    6    charge:    1.7141    magn:    0.0025    constr:    0.0000
     atom:    7    charge:    1.7183    magn:   -0.0041    constr:    0.0000
     atom:    8    charge:    1.7158    magn:    0.0096    constr:    0.0000
     atom:    9    charge:    1.7176    magn:   -0.0068    constr:    0.0000
     atom:   10    charge:    1.7147    magn:    0.0320    constr:    0.0000
     atom:   11    charge:    1.7186    magn:   -0.0088    constr:    0.0000
     atom:   12    charge:    1.7140    magn:    0.0286    constr:    0.0000
     atom:   13    charge:    1.7186    magn:   -0.0088    constr:    0.0000
     atom:   14    charge:    1.7147    magn:    0.0239    constr:    0.0000
     atom:   15    charge:    1.7170    magn:   -0.0077    constr:    0.0000
     atom:   16    charge:    1.7109    magn:    0.0288    constr:    0.0000
     atom:   17    charge:    1.7271    magn:   -0.0049    constr:    0.0000
     atom:   18    charge:    1.7107    magn:    0.0281    constr:    0.0000
     atom:   19    charge:    1.7170    magn:   -0.0076    constr:    0.0000
     atom:   20    charge:    1.7142    magn:    0.0214    constr:    0.0000
     atom:   21    charge:    1.7186    magn:   -0.0089    constr:    0.0000
     atom:   22    charge:    1.7147    magn:    0.0320    constr:    0.0000
     atom:   23    charge:    1.7176    magn:   -0.0068    constr:    0.0000
     atom:   24    charge:    1.7157    magn:    0.0096    constr:    0.0000
     atom:   25    charge:    1.7169    magn:   -0.0081    constr:    0.0000
     atom:   26    charge:    1.7115    magn:    0.0321    constr:    0.0000
     atom:   27    charge:    1.9149    magn:   -0.0002    constr:    0.0000
     atom:   28    charge:    7.8602    magn:    0.1017    constr:    0.0000
     atom:   29    charge:    1.9149    magn:   -0.0007    constr:    0.0000
     atom:   30    charge:    1.7107    magn:    0.0281    constr:    0.0000
     atom:   31    charge:    1.7170    magn:   -0.0076    constr:    0.0000
     atom:   32    charge:    1.7158    magn:    0.0096    constr:    0.0000
     atom:   33    charge:    1.7183    magn:   -0.0041    constr:    0.0000
     atom:   34    charge:    1.7138    magn:    0.0070    constr:    0.0000
     atom:   35    charge:    1.7183    magn:   -0.0042    constr:    0.0000
     atom:   36    charge:    1.7141    magn:    0.0026    constr:    0.0000
     atom:   37    charge:    1.7269    magn:   -0.0055    constr:    0.0000
     atom:   38    charge:    1.7115    magn:    0.0321    constr:    0.0000
     atom:   39    charge:    1.9149    magn:   -0.0002    constr:    0.0000
     atom:   40    charge:    1.7109    magn:    0.0288    constr:    0.0000
     atom:   41    charge:    1.7271    magn:   -0.0049    constr:    0.0000
     atom:   42    charge:    1.7141    magn:    0.0025    constr:    0.0000
     atom:   43    charge:    1.7184    magn:   -0.0041    constr:    0.0000
     atom:   44    charge:    1.7137    magn:    0.0064    constr:    0.0000
     atom:   45    charge:    1.7246    magn:   -0.0030    constr:    0.0000
     atom:   46    charge:    1.7138    magn:    0.0070    constr:    0.0000
     atom:   47    charge:    1.7183    magn:   -0.0042    constr:    0.0000
     atom:   48    charge:    1.7157    magn:    0.0096    constr:    0.0000
     atom:   49    charge:    1.7169    magn:   -0.0081    constr:    0.0000
     atom:   50    charge:    1.7147    magn:    0.0239    constr:    0.0000
     atom:   51    charge:    1.7170    magn:   -0.0077    constr:    0.0000
     atom:   52    charge:    1.7156    magn:    0.0088    constr:    0.0000

     End of self-consistent calculation

 ------ SPIN UP ------------

          k = 0.0000 0.0000 0.0000 ( 87777 PWs)   bands (ev):

   -62.8172 -37.9049 -37.9000 -36.5794 -19.6189 -18.7786 -18.7732 -18.7063
   -18.6620 -18.6583 -18.2225 -16.9214 -16.9204 -16.9190 -16.7834 -16.7815
   -16.5003 -16.0667 -16.0666 -15.9730 -15.8173 -15.8163 -15.0651 -13.8783
   -13.8725 -13.8696 -13.8465 -13.8460 -13.1164 -12.9015 -12.9010 -12.8836
   -12.4888 -12.4887 -12.0968 -11.6289 -11.6281 -11.5044 -11.1226 -11.1223
   -10.1346  -9.3204  -9.3191  -9.2397  -9.1662  -9.1657  -9.0766  -9.0522
    -9.0517  -9.0360  -8.4473  -8.4469  -7.8778  -7.8765  -7.8467  -7.8237
    -7.6600  -7.5061  -7.2386  -7.2367  -6.9487  -6.9454  -6.8779  -6.6854
    -6.6841  -6.6831  -6.5745  -6.5736  -6.5275  -6.4201  -6.4171  -6.3744
    -6.3703  -6.3696  -6.3173  -6.2430  -5.2439  -5.2426  -5.1416  -5.1370
    -4.9288  -4.9285  -4.8180  -4.7301  -4.6057  -4.5940  -4.5938  -4.2199
    -3.9698  -3.9697  -3.7451  -3.7446  -3.6441  -3.6030  -3.4824  -3.4820
    -2.8611  -2.2445  -2.2420  -2.1995  -2.1971  -1.7325  -1.6677  -1.6663
    -0.5007  -0.2228  -0.2212   1.0646   1.0937   1.0960   1.1651   1.8316
     2.0662   2.0670   2.5404   2.9058   2.9115   2.9909   3.1543   3.4690
     3.6713   3.7450   3.7468   3.7915   3.9637   4.0113   4.0170

     occupation numbers
     1.0000   1.0000   1.0000   1.0000   1.0000   1.0000   1.0000   1.0000
     1.0000   1.0000   1.0000   1.0000   1.0000   1.0000   1.0000   1.0000
     1.0000   1.0000   1.0000   1.0000   1.0000   1.0000   1.0000   1.0000
     1.0000   1.0000   1.0000   1.0000   1.0000   1.0000   1.0000   1.0000
     1.0000   1.0000   1.0000   1.0000   1.0000   1.0000   1.0000   1.0000
     1.0000   1.0000   1.0000   1.0000   1.0000   1.0000   1.0000   1.0000
     1.0000   1.0000   1.0000   1.0000   1.0000   1.0000   1.0000   1.0000
     1.0000   1.0000   1.0000   1.0000   1.0000   1.0000   1.0000   1.0000
     1.0000   1.0000   1.0000   1.0000   1.0000   1.0000   1.0000   1.0000
     1.0000   1.0000   1.0000   1.0000   1.0000   1.0000   1.0000   1.0000
     1.0000   1.0000   1.0000   1.0000   1.0000   1.0000   1.0000   1.0000
     1.0000   1.0000   1.0000   1.0000   1.0000   1.0000   1.0000   1.0000
     1.0000   1.0000   1.0000   1.0000   1.0000   1.0000   1.0000   1.0000
     1.0000   0.5408   0.4592   0.0000   0.0000   0.0000   0.0000   0.0000
     0.0000   0.0000   0.0000   0.0000   0.0000   0.0000   0.0000   0.0000
     0.0000   0.0000   0.0000   0.0000   0.0000   0.0000   0.0000

 ------ SPIN DOWN ----------

          k = 0.0000 0.0000 0.0000 ( 87777 PWs)   bands (ev):

   -62.6207 -37.7494 -37.7313 -36.3108 -19.5971 -18.7579 -18.7508 -18.6860
   -18.6457 -18.6413 -18.1905 -16.9053 -16.9019 -16.8997 -16.7556 -16.7527
   -16.4861 -16.0400 -16.0389 -15.9571 -15.7961 -15.7953 -15.0503 -13.8437
   -13.8424 -13.8411 -13.8330 -13.8266 -13.1194 -12.8911 -12.8902 -12.8680
   -12.4807 -12.4805 -12.0785 -11.6108 -11.6105 -11.4912 -11.1102 -11.1098
   -10.1201  -9.3037  -9.3018  -9.2267  -9.1490  -9.1480  -9.0684  -9.0379
    -9.0378  -9.0268  -8.4408  -8.4399  -7.8664  -7.8650  -7.8380  -7.7784
    -7.6515  -7.4977  -7.2298  -7.2280  -6.8699  -6.8692  -6.8576  -6.6531
    -6.6512  -6.6327  -6.5631  -6.5623  -6.5178  -6.4107  -6.4075  -6.3687
    -6.3633  -6.3631  -6.3091  -6.1661  -5.2357  -5.2341  -5.0551  -5.0539
    -4.9188  -4.9187  -4.8122  -4.7241  -4.5638  -4.5437  -4.5418  -4.1823
    -3.9199  -3.9168  -3.6708  -3.6703  -3.5979  -3.5730  -3.4760  -3.4752
    -2.8269  -2.1763  -2.1749  -2.1345  -2.1303  -1.6520  -1.6508  -1.6379
    -0.4960  -0.0037   0.0129   1.1149   1.1170   1.1419   1.2432   1.9016
     2.1351   2.1393   2.5467   2.9752   2.9824   3.0327   3.1640   3.4761
     3.7067   3.7468   3.7494   3.7998   3.9842   4.0834   4.0864

     occupation numbers
     1.0000   1.0000   1.0000   1.0000   1.0000   1.0000   1.0000   1.0000
     1.0000   1.0000   1.0000   1.0000   1.0000   1.0000   1.0000   1.0000
     1.0000   1.0000   1.0000   1.0000   1.0000   1.0000   1.0000   1.0000
     1.0000   1.0000   1.0000   1.0000   1.0000   1.0000   1.0000   1.0000
     1.0000   1.0000   1.0000   1.0000   1.0000   1.0000   1.0000   1.0000
     1.0000   1.0000   1.0000   1.0000   1.0000   1.0000   1.0000   1.0000
     1.0000   1.0000   1.0000   1.0000   1.0000   1.0000   1.0000   1.0000
     1.0000   1.0000   1.0000   1.0000   1.0000   1.0000   1.0000   1.0000
     1.0000   1.0000   1.0000   1.0000   1.0000   1.0000   1.0000   1.0000
     1.0000   1.0000   1.0000   1.0000   1.0000   1.0000   1.0000   1.0000
     1.0000   1.0000   1.0000   1.0000   1.0000   1.0000   1.0000   1.0000
     1.0000   1.0000   1.0000   1.0000   1.0000   1.0000   1.0000   1.0000
     1.0000   1.0000   1.0000   1.0000   1.0000   1.0000   1.0000   1.0000
     1.0000   0.0000   0.0000   0.0000   0.0000   0.0000   0.0000   0.0000
     0.0000   0.0000   0.0000   0.0000   0.0000   0.0000   0.0000   0.0000
     0.0000   0.0000   0.0000   0.0000   0.0000   0.0000   0.0000

     the Fermi energy is    -0.2201 ev

!    total energy              =    -757.33799539 Ry
     Harris-Foulkes estimate   =    -757.33799579 Ry
     estimated scf accuracy    <       0.00000062 Ry

     The total energy is the sum of the following terms:

     one-electron contribution =   -2590.54524587 Ry
     hartree contribution      =    1342.19982870 Ry
     xc contribution           =    -252.67596480 Ry
     ewald contribution        =     743.68371250 Ry
     smearing contrib. (-TS)   =      -0.00032592 Ry

     total magnetization       =     1.00 Bohr mag/cell
     absolute magnetization    =     1.54 Bohr mag/cell

     convergence has been achieved in  27 iterations

     Writing output data file rotate-60.save/

     General routines

     Parallel routines

   This run was terminated on:  18:57:13  13Oct2022

   JOB DONE.