     Program PWSCF v.6.4.1 starts on  7Mar2023 at  0:27:55

     R & G space division:  proc/nbgrp/npool/nimage =       6
     Reading input from cobre-sustitucion.in

     Current dimensions of program PWSCF are:
     Max number of different atomic species (ntypx) = 10
     Max number of k-points (npk) =  40000
     Max angular momentum in pseudopotentials (lmaxx) =  3

     IMPORTANT: XC functional enforced from input :
     Exchange-correlation      = RVV10 ( 1  4 13  4 3 0)
     Any further DFT definition will be discarded
     Please, verify this is what you really want

               file Cu.pbe-dn-rrkjus_psl.1.0.0.UPF: wavefunction(s)  3D renormalized

     Subspace diagonalization in iterative solution of the eigenvalue problem:
     a serial algorithm will be used

     bravais-lattice index     =            4
     lattice parameter (alat)  =      23.2937  a.u.
     unit-cell volume          =    8879.8548 (a.u.)^3
     number of atoms/cell      =           50
     number of atomic types    =            2
     number of electrons       =       207.00
     number of Kohn-Sham states=          125
     kinetic-energy cutoff     =      70.0000  Ry
     charge density cutoff     =     490.0000  Ry
     convergence threshold     =      1.0E-10
     mixing beta               =       0.7000
     number of iterations used =            8  plain     mixing
     Exchange-correlation      = RVV10 ( 1  4 13  4 3 0)
     nstep                     =           50

     celldm(1)=  23.293684  celldm(2)=   0.000000  celldm(3)=   0.811261
     celldm(4)=   0.000000  celldm(5)=   0.000000  celldm(6)=   0.000000

     crystal axes: (cart. coord. in units of alat)
               a(1) = (   1.000000   0.000000   0.000000 )
               a(2) = (  -0.500000   0.866025   0.000000 )
               a(3) = (   0.000000   0.000000   0.811261 )

     reciprocal axes: (cart. coord. in units 2 pi/alat)
               b(1) = (  1.000000  0.577350 -0.000000 )
               b(2) = (  0.000000  1.154701  0.000000 )
               b(3) = (  0.000000 -0.000000  1.232649 )

     PseudoPot. # 1 for C  read from file:
     /home/cristian/Escritorio/Proyecto_Grafeno/pseudopotenciales/C.pbe-n-rrkjus_psl.1.0.0.UPF
     MD5 check sum: 1fdd950c42eb37d8afe3dd2f8d12311e
     Pseudo is Ultrasoft + core correction, Zval =  4.0
     Generated using "atomic" code by A. Dal Corso v.6.3MaX
     Using radial grid of 1073 points,  4 beta functions with:
                l(1) =   0
                l(2) =   0
                l(3) =   1
                l(4) =   1
     Q(r) pseudized with 0 coefficients

     PseudoPot. # 2 for Cu read from file:
     /home/cristian/Escritorio/Proyecto_Grafeno/pseudopotenciales/Cu.pbe-dn-rrkjus_psl.1.0.0.UPF
     MD5 check sum: ba3d6c84e19846e79d48cdc68ff7152b
     Pseudo is Ultrasoft + core correction, Zval = 11.0
     Generated using "atomic" code by A. Dal Corso v.6.3
     Using radial grid of 1199 points,  6 beta functions with:
                l(1) =   0
                l(2) =   0
                l(3) =   1
                l(4) =   1
                l(5) =   2
                l(6) =   2
     Q(r) pseudized with 0 coefficients

     vdW kernel table read from file rVV10_kernel_table
     MD5 check sum: b8e2538accc0c0b3206b45ba4daaba6c

     atomic species   valence    mass     pseudopotential
        C              4.00    12.01070     C ( 1.00)
        Cu            11.00    63.54600     Cu( 1.00)

     Starting magnetic structure
     atomic species   magnetization
        C            0.000
        Cu           0.300

      4 Sym. Ops. (no inversion) found

                                    s                        frac. trans.

      isym =  1     identity

 cryst.   s( 1) = (     1          0          0      )
                  (     0          1          0      )
                  (     0          0          1      )

 cart.    s( 1) = (  1.0000000  0.0000000  0.0000000 )
                  (  0.0000000  1.0000000  0.0000000 )
                  (  0.0000000  0.0000000  1.0000000 )

      isym =  2     180 deg rotation - cryst. axis [1,-1,0]

[...]

      isym =  3     inv. 180 deg rotation - cart. axis [0,0,1]

[...]

      isym =  4     inv. 180 deg rotation - cryst. axis [1,1,0]

 cryst.   s( 4) = (     0         -1          0      )
                  (    -1          0          0      )
                  (     0          0          1      )

 cart.    s( 4) = (  0.5000000 -0.8660254  0.0000000 )
                  ( -0.8660254 -0.5000000  0.0000000 )
                  (  0.0000000  0.0000000  1.0000000 )

     point group C_2v (mm2)
     there are  4 classes
     the character table:

       E     C2    s_v   s_v'
A_1    1.00  1.00  1.00  1.00
A_2    1.00  1.00 -1.00 -1.00
B_1    1.00 -1.00  1.00 -1.00
B_2    1.00 -1.00 -1.00  1.00

     the symmetry operations in each class and the name of the first element:

     E        1
          identity
     C2       2
          180 deg rotation - cryst. axis [1,-1,0]
     s_v      4
          inv. 180 deg rotation - cryst. axis [1,1,0]
     s_v'     3
          inv. 180 deg rotation - cart. axis [0,0,1]

   Cartesian axes

     site n.     atom                  positions (alat units)
         1           C   tau(   1) = (   0.0000000   0.0000000   0.0000000  )
         2           C   tau(   2) = (   0.0000000   0.1154701   0.0000000  )
         3           C   tau(   3) = (  -0.1000000   0.1732051   0.0000000  )
         4           C   tau(   4) = (  -0.1000000   0.2886751   0.0000000  )
         5           C   tau(   5) = (  -0.2000000   0.3464102   0.0000000  )
         6           C   tau(   6) = (  -0.2000000   0.4618802   0.0000000  )
         7           C   tau(   7) = (  -0.3000000   0.5196152   0.0000000  )
         8           C   tau(   8) = (  -0.3000000   0.6350853   0.0000000  )
         9           C   tau(   9) = (  -0.4000000   0.6928203   0.0000000  )
        10           C   tau(  10) = (  -0.4000000   0.8082904   0.0000000  )
        11           C   tau(  11) = (   0.2000000   0.0000000   0.0000000  )
        12           C   tau(  12) = (   0.2000000   0.1154701   0.0000000  )
        13           C   tau(  13) = (   0.1000000   0.1732051   0.0000000  )
        14           C   tau(  14) = (   0.1000000   0.2886751   0.0000000  )
        15           C   tau(  15) = (   0.0000000   0.3464102   0.0000000  )
        16           C   tau(  16) = (   0.0000000   0.4618802   0.0000000  )
        17           C   tau(  17) = (  -0.1000000   0.5196152   0.0000000  )
        18           C   tau(  18) = (  -0.1000000   0.6350853   0.0000000  )
        19           C   tau(  19) = (  -0.2000000   0.6928203   0.0000000  )
        20           C   tau(  20) = (  -0.2000000   0.8082904   0.0000000  )
        21           C   tau(  21) = (   0.4000000   0.0000000   0.0000000  )
        22           C   tau(  22) = (   0.4000000   0.1154701   0.0000000  )
        23           C   tau(  23) = (   0.3000000   0.1732051   0.0000000  )
        24           C   tau(  24) = (   0.3000000   0.2886751   0.0000000  )
        25           C   tau(  25) = (   0.2000000   0.3464102   0.0000000  )
        26           Cu  tau(  26) = (   0.2000000   0.4618802   0.0000000  )
        27           C   tau(  27) = (   0.1000000   0.5196152   0.0000000  )
        28           C   tau(  28) = (   0.1000000   0.6350853   0.0000000  )
        29           C   tau(  29) = (   0.0000000   0.6928203   0.0000000  )
        30           C   tau(  30) = (   0.0000000   0.8082904   0.0000000  )
        31           C   tau(  31) = (   0.6000000   0.0000000   0.0000000  )
        32           C   tau(  32) = (   0.6000000   0.1154701   0.0000000  )
        33           C   tau(  33) = (   0.5000000   0.1732051   0.0000000  )
        34           C   tau(  34) = (   0.5000000   0.2886751   0.0000000  )
        35           C   tau(  35) = (   0.4000000   0.3464102   0.0000000  )
        36           C   tau(  36) = (   0.4000000   0.4618802   0.0000000  )
        37           C   tau(  37) = (   0.3000000   0.5196152   0.0000000  )
        38           C   tau(  38) = (   0.3000000   0.6350853   0.0000000  )
        39           C   tau(  39) = (   0.2000000   0.6928203   0.0000000  )
        40           C   tau(  40) = (   0.2000000   0.8082904   0.0000000  )
        41           C   tau(  41) = (   0.8000000   0.0000000   0.0000000  )
        42           C   tau(  42) = (   0.8000000   0.1154701   0.0000000  )
        43           C   tau(  43) = (   0.7000000   0.1732051   0.0000000  )
        44           C   tau(  44) = (   0.7000000   0.2886751   0.0000000  )
        45           C   tau(  45) = (   0.6000000   0.3464102   0.0000000  )
        46           C   tau(  46) = (   0.6000000   0.4618802   0.0000000  )
        47           C   tau(  47) = (   0.5000000   0.5196152   0.0000000  )
        48           C   tau(  48) = (   0.5000000   0.6350853   0.0000000  )
        49           C   tau(  49) = (   0.4000000   0.6928203   0.0000000  )
        50           C   tau(  50) = (   0.4000000   0.8082904   0.0000000  )

   Crystallographic axes

     site n.     atom                  positions (cryst. coord.)
         1           C   tau(   1) = (  0.0000000  0.0000000  0.0000000  )
         2           C   tau(   2) = (  0.0666667  0.1333333  0.0000000  )
         3           C   tau(   3) = (  0.0000000  0.2000000  0.0000000  )
         4           C   tau(   4) = (  0.0666667  0.3333333  0.0000000  )
         5           C   tau(   5) = (  0.0000000  0.4000000  0.0000000  )
         6           C   tau(   6) = (  0.0666667  0.5333333  0.0000000  )
         7           C   tau(   7) = (  0.0000000  0.6000000  0.0000000  )
         8           C   tau(   8) = (  0.0666667  0.7333333  0.0000000  )
         9           C   tau(   9) = (  0.0000000  0.8000000  0.0000000  )
        10           C   tau(  10) = (  0.0666667  0.9333333  0.0000000  )
        11           C   tau(  11) = (  0.2000000  0.0000000  0.0000000  )
        12           C   tau(  12) = (  0.2666667  0.1333333  0.0000000  )
        13           C   tau(  13) = (  0.2000000  0.2000000  0.0000000  )
        14           C   tau(  14) = (  0.2666667  0.3333333  0.0000000  )
        15           C   tau(  15) = (  0.2000000  0.4000000  0.0000000  )
        16           C   tau(  16) = (  0.2666667  0.5333333  0.0000000  )
        17           C   tau(  17) = (  0.2000000  0.6000000  0.0000000  )
        18           C   tau(  18) = (  0.2666667  0.7333333  0.0000000  )
        19           C   tau(  19) = (  0.2000000  0.8000000  0.0000000  )
        20           C   tau(  20) = (  0.2666667  0.9333333  0.0000000  )
        21           C   tau(  21) = (  0.4000000  0.0000000  0.0000000  )
        22           C   tau(  22) = (  0.4666667  0.1333333  0.0000000  )
        23           C   tau(  23) = (  0.4000000  0.2000000  0.0000000  )
        24           C   tau(  24) = (  0.4666667  0.3333333  0.0000000  )
        25           C   tau(  25) = (  0.4000000  0.4000000  0.0000000  )
        26           Cu  tau(  26) = (  0.4666667  0.5333333  0.0000000  )
[...]
     atom   21 type  1   force =     0.02106953    0.07534042    0.00000000
     atom   22 type  1   force =    -0.35684252    0.15195666    0.00000000
     atom   23 type  1   force =    -0.25431931    0.66520711    0.00000000
     atom   24 type  1   force =    -1.59084277    1.00308696    0.00000000
     atom   25 type  1   force =     0.26688358    2.91998103    0.00000000
     atom   26 type  2   force =     0.37909903   -0.21887300    0.00000000
     atom   27 type  1   force =     2.14801212   -1.24015538    0.00000000
     atom   28 type  1   force =     0.18613183   -1.36168221    0.00000000
     atom   29 type  1   force =     0.39919256   -0.33582390    0.00000000
     atom   30 type  1   force =    -0.02138220   -0.19159156    0.00000000
     atom   31 type  1   force =     0.04995224   -0.13551729    0.00000000
     atom   32 type  1   force =    -0.00026394   -0.03753453    0.00000000
     atom   33 type  1   force =    -0.13443630    0.01053198    0.00000000
     atom   34 type  1   force =    -0.47678232    0.27527040    0.00000000
     atom   35 type  1   force =    -0.75915840    0.43830031    0.00000000
     atom   36 type  1   force =    -1.66412018    0.87616677    0.00000000
     atom   37 type  1   force =    -2.39533596   -1.69111847    0.00000000
     atom   38 type  1   force =     0.26990741   -1.76159465    0.00000000
     atom   39 type  1   force =     0.27021205   -0.53971913    0.00000000
     atom   40 type  1   force =     0.11819312   -0.57026286    0.00000000
     atom   41 type  1   force =     0.07180296   -0.09410556    0.00000000
     atom   42 type  1   force =     0.20191966   -0.11657837    0.00000000
     atom   43 type  1   force =     0.01859944   -0.01073839    0.00000000
     atom   44 type  1   force =     0.03237389    0.01899584    0.00000000
     atom   45 type  1   force =    -0.07633911    0.11115926    0.00000000
     atom   46 type  1   force =    -0.31001958    0.23305635    0.00000000
     atom   47 type  1   force =    -0.70324591   -0.11235658    0.00000000
     atom   48 type  1   force =    -0.28668151   -0.07623064    0.00000000
     atom   49 type  1   force =    -0.67413978   -0.34572859    0.00000000
     atom   50 type  1   force =     0.24577053   -0.46228574    0.00000000
     The core correction contribution to forces
     atom    1 type  1   force =    -0.00049401    0.00028522   -0.00000000
     atom    2 type  1   force =     0.00035000   -0.00053933    0.00000000
     atom    3 type  1   force =    -0.00081238   -0.00023117   -0.00000000
     atom    4 type  1   force =     0.00032118    0.00040205   -0.00000000
     atom    5 type  1   force =    -0.00044673   -0.00037845    0.00000000
     atom    6 type  1   force =    -0.00023721   -0.00004970    0.00000000
     atom    7 type  1   force =     0.00005726   -0.00004162   -0.00000000
     atom    8 type  1   force =     0.00013011    0.00007083   -0.00000000
     atom    9 type  1   force =    -0.00013306   -0.00004818    0.00000000
     atom   10 type  1   force =     0.00035055   -0.00020239   -0.00000000
     atom   11 type  1   force =    -0.00002481    0.00013933    0.00000000
     atom   12 type  1   force =     0.00017873   -0.00075365   -0.00000000
     atom   13 type  1   force =    -0.00108560   -0.00045656   -0.00000000
     atom   14 type  1   force =    -0.00010395   -0.00050095   -0.00000000
     atom   15 type  1   force =    -0.00100870   -0.00055501   -0.00000000
     atom   16 type  1   force =    -0.00056626   -0.00008031   -0.00000000
     atom   17 type  1   force =    -0.00088577   -0.00019245    0.00000000
     atom   18 type  1   force =    -0.00038312    0.00022120   -0.00000000
     atom   19 type  1   force =    -0.00012957    0.00007480   -0.00000000
     atom   20 type  1   force =     0.00000371   -0.00014809   -0.00000000
     atom   21 type  1   force =     0.00006467   -0.00002877   -0.00000000
     atom   22 type  1   force =     0.00007489   -0.00035268   -0.00000000
     atom   23 type  1   force =     0.00066562   -0.00112394    0.00000000
     atom   24 type  1   force =     0.00085679   -0.00115544    0.00000000
     atom   25 type  1   force =    -0.00216616   -0.00101927    0.00000000
     atom   26 type  2   force =     0.02203504   -0.01272195   -0.00000000
     atom   27 type  1   force =    -0.00240439    0.00138817    0.00000000
     atom   28 type  1   force =    -0.00021358    0.00053055    0.00000000
     atom   29 type  1   force =    -0.00027622    0.00086332    0.00000000
     atom   30 type  1   force =    -0.00007557    0.00023028    0.00000000
     atom   31 type  1   force =     0.00010438    0.00057610    0.00000000
     atom   32 type  1   force =     0.00036023    0.00024100    0.00000000
     atom   33 type  1   force =     0.00050084   -0.00030017    0.00000000
     atom   34 type  1   force =    -0.00016242    0.00009378   -0.00000000
     atom   35 type  1   force =     0.00186779   -0.00107837   -0.00000000
     atom   36 type  1   force =     0.00142904   -0.00016428    0.00000000
     atom   37 type  1   force =    -0.00020037    0.00238558    0.00000000
     atom   38 type  1   force =     0.00038187    0.00034050   -0.00000000
     atom   39 type  1   force =    -0.00002370    0.00115107    0.00000000
     atom   40 type  1   force =    -0.00018760   -0.00047917   -0.00000000
     atom   41 type  1   force =    -0.00020599    0.00081912   -0.00000000
     atom   42 type  1   force =    -0.00033439    0.00019306    0.00000000
     atom   43 type  1   force =    -0.00006806    0.00003930    0.00000000
     atom   44 type  1   force =    -0.00002860   -0.00043247    0.00000000
     atom   45 type  1   force =     0.00051038   -0.00028366    0.00000000
     atom   46 type  1   force =     0.00034288    0.00011148   -0.00000000
     atom   47 type  1   force =     0.00130617   -0.00001448    0.00000000
     atom   48 type  1   force =     0.00074204    0.00022204   -0.00000000
     atom   49 type  1   force =    -0.00014740    0.00116844   -0.00000000
     atom   50 type  1   force =     0.00064207   -0.00003344    0.00000000
     The Hubbard contrib.    to forces
     atom    1 type  1   force =     0.00000000    0.00000000    0.00000000
     atom    2 type  1   force =     0.00000000    0.00000000    0.00000000
     atom    3 type  1   force =     0.00000000    0.00000000    0.00000000
     atom    4 type  1   force =     0.00000000    0.00000000    0.00000000
     atom    5 type  1   force =     0.00000000    0.00000000    0.00000000
     atom    6 type  1   force =     0.00000000    0.00000000    0.00000000
     atom    7 type  1   force =     0.00000000    0.00000000    0.00000000
     atom    8 type  1   force =     0.00000000    0.00000000    0.00000000
     atom    9 type  1   force =     0.00000000    0.00000000    0.00000000
     atom   10 type  1   force =     0.00000000    0.00000000    0.00000000
     atom   11 type  1   force =     0.00000000    0.00000000    0.00000000
     atom   12 type  1   force =     0.00000000    0.00000000    0.00000000
     atom   13 type  1   force =     0.00000000    0.00000000    0.00000000
     atom   14 type  1   force =     0.00000000    0.00000000    0.00000000
     atom   15 type  1   force =     0.00000000    0.00000000    0.00000000
     atom   16 type  1   force =     0.00000000    0.00000000    0.00000000
     atom   17 type  1   force =     0.00000000    0.00000000    0.00000000
     atom   18 type  1   force =     0.00000000    0.00000000    0.00000000
     atom   19 type  1   force =     0.00000000    0.00000000    0.00000000
     atom   20 type  1   force =     0.00000000    0.00000000    0.00000000
     atom   21 type  1   force =     0.00000000    0.00000000    0.00000000
     atom   22 type  1   force =     0.00000000    0.00000000    0.00000000
     atom   23 type  1   force =     0.00000000    0.00000000    0.00000000
     atom   24 type  1   force =     0.00000000    0.00000000    0.00000000
     atom   25 type  1   force =     0.00000000    0.00000000    0.00000000
     atom   26 type  2   force =     0.00000000    0.00000000    0.00000000
     atom   27 type  1   force =     0.00000000    0.00000000    0.00000000
     atom   28 type  1   force =     0.00000000    0.00000000    0.00000000
     atom   29 type  1   force =     0.00000000    0.00000000    0.00000000
     atom   30 type  1   force =     0.00000000    0.00000000    0.00000000
     atom   31 type  1   force =     0.00000000    0.00000000    0.00000000
     atom   32 type  1   force =     0.00000000    0.00000000    0.00000000
     atom   33 type  1   force =     0.00000000    0.00000000    0.00000000
     atom   34 type  1   force =     0.00000000    0.00000000    0.00000000
     atom   35 type  1   force =     0.00000000    0.00000000    0.00000000
     atom   36 type  1   force =     0.00000000    0.00000000    0.00000000
     atom   37 type  1   force =     0.00000000    0.00000000    0.00000000
     atom   38 type  1   force =     0.00000000    0.00000000    0.00000000
     atom   39 type  1   force =     0.00000000    0.00000000    0.00000000
     atom   40 type  1   force =     0.00000000    0.00000000    0.00000000
     atom   41 type  1   force =     0.00000000    0.00000000    0.00000000
     atom   42 type  1   force =     0.00000000    0.00000000    0.00000000
     atom   43 type  1   force =     0.00000000    0.00000000    0.00000000
     atom   44 type  1   force =     0.00000000    0.00000000    0.00000000
     atom   45 type  1   force =     0.00000000    0.00000000    0.00000000
     atom   46 type  1   force =     0.00000000    0.00000000    0.00000000
     atom   47 type  1   force =     0.00000000    0.00000000    0.00000000
     atom   48 type  1   force =     0.00000000    0.00000000    0.00000000
     atom   49 type  1   force =     0.00000000    0.00000000    0.00000000
     atom   50 type  1   force =     0.00000000    0.00000000    0.00000000
     The SCF correction term to forces
     atom    1 type  1   force =    -0.00000012    0.00000007   -0.00000000
     atom    2 type  1   force =     0.00000001   -0.00000008   -0.00000000
     atom    3 type  1   force =     0.00000014   -0.00000017   -0.00000000
     atom    4 type  1   force =     0.00000009    0.00000009   -0.00000000
     atom    5 type  1   force =    -0.00000002    0.00000017   -0.00000000
     atom    6 type  1   force =     0.00000003    0.00000006   -0.00000000
     atom    7 type  1   force =    -0.00000000    0.00000004   -0.00000000
     atom    8 type  1   force =     0.00000006    0.00000008   -0.00000000
     atom    9 type  1   force =     0.00000003   -0.00000010   -0.00000000
     atom   10 type  1   force =     0.00000004   -0.00000003   -0.00000000
     atom   11 type  1   force =     0.00000010    0.00000002   -0.00000000
     atom   12 type  1   force =     0.00000005   -0.00000007   -0.00000000
     atom   13 type  1   force =    -0.00000004   -0.00000007   -0.00000000
     atom   14 type  1   force =    -0.00000006    0.00000004   -0.00000000
     atom   15 type  1   force =     0.00000009    0.00000010   -0.00000000
     atom   16 type  1   force =    -0.00000000   -0.00000003   -0.00000000
     atom   17 type  1   force =    -0.00000004    0.00000001   -0.00000000
     atom   18 type  1   force =    -0.00000011    0.00000006   -0.00000000
     atom   19 type  1   force =    -0.00000001    0.00000000   -0.00000000
     atom   20 type  1   force =    -0.00000004   -0.00000009   -0.00000000
     atom   21 type  1   force =    -0.00000003   -0.00000002   -0.00000000
     atom   22 type  1   force =    -0.00000009   -0.00000001   -0.00000000
     atom   23 type  1   force =     0.00000003   -0.00000006   -0.00000000
     atom   24 type  1   force =     0.00000008   -0.00000001   -0.00000000
     atom   25 type  1   force =    -0.00000000    0.00000003   -0.00000000
     atom   26 type  2   force =    -0.00000016    0.00000009   -0.00000000
     atom   27 type  1   force =     0.00000004   -0.00000002   -0.00000000
     atom   28 type  1   force =     0.00000002    0.00000002   -0.00000000
     atom   29 type  1   force =    -0.00000003    0.00000003   -0.00000000
     atom   30 type  1   force =    -0.00000003   -0.00000006   -0.00000000
     atom   31 type  1   force =    -0.00000016   -0.00000007   -0.00000000
     atom   32 type  1   force =    -0.00000003   -0.00000005   -0.00000000
     atom   33 type  1   force =    -0.00000015   -0.00000009   -0.00000000
     atom   34 type  1   force =    -0.00000014    0.00000008   -0.00000000
     atom   35 type  1   force =    -0.00000008    0.00000005   -0.00000000
     atom   36 type  1   force =     0.00000005   -0.00000007   -0.00000000
     atom   37 type  1   force =    -0.00000002   -0.00000001   -0.00000000
     atom   38 type  1   force =    -0.00000006    0.00000003   -0.00000000
     atom   39 type  1   force =    -0.00000004   -0.00000013   -0.00000000
     atom   40 type  1   force =    -0.00000004   -0.00000012   -0.00000000
     atom   41 type  1   force =     0.00000022   -0.00000004   -0.00000000
     atom   42 type  1   force =     0.00000006   -0.00000004   -0.00000000
     atom   43 type  1   force =     0.00000002   -0.00000001   -0.00000000
     atom   44 type  1   force =     0.00000003    0.00000006   -0.00000000
     atom   45 type  1   force =     0.00000001    0.00000018   -0.00000000
     atom   46 type  1   force =    -0.00000004    0.00000008   -0.00000000
     atom   47 type  1   force =     0.00000007    0.00000000   -0.00000000
     atom   48 type  1   force =     0.00000009   -0.00000001   -0.00000000
     atom   49 type  1   force =     0.00000004    0.00000006   -0.00000000
     atom   50 type  1   force =     0.00000007    0.00000003   -0.00000000

     Total force =     0.002714     Total SCF correction =     0.000001

     bfgs converged in  18 scf cycles and  16 bfgs steps
     (criteria: energy <  1.0E-04 Ry, force <  1.0E-03 Ry/Bohr)

     End of BFGS Geometry Optimization

     Final energy   =    -733.0398258911 Ry
Begin final coordinates

ATOMIC_POSITIONS (angstrom)
C        0.007254849  -0.004188589   0.000000000
C       -0.033576993   1.392504820   0.000000000
C       -1.255227482   2.124956394  -0.000000000
C       -1.262571788   3.548191543  -0.000000000
C       -2.489197431   4.266972971   0.000000000
C       -2.478734795   5.686495214  -0.000000000
C       -3.690725476   6.411925039  -0.000000000
C       -3.685871187   7.828879352  -0.000000000
C       -4.907493022   8.547587754   0.000000000
C       -4.923897159   9.959513794   0.000000000
C        2.470312103  -0.023780251   0.000000000
C        2.456901308   1.382662891   0.000000000
C        1.193923874   2.047402366   0.000000000
C        1.146504045   3.447588891   0.000000000
C       -0.042475772   4.240104142   0.000000000
C       -0.043178063   5.673914507  -0.000000000
C       -1.263228515   6.405501183   0.000000000
C       -1.235601041   7.830075037   0.000000000
C       -2.461166871   8.537655799   0.000000000
C       -2.459700620   9.952669072  -0.000000000
C        4.928234041  -0.009700499  -0.000000000
C        4.938735039   1.403269727   0.000000000
C        3.702331685   2.074539203   0.000000000
C        3.708688863   3.493878264  -0.000000000
C        2.398763198   3.938760145  -0.000000000
Cu       2.574395469   5.630372526   0.000000000
C        1.064117273   6.502332049   0.000000000
C        1.227900242   7.875486712   0.000000000
C       -0.015697630   8.566288058  -0.000000000
C       -0.000773335   9.978450360   0.000000000
C        7.386581045   0.022221725  -0.000000000
C        7.386702728   1.438287695   0.000000000
C        6.155301679   2.138446543   0.000000000
C        6.149723533   3.566155906   0.000000000
C        4.924909320   4.273302722   0.000000000
C        4.991800473   5.716292763   0.000000000
C        3.951558629   6.628280726  -0.000000000
C        3.750795836   7.958354592   0.000000000
C        2.469967587   8.591783692   0.000000000
C        2.459133467   9.994374136   0.000000000
C        9.858606790   0.024580690  -0.000000000
C        9.840921663   1.435041672   0.000000000
C        8.612938452   2.144018110   0.000000000
C        8.611001058   3.558834605  -0.000000000
C        7.388945184   4.275179772  -0.000000000
C        7.417343663   5.696345796  -0.000000000
C        6.217805567   6.431467771   0.000000000
C        6.194272841   7.855980273  -0.000000000
C        4.987102851   8.617381077   0.000000000
C        4.940510330  10.007876785  -0.000000000
End final coordinates

     Writing output data file cobre-sustitucion.save/

     General routines

     Parallel routines

   This run was terminated on:  12:51:41   7Mar2023

   JOB DONE.