     Program PWSCF v.6.4.1 starts on 25Feb2023 at 12:13:34

     R & G space division:  proc/nbgrp/npool/nimage =       6
     Reading input from mn-relax.in

     Current dimensions of program PWSCF are:
     Max number of different atomic species (ntypx) = 10
     Max number of k-points (npk) =  40000
     Max angular momentum in pseudopotentials (lmaxx) =  3
               file H.pbe-rrkjus.UPF: wavefunction(s)  1S renormalized
               file Mn.pbe-spn-rrkjus_psl.0.3.1.UPF: wavefunction(s)  3D renormalized

     Subspace diagonalization in iterative solution of the eigenvalue problem:
     a serial algorithm will be used

     bravais-lattice index     =            4
     lattice parameter (alat)  =      23.2937  a.u.
     unit-cell volume          =    8879.8548 (a.u.)^3
     number of atoms/cell      =           52
     number of atomic types    =            3
     number of electrons       =       213.00
     number of Kohn-Sham states=          128
     kinetic-energy cutoff     =      70.0000  Ry
     charge density cutoff     =     490.0000  Ry
     convergence threshold     =      1.0E-10
     mixing beta               =       0.7000
     number of iterations used =            8  plain     mixing
     Exchange-correlation      = PBE ( 1  4  3  4 0 0)
     nstep                     =           50

     celldm(1)=  23.293684  celldm(2)=   0.000000  celldm(3)=   0.811261
     celldm(4)=   0.000000  celldm(5)=   0.000000  celldm(6)=   0.000000

     crystal axes: (cart. coord. in units of alat)
               a(1) = (   1.000000   0.000000   0.000000 )
               a(2) = (  -0.500000   0.866025   0.000000 )
               a(3) = (   0.000000   0.000000   0.811261 )

     reciprocal axes: (cart. coord. in units 2 pi/alat)
               b(1) = (  1.000000  0.577350 -0.000000 )
               b(2) = (  0.000000  1.154701  0.000000 )
               b(3) = (  0.000000 -0.000000  1.232649 )

     PseudoPot. # 1 for H  read from file:
     /home/cristian/Escritorio/Proyecto_Grafeno/pseudopotenciales/H.pbe-rrkjus.UPF
     MD5 check sum: 7cc9d459525c9a0585f487a71c3c9563
     Pseudo is Ultrasoft, Zval =  1.0
     Generated by new atomic code, or converted to UPF format
     Using radial grid of 1061 points,  2 beta functions with:
                l(1) =   0
                l(2) =   0
     Q(r) pseudized with 0 coefficients

     PseudoPot. # 2 for C  read from file:
     /home/cristian/Escritorio/Proyecto_Grafeno/pseudopotenciales/C.pbe-n-rrkjus_psl.1.0.0.UPF
     MD5 check sum: 1fdd950c42eb37d8afe3dd2f8d12311e
     Pseudo is Ultrasoft + core correction, Zval =  4.0
     Generated using "atomic" code by A. Dal Corso v.6.3MaX
     Using radial grid of 1073 points,  4 beta functions with:
                l(1) =   0
                l(2) =   0
                l(3) =   1
                l(4) =   1
     Q(r) pseudized with 0 coefficients

     PseudoPot. # 3 for Mn read from file:
     /home/cristian/Escritorio/Proyecto_Grafeno/pseudopotenciales/Mn.pbe-spn-rrkjus_psl.0.3.1.UPF
     MD5 check sum: e1cac159bdd2ba70c18e85765a5d4279
     Pseudo is Ultrasoft + core correction, Zval = 15.0
     Generated using "atomic" code by A. Dal Corso v.6.2.2
     Using radial grid of 1187 points,  6 beta functions with:
                l(1) =   0
                l(2) =   0
                l(3) =   1
                l(4) =   1
                l(5) =   2
                l(6) =   2
     Q(r) pseudized with 0 coefficients

     atomic species   valence    mass     pseudopotential
        H              1.00     1.00794     H ( 1.00)
        C              4.00    12.01070     C ( 1.00)
        Mn            15.00    54.93804     Mn( 1.00)

     Starting magnetic structure
     atomic species   magnetization
        H            0.500
        C            0.300
        Mn           0.800

     No symmetry found

                                    s                        frac. trans.

      isym =  1     identity

 cryst.   s( 1) = (     1          0          0      )
                  (     0          1          0      )
                  (     0          0          1      )

 cart.    s( 1) = (  1.0000000  0.0000000  0.0000000 )
                  (  0.0000000  1.0000000  0.0000000 )
                  (  0.0000000  0.0000000  1.0000000 )

     point group C_1 (1)
     there are  1 classes
     the character table:

       E
A      1.00

     the symmetry operations in each class and the name of the first element:

     E        1
          identity

   Cartesian axes

     site n.     atom                  positions (alat units)
         1           H   tau(   1) = (   0.2694937   0.4041452   0.2433783  )
         2           H   tau(   2) = (   0.3305063   0.4041452   0.2433783  )
         3           C   tau(   3) = (   0.0000000   0.0000000   0.0000000  )
         4           C   tau(   4) = (   0.0000000   0.1154701   0.0000000  )
         5           C   tau(   5) = (  -0.1000000   0.1732051   0.0000000  )
         6           C   tau(   6) = (  -0.1000000   0.2886751   0.0000000  )
         7           C   tau(   7) = (  -0.2000000   0.3464102   0.0000000  )
         8           C   tau(   8) = (  -0.2000000   0.4618802   0.0000000  )
         9           C   tau(   9) = (  -0.3000000   0.5196152   0.0000000  )
        10           C   tau(  10) = (  -0.3000000   0.6350853   0.0000000  )
        11           C   tau(  11) = (  -0.4000000   0.6928203   0.0000000  )
        12           C   tau(  12) = (  -0.4000000   0.8082904   0.0000000  )
        13           C   tau(  13) = (   0.2000000   0.0000000   0.0000000  )
        14           C   tau(  14) = (   0.2000000   0.1154701   0.0000000  )
        15           C   tau(  15) = (   0.1000000   0.1732051   0.0000000  )
        16           C   tau(  16) = (   0.1000000   0.2886751   0.0000000  )
        17           C   tau(  17) = (   0.0000000   0.3464102   0.0000000  )
        18           C   tau(  18) = (   0.0000000   0.4618802   0.0000000  )
        19           C   tau(  19) = (  -0.1000000   0.5196152   0.0000000  )
        20           C   tau(  20) = (  -0.1000000   0.6350853   0.0000000  )
        21           C   tau(  21) = (  -0.2000000   0.6928203   0.0000000  )
        22           C   tau(  22) = (  -0.2000000   0.8082904   0.0000000  )
        23           C   tau(  23) = (   0.4000000   0.0000000   0.0000000  )
        24           C   tau(  24) = (   0.4000000   0.1154701   0.0000000  )
        25           C   tau(  25) = (   0.3000000   0.1732051   0.0000000  )
        26           C   tau(  26) = (   0.3000000   0.2886751   0.0000000  )
        27           C   tau(  27) = (   0.2000000   0.3464102   0.0000000  )
        28           Mn  tau(  28) = (   0.2000000   0.4618802   0.0000000  )
        29           C   tau(  29) = (   0.1000000   0.5196152   0.0000000  )
        30           C   tau(  30) = (   0.1000000   0.6350853   0.0000000  )
        31           C   tau(  31) = (   0.0000000   0.6928203   0.0000000  )
        32           C   tau(  32) = (   0.0000000   0.8082904   0.0000000  )
        33           C   tau(  33) = (   0.6000000   0.0000000   0.0000000  )
        34           C   tau(  34) = (   0.6000000   0.1154701   0.0000000  )
        35           C   tau(  35) = (   0.5000000   0.1732051   0.0000000  )
        36           C   tau(  36) = (   0.5000000   0.2886751   0.0000000  )
        37           C   tau(  37) = (   0.4000000   0.3464102   0.0000000  )
        38           C   tau(  38) = (   0.4000000   0.4618802   0.0000000  )
        39           C   tau(  39) = (   0.3000000   0.5196152   0.0000000  )
        40           C   tau(  40) = (   0.3000000   0.6350853   0.0000000  )
        41           C   tau(  41) = (   0.2000000   0.6928203   0.0000000  )
        42           C   tau(  42) = (   0.2000000   0.8082904   0.0000000  )
        43           C   tau(  43) = (   0.8000000   0.0000000   0.0000000  )
        44           C   tau(  44) = (   0.8000000   0.1154701   0.0000000  )
        45           C   tau(  45) = (   0.7000000   0.1732051   0.0000000  )
        46           C   tau(  46) = (   0.7000000   0.2886751   0.0000000  )
        47           C   tau(  47) = (   0.6000000   0.3464102   0.0000000  )
        48           C   tau(  48) = (   0.6000000   0.4618802   0.0000000  )
        49           C   tau(  49) = (   0.5000000   0.5196152   0.0000000  )
        50           C   tau(  50) = (   0.5000000   0.6350853   0.0000000  )
        51           C   tau(  51) = (   0.4000000   0.6928203   0.0000000  )
        52           C   tau(  52) = (   0.4000000   0.8082904   0.0000000  )

   Crystallographic axes

     site n.     atom                  positions (cryst. coord.)
         1           H   tau(   1) = (  0.5028270  0.4666667  0.3000000  )
         2           H   tau(   2) = (  0.5638397  0.4666667  0.3000000  )
         3           C   tau(   3) = (  0.0000000  0.0000000  0.0000000  )
         4           C   tau(   4) = (  0.0666667  0.1333333  0.0000000  )
         5           C   tau(   5) = (  0.0000000  0.2000000  0.0000000  )
         6           C   tau(   6) = (  0.0666667  0.3333333  0.0000000  )
         7           C   tau(   7) = (  0.0000000  0.4000000  0.0000000  )
         8           C   tau(   8) = (  0.0666667  0.5333333  0.0000000  )
         9           C   tau(   9) = (  0.0000000  0.6000000  0.0000000  )
        10           C   tau(  10) = (  0.0666667  0.7333333  0.0000000  )
        11           C   tau(  11) = (  0.0000000  0.8000000  0.0000000  )
        12           C   tau(  12) = (  0.0666667  0.9333333  0.0000000  )
        13           C   tau(  13) = (  0.2000000  0.0000000  0.0000000  )
        14           C   tau(  14) = (  0.2666667  0.1333333  0.0000000  )
        15           C   tau(  15) = (  0.2000000  0.2000000  0.0000000  )
        16           C   tau(  16) = (  0.2666667  0.3333333  0.0000000  )
        17           C   tau(  17) = (  0.2000000  0.4000000  0.0000000  )
        18           C   tau(  18) = (  0.2666667  0.5333333  0.0000000  )
        19           C   tau(  19) = (  0.2000000  0.6000000  0.0000000  )
        20           C   tau(  20) = (  0.2666667  0.7333333  0.0000000  )
        21           C   tau(  21) = (  0.2000000  0.8000000  0.0000000  )
        22           C   tau(  22) = (  0.2666667  0.9333333  0.0000000  )
        23           C   tau(  23) = (  0.4000000  0.0000000  0.0000000  )
        24           C   tau(  24) = (  0.4666667  0.1333333  0.0000000  )
        25           C   tau(  25) = (  0.4000000  0.2000000  0.0000000  )
        26           C   tau(  26) = (  0.4666667  0.3333333  0.0000000  )
        27           C   tau(  27) = (  0.4000000  0.4000000  0.0000000  )
        28           Mn  tau(  28) = (  0.4666667  0.5333333  0.0000000  )
        29           C   tau(  29) = (  0.4000000  0.6000000  0.0000000  )
        30           C   tau(  30) = (  0.4666667  0.7333333  0.0000000  )
        31           C   tau(  31) = (  0.4000000  0.8000000  0.0000000  )
        32           C   tau(  32) = (  0.4666667  0.9333333  0.0000000  )
[...]
     atom   34 type  2   force =    -0.14924989   -0.01656731    0.61389340
     atom   35 type  2   force =    -0.35471083    0.25961720    0.56996052
     atom   36 type  2   force =    -0.80820110    0.46535259    0.54157480
     atom   37 type  2   force =    -1.47905347    0.85365603    0.74264571
     atom   38 type  2   force =    -2.22816916    0.20259268    1.36881954
     atom   39 type  2   force =    -2.96141645   -2.07115556    2.76510766
     atom   40 type  2   force =    -0.69690000   -2.06247114    1.30797950
     atom   41 type  2   force =     0.05242489   -1.53690938    0.67957550
     atom   42 type  2   force =    -0.00294735   -0.80718237    0.64054464
     atom   43 type  2   force =     0.00595446   -0.34543654    0.65144123
     atom   44 type  2   force =     0.10933161   -0.06130989    0.64507826
     atom   45 type  2   force =    -0.04707391    0.02898539    0.53486062
     atom   46 type  2   force =    -0.05896413    0.13822760    0.61653491
     atom   47 type  2   force =    -0.39878113    0.17779607    0.57691197
     atom   48 type  2   force =    -0.49289364    0.05688375    0.94118628
     atom   49 type  2   force =    -1.03895695   -0.27557823    1.01551500
     atom   50 type  2   force =    -0.61252753   -0.40446222    0.83546320
     atom   51 type  2   force =    -0.62031644   -0.78570334    1.05530520
     atom   52 type  2   force =    -0.12037789   -0.40849068    0.96570092
     The core correction contribution to forces
     atom    1 type  1   force =     0.00000000    0.00000000    0.00000000
     atom    2 type  1   force =     0.00000000    0.00000000    0.00000000
     atom    3 type  2   force =    -0.00022993    0.00013258    0.00036488
     atom    4 type  2   force =     0.00004022   -0.00017332    0.00031706
     atom    5 type  2   force =    -0.00024567   -0.00030067    0.00028242
     atom    6 type  2   force =     0.00038397    0.00028924    0.00014858
     atom    7 type  2   force =    -0.00031478   -0.00000884    0.00029847
     atom    8 type  2   force =    -0.00012232    0.00005007    0.00037008
     atom    9 type  2   force =     0.00001078   -0.00024836    0.00032435
     atom   10 type  2   force =     0.00000299    0.00003820    0.00025065
     atom   11 type  2   force =    -0.00006391   -0.00002544    0.00014594
     atom   12 type  2   force =     0.00004458   -0.00003279    0.00025289
     atom   13 type  2   force =    -0.00000254    0.00007341    0.00013509
     atom   14 type  2   force =    -0.00004055   -0.00042352    0.00027599
     atom   15 type  2   force =    -0.00036816   -0.00014013    0.00009939
     atom   16 type  2   force =     0.00082190   -0.00042846   -0.00047422
     atom   17 type  2   force =    -0.00074530   -0.00033591   -0.00004925
     atom   18 type  2   force =    -0.00004139    0.00089690   -0.00054275
     atom   19 type  2   force =    -0.00020733   -0.00027453    0.00013867
     atom   20 type  2   force =    -0.00033294    0.00018795    0.00020277
     atom   21 type  2   force =     0.00008060   -0.00003618    0.00014939
     atom   22 type  2   force =    -0.00002974   -0.00003000    0.00023406
     atom   23 type  2   force =     0.00021372    0.00011833    0.00029982
     atom   24 type  2   force =    -0.00005750   -0.00020405    0.00034844
     atom   25 type  2   force =     0.00038882   -0.00011943    0.00009353
     atom   26 type  2   force =    -0.00104240   -0.00052676   -0.00047039
     atom   27 type  2   force =    -0.00002024   -0.00008160    0.00111504
     atom   28 type  3   force =    -0.00023005    0.00013190    0.02978708
     atom   29 type  2   force =     0.00065881   -0.00038913    0.00175253
     atom   30 type  2   force =    -0.00081218   -0.00041728   -0.00058351
     atom   31 type  2   force =     0.00013726    0.00031382    0.00013226
     atom   32 type  2   force =    -0.00010366    0.00008744    0.00037561
     atom   33 type  2   force =    -0.00014277    0.00026828    0.00029225
     atom   34 type  2   force =     0.00011869    0.00005185    0.00019637
     atom   35 type  2   force =     0.00023940   -0.00028426    0.00019335
     atom   36 type  2   force =    -0.00026875    0.00013749    0.00007782
     atom   37 type  2   force =     0.00058488   -0.00036472   -0.00060072
     atom   38 type  2   force =    -0.00008326    0.00118328   -0.00049700
     atom   39 type  2   force =     0.00003083    0.00007043    0.00103700
     atom   40 type  2   force =     0.00079062   -0.00052331   -0.00046561
     atom   41 type  2   force =    -0.00007330    0.00078440   -0.00010538
     atom   42 type  2   force =    -0.00006751   -0.00044460    0.00014637
     atom   43 type  2   force =     0.00013944    0.00036306    0.00028370
     atom   44 type  2   force =    -0.00004174    0.00002400    0.00016276
     atom   45 type  2   force =    -0.00004518    0.00003267    0.00018155
     atom   46 type  2   force =     0.00001688   -0.00013276    0.00019172
     atom   47 type  2   force =     0.00037988   -0.00007082    0.00019631
     atom   48 type  2   force =     0.00014967    0.00016093    0.00034471
     atom   49 type  2   force =     0.00030409   -0.00027104    0.00007425
     atom   50 type  2   force =     0.00035127    0.00024902    0.00031239
     atom   51 type  2   force =    -0.00006979    0.00038975    0.00009896
     atom   52 type  2   force =     0.00017480    0.00005470    0.00031584
     The Hubbard contrib.    to forces
     atom    1 type  1   force =     0.00000000    0.00000000    0.00000000
     atom    2 type  1   force =     0.00000000    0.00000000    0.00000000
     atom    3 type  2   force =     0.00000000    0.00000000    0.00000000
     atom    4 type  2   force =     0.00000000    0.00000000    0.00000000
     atom    5 type  2   force =     0.00000000    0.00000000    0.00000000
     atom    6 type  2   force =     0.00000000    0.00000000    0.00000000
     atom    7 type  2   force =     0.00000000    0.00000000    0.00000000
     atom    8 type  2   force =     0.00000000    0.00000000    0.00000000
     atom    9 type  2   force =     0.00000000    0.00000000    0.00000000
     atom   10 type  2   force =     0.00000000    0.00000000    0.00000000
     atom   11 type  2   force =     0.00000000    0.00000000    0.00000000
     atom   12 type  2   force =     0.00000000    0.00000000    0.00000000
     atom   13 type  2   force =     0.00000000    0.00000000    0.00000000
     atom   14 type  2   force =     0.00000000    0.00000000    0.00000000
     atom   15 type  2   force =     0.00000000    0.00000000    0.00000000
     atom   16 type  2   force =     0.00000000    0.00000000    0.00000000
     atom   17 type  2   force =     0.00000000    0.00000000    0.00000000
     atom   18 type  2   force =     0.00000000    0.00000000    0.00000000
     atom   19 type  2   force =     0.00000000    0.00000000    0.00000000
     atom   20 type  2   force =     0.00000000    0.00000000    0.00000000
     atom   21 type  2   force =     0.00000000    0.00000000    0.00000000
     atom   22 type  2   force =     0.00000000    0.00000000    0.00000000
     atom   23 type  2   force =     0.00000000    0.00000000    0.00000000
     atom   24 type  2   force =     0.00000000    0.00000000    0.00000000
     atom   25 type  2   force =     0.00000000    0.00000000    0.00000000
     atom   26 type  2   force =     0.00000000    0.00000000    0.00000000
     atom   27 type  2   force =     0.00000000    0.00000000    0.00000000
     atom   28 type  3   force =     0.00000000    0.00000000    0.00000000
     atom   29 type  2   force =     0.00000000    0.00000000    0.00000000
     atom   30 type  2   force =     0.00000000    0.00000000    0.00000000
     atom   31 type  2   force =     0.00000000    0.00000000    0.00000000
     atom   32 type  2   force =     0.00000000    0.00000000    0.00000000
     atom   33 type  2   force =     0.00000000    0.00000000    0.00000000
     atom   34 type  2   force =     0.00000000    0.00000000    0.00000000
     atom   35 type  2   force =     0.00000000    0.00000000    0.00000000
     atom   36 type  2   force =     0.00000000    0.00000000    0.00000000
     atom   37 type  2   force =     0.00000000    0.00000000    0.00000000
     atom   38 type  2   force =     0.00000000    0.00000000    0.00000000
     atom   39 type  2   force =     0.00000000    0.00000000    0.00000000
     atom   40 type  2   force =     0.00000000    0.00000000    0.00000000
     atom   41 type  2   force =     0.00000000    0.00000000    0.00000000
     atom   42 type  2   force =     0.00000000    0.00000000    0.00000000
     atom   43 type  2   force =     0.00000000    0.00000000    0.00000000
     atom   44 type  2   force =     0.00000000    0.00000000    0.00000000
     atom   45 type  2   force =     0.00000000    0.00000000    0.00000000
     atom   46 type  2   force =     0.00000000    0.00000000    0.00000000
     atom   47 type  2   force =     0.00000000    0.00000000    0.00000000
     atom   48 type  2   force =     0.00000000    0.00000000    0.00000000
     atom   49 type  2   force =     0.00000000    0.00000000    0.00000000
     atom   50 type  2   force =     0.00000000    0.00000000    0.00000000
     atom   51 type  2   force =     0.00000000    0.00000000    0.00000000
     atom   52 type  2   force =     0.00000000    0.00000000    0.00000000
     The SCF correction term to forces
     atom    1 type  1   force =    -0.00000002    0.00000001    0.00000004
     atom    2 type  1   force =    -0.00000000    0.00000001    0.00000003
     atom    3 type  2   force =     0.00000004   -0.00000014   -0.00000019
     atom    4 type  2   force =    -0.00000044    0.00000049   -0.00000016
     atom    5 type  2   force =    -0.00000117    0.00000071   -0.00000013
     atom    6 type  2   force =    -0.00000032    0.00000033   -0.00000010
     atom    7 type  2   force =    -0.00000015   -0.00000069   -0.00000013
     atom    8 type  2   force =     0.00000014   -0.00000026   -0.00000013
     atom    9 type  2   force =     0.00000018    0.00000010   -0.00000015
     atom   10 type  2   force =     0.00000026    0.00000013   -0.00000014
     atom   11 type  2   force =     0.00000079   -0.00000017   -0.00000014
     atom   12 type  2   force =     0.00000062   -0.00000053   -0.00000015
     atom   13 type  2   force =     0.00000032   -0.00000075   -0.00000016
     atom   14 type  2   force =     0.00000012   -0.00000020   -0.00000016
     atom   15 type  2   force =    -0.00000016    0.00000079   -0.00000011
     atom   16 type  2   force =    -0.00000037    0.00000116   -0.00000009
     atom   17 type  2   force =     0.00000006    0.00000067   -0.00000008
     atom   18 type  2   force =     0.00000069   -0.00000001   -0.00000002
     atom   19 type  2   force =     0.00000058   -0.00000042   -0.00000003
     atom   20 type  2   force =     0.00000003   -0.00000021   -0.00000008
     atom   21 type  2   force =    -0.00000036   -0.00000005   -0.00000014
     atom   22 type  2   force =    -0.00000015   -0.00000056   -0.00000015
     atom   23 type  2   force =     0.00000002   -0.00000030   -0.00000017
     atom   24 type  2   force =     0.00000048   -0.00000009   -0.00000018
     atom   25 type  2   force =     0.00000021    0.00000013   -0.00000015
     atom   26 type  2   force =    -0.00000013    0.00000058   -0.00000014
     atom   27 type  2   force =    -0.00000067    0.00000047   -0.00000034
     atom   28 type  3   force =    -0.00000311    0.00000183   -0.00000174
     atom   29 type  2   force =    -0.00000024    0.00000009   -0.00000034
     atom   30 type  2   force =     0.00000039   -0.00000074   -0.00000001
     atom   31 type  2   force =     0.00000063   -0.00000052   -0.00000003
     atom   32 type  2   force =     0.00000043   -0.00000010   -0.00000013
     atom   33 type  2   force =     0.00000072    0.00000048   -0.00000012
     atom   34 type  2   force =     0.00000126    0.00000055   -0.00000015
     atom   35 type  2   force =     0.00000115    0.00000012   -0.00000016
     atom   36 type  2   force =     0.00000069   -0.00000018   -0.00000016
     atom   37 type  2   force =     0.00000018    0.00000013   -0.00000016
     atom   38 type  2   force =    -0.00000037   -0.00000001   -0.00000015
     atom   39 type  2   force =    -0.00000053    0.00000032   -0.00000036
     atom   40 type  2   force =    -0.00000103   -0.00000033   -0.00000008
     atom   41 type  2   force =    -0.00000043   -0.00000042   -0.00000007
     atom   42 type  2   force =    -0.00000022    0.00000014   -0.00000009
     atom   43 type  2   force =    -0.00000111    0.00000060   -0.00000012
     atom   44 type  2   force =    -0.00000141    0.00000079   -0.00000014
     atom   45 type  2   force =    -0.00000003    0.00000012   -0.00000015
     atom   46 type  2   force =     0.00000016   -0.00000113   -0.00000015
     atom   47 type  2   force =     0.00000057   -0.00000077   -0.00000016
     atom   48 type  2   force =     0.00000038   -0.00000026   -0.00000016
     atom   49 type  2   force =     0.00000010   -0.00000027   -0.00000013
     atom   50 type  2   force =     0.00000033   -0.00000017   -0.00000013
     atom   51 type  2   force =    -0.00000061   -0.00000030   -0.00000010
     atom   52 type  2   force =    -0.00000067    0.00000006   -0.00000015

     Total force =     0.020670     Total SCF correction =     0.000007

     number of scf cycles    =  50
     number of bfgs steps    =  47

     energy   old            =    -824.7577397291 Ry
     energy   new            =    -824.7584701493 Ry

     CASE: energy  _new < energy  _old

     new trust radius        =       0.0185885011 bohr
     new conv_thr            =            5.0E-12 Ry

ATOMIC_POSITIONS (angstrom)
H        3.356657052   5.011697910   3.178951034
H        4.023684782   4.959950536   2.800856671
C        0.001403126  -0.000735048  -0.142924707
C       -0.005092571   1.417832396  -0.111207845
C       -1.234953257   2.131619897  -0.099559025
C       -1.234857471   3.558435629  -0.049470487
C       -2.469926507   4.270981390  -0.091902784
C       -2.472112643   5.691923567  -0.100450464
C       -3.697077648   6.407407959  -0.135312033
C       -3.697579741   7.828417306  -0.141782188
C       -4.927266016   8.542382565  -0.137656195
C       -4.930194562   9.963381810  -0.146184877
C        2.464947913  -0.003854956  -0.134808098
C        2.465051329   1.415230387  -0.074988104
C        1.226753439   2.119188235  -0.046538361
C        1.220316360   3.534652009   0.109275193
C       -0.013291988   4.265282425   0.082050918
C       -0.028243998   5.696746018   0.143926127
C       -1.248645023   6.408440320  -0.023108208
C       -1.239723899   7.832606117  -0.056760979
C       -2.467960710   8.541653402  -0.128176269
C       -2.465136105   9.963282387  -0.139154275
C        4.929041910  -0.001689398  -0.131927268
C        4.935665063   1.416291683  -0.095062954
C        3.703525869   2.116848757  -0.032621715
C        3.708726872   3.530590198   0.126185187
C        2.463215423   4.163860727   0.313287391
Mn       2.487940712   5.678603117   1.360994306
C        1.140579181   6.457657331   0.380080813
C        1.215389640   7.851257156   0.147696163
C       -0.010984789   8.552434334  -0.020248327
C       -0.002290728   9.970177335  -0.097219755
C        7.392847104   0.003669705  -0.089427796
C        7.396360784   1.423832461  -0.106403152
C        6.165320451   2.131095349  -0.079804274
C        6.166330979   3.556586131  -0.027364461
C        4.942160858   4.263210975   0.100677040
C        4.960159704   5.698244254   0.124298159
C        3.788776212   6.459667847   0.312660960
C        3.712700773   7.850692917   0.109980123
C        2.462816663   8.553950426   0.085385454
C        2.464195454   9.965158991  -0.047360299
C        9.862959513   0.003710037  -0.099184263
C        9.861103299   1.423411237  -0.117045782
C        8.627569666   2.135487176  -0.109926465
C        8.628393021   3.557853459  -0.107700644
C        7.400276098   4.270205752  -0.081407595
C        7.404666892   5.692532973  -0.098210911
C        6.181929018   6.409528484  -0.036080450
C        6.170199099   7.832818528  -0.078751362
C        4.941477442   8.553093972  -0.048532446
C        4.932955505   9.970591974  -0.112040720

     Writing output data file manganeso-sixhollow-3.0.save/
     NEW-OLD atomic charge density approx. for the potential

     Check: negative core charge=   -0.000002

     negative rho (up, down):  6.289E-04 6.447E-03

     Writing output data file manganeso-sixhollow-3.0.save/

     General routines

     Parallel routines

   This run was terminated on:   2:15:11   1Mar2023

   JOB DONE.