     Program PWSCF v.6.4.1 starts on  4Sep2023 at  1: 4:24

     R & G space division:  proc/nbgrp/npool/nimage =       6
     Reading input from mn-relax-2.in

     Current dimensions of program PWSCF are:
     Max number of different atomic species (ntypx) = 10
     Max number of k-points (npk) =  40000
     Max angular momentum in pseudopotentials (lmaxx) =  3
               file H.pbe-rrkjus.UPF: wavefunction(s)  1S renormalized
               file Mn.pbe-spn-rrkjus_psl.0.3.1.UPF: wavefunction(s)  3D renormalized

     Subspace diagonalization in iterative solution of the eigenvalue problem:
     a serial algorithm will be used

     bravais-lattice index     =            4
     lattice parameter (alat)  =      23.2937  a.u.
     unit-cell volume          =    8879.8548 (a.u.)^3
     number of atoms/cell      =           52
     number of atomic types    =            3
     number of electrons       =       213.00
     number of Kohn-Sham states=          128
     kinetic-energy cutoff     =      70.0000  Ry
     charge density cutoff     =     490.0000  Ry
     convergence threshold     =      1.0E-10
     mixing beta               =       0.7000
     number of iterations used =            8  plain     mixing
     Exchange-correlation      = PBE ( 1  4  3  4 0 0)
     nstep                     =           50

     celldm(1)=  23.293684  celldm(2)=   0.000000  celldm(3)=   0.811261
     celldm(4)=   0.000000  celldm(5)=   0.000000  celldm(6)=   0.000000

     crystal axes: (cart. coord. in units of alat)
               a(1) = (   1.000000   0.000000   0.000000 )
               a(2) = (  -0.500000   0.866025   0.000000 )
               a(3) = (   0.000000   0.000000   0.811261 )

     reciprocal axes: (cart. coord. in units 2 pi/alat)
               b(1) = (  1.000000  0.577350 -0.000000 )
               b(2) = (  0.000000  1.154701  0.000000 )
               b(3) = (  0.000000 -0.000000  1.232649 )

     PseudoPot. # 1 for H  read from file:
     /home/cristian/Escritorio/Proyecto_Grafeno/pseudopotenciales/H.pbe-rrkjus.UPF
     MD5 check sum: 7cc9d459525c9a0585f487a71c3c9563
     Pseudo is Ultrasoft, Zval =  1.0
     Generated by new atomic code, or converted to UPF format
     Using radial grid of 1061 points,  2 beta functions with:
                l(1) =   0
                l(2) =   0
     Q(r) pseudized with 0 coefficients

     PseudoPot. # 2 for C  read from file:
     /home/cristian/Escritorio/Proyecto_Grafeno/pseudopotenciales/C.pbe-n-rrkjus_psl.1.0.0.UPF
     MD5 check sum: 1fdd950c42eb37d8afe3dd2f8d12311e
     Pseudo is Ultrasoft + core correction, Zval =  4.0
     Generated using "atomic" code by A. Dal Corso v.6.3MaX
     Using radial grid of 1073 points,  4 beta functions with:
                l(1) =   0
                l(2) =   0
                l(3) =   1
                l(4) =   1
     Q(r) pseudized with 0 coefficients

     PseudoPot. # 3 for Mn read from file:
     /home/cristian/Escritorio/Proyecto_Grafeno/pseudopotenciales/Mn.pbe-spn-rrkjus_psl.0.3.1.UPF
     MD5 check sum: e1cac159bdd2ba70c18e85765a5d4279
     Pseudo is Ultrasoft + core correction, Zval = 15.0
     Generated using "atomic" code by A. Dal Corso v.6.2.2
     Using radial grid of 1187 points,  6 beta functions with:
                l(1) =   0
                l(2) =   0
                l(3) =   1
                l(4) =   1
                l(5) =   2
                l(6) =   2
     Q(r) pseudized with 0 coefficients

     atomic species   valence    mass     pseudopotential
        H              1.00     1.00794     H ( 1.00)
        C              4.00    12.01070     C ( 1.00)
        Mn            15.00    54.93804     Mn( 1.00)

     Starting magnetic structure
     atomic species   magnetization
        H            0.500
        C            0.300
        Mn           0.800

     No symmetry found

                                    s                        frac. trans.

      isym =  1     identity

 cryst.   s( 1) = (     1          0          0      )
                  (     0          1          0      )
                  (     0          0          1      )

 cart.    s( 1) = (  1.0000000  0.0000000  0.0000000 )
                  (  0.0000000  1.0000000  0.0000000 )
                  (  0.0000000  0.0000000  1.0000000 )

     point group C_1 (1)
     there are  1 classes
     the character table:

       E
A      1.00

     the symmetry operations in each class and the name of the first element:

     E        1
          identity

   Cartesian axes

     site n.     atom                  positions (alat units)
         1           H   tau(   1) = (   0.2723126   0.4065796   0.2578960  )
         2           H   tau(   2) = (   0.3264259   0.4023815   0.2272226  )
         3           C   tau(   3) = (   0.0001138  -0.0000596  -0.0115949  )
         4           C   tau(   4) = (  -0.0004131   0.1150232  -0.0090219  )
         5           C   tau(   5) = (  -0.1001870   0.1729300  -0.0080768  )
         6           C   tau(   6) = (  -0.1001792   0.2886821  -0.0040133  )
         7           C   tau(   7) = (  -0.2003755   0.3464881  -0.0074557  )
         8           C   tau(   8) = (  -0.2005529   0.4617637  -0.0081492  )
         9           C   tau(   9) = (  -0.2999296   0.5198081  -0.0109773  )
        10           C   tau(  10) = (  -0.2999703   0.6350891  -0.0115022  )
        11           C   tau(  11) = (  -0.3997300   0.6930103  -0.0111675  )
        12           C   tau(  12) = (  -0.3999675   0.8082905  -0.0118594  )
        13           C   tau(  13) = (   0.1999717  -0.0003127  -0.0109365  )
        14           C   tau(  14) = (   0.1999800   0.1148121  -0.0060835  )
        15           C   tau(  15) = (   0.0995217   0.1719215  -0.0037755  )
        16           C   tau(  16) = (   0.0989995   0.2867526   0.0088651  )
        17           C   tau(  17) = (  -0.0010783   0.3460258   0.0066565  )
        18           C   tau(  18) = (  -0.0022913   0.4621549   0.0116762  )
        19           C   tau(  19) = (  -0.1012977   0.5198919  -0.0018747  )
        20           C   tau(  20) = (  -0.1005740   0.6354289  -0.0046048  )
        21           C   tau(  21) = (  -0.2002161   0.6929512  -0.0103984  )
        22           C   tau(  22) = (  -0.1999869   0.8082824  -0.0112890  )
        23           C   tau(  23) = (   0.3998740  -0.0001371  -0.0107027  )
        24           C   tau(  24) = (   0.4004113   0.1148982  -0.0077121  )
        25           C   tau(  25) = (   0.3004527   0.1717317  -0.0026465  )
        26           C   tau(  26) = (   0.3008746   0.2864231   0.0102369  )
        27           C   tau(  27) = (   0.1998311   0.3377979   0.0254158  )
        28           Mn  tau(  28) = (   0.2018370   0.4606830   0.1104122  )
        29           C   tau(  29) = (   0.0925308   0.5238847   0.0308345  )
        30           C   tau(  30) = (   0.0985998   0.6369420   0.0119820  )
        31           C   tau(  31) = (  -0.0008912   0.6938258  -0.0016427  )
        32           C   tau(  32) = (  -0.0001858   0.8088418  -0.0078871  )
        33           C   tau(  33) = (   0.5997530   0.0002977  -0.0072549  )
        34           C   tau(  34) = (   0.6000380   0.1155100  -0.0086321  )
        35           C   tau(  35) = (   0.5001685   0.1728875  -0.0064742  )
        36           C   tau(  36) = (   0.5002505   0.2885320  -0.0022200  )
        37           C   tau(  37) = (   0.4009383   0.3458578   0.0081675  )
        38           C   tau(  38) = (   0.4023985   0.4622764   0.0100838  )
        39           C   tau(  39) = (   0.3073687   0.5240478   0.0253650  )
        40           C   tau(  40) = (   0.3011970   0.6368962   0.0089223  )
        41           C   tau(  41) = (   0.1997988   0.6939488   0.0069270  )
        42           C   tau(  42) = (   0.1999106   0.8084346  -0.0038422  )
        43           C   tau(  43) = (   0.8001436   0.0003010  -0.0080464  )
        44           C   tau(  44) = (   0.7999930   0.1154758  -0.0094955  )
        45           C   tau(  45) = (   0.6999212   0.1732438  -0.0089179  )
        46           C   tau(  46) = (   0.6999880   0.2886348  -0.0087373  )
        47           C   tau(  47) = (   0.6003557   0.3464252  -0.0066043  )
        48           C   tau(  48) = (   0.6007119   0.4618131  -0.0079675  )
        49           C   tau(  49) = (   0.5015159   0.5199802  -0.0029271  )
        50           C   tau(  50) = (   0.5005643   0.6354461  -0.0063888  )
        51           C   tau(  51) = (   0.4008829   0.6938793  -0.0039372  )
        52           C   tau(  52) = (   0.4001915   0.8088754  -0.0090894  )

   Crystallographic axes

     site n.     atom                  positions (cryst. coord.)
         1           H   tau(   1) = (  0.5070514  0.4694777  0.3178951  )
         2           H   tau(   2) = (  0.5587410  0.4646302  0.2800857  )
         3           C   tau(   3) = (  0.0000794 -0.0000689 -0.0142925  )
         4           C   tau(   4) = (  0.0659956  0.1328174 -0.0111208  )
         5           C   tau(   5) = ( -0.0003458  0.1996824 -0.0099559  )
         6           C   tau(   6) = (  0.0664915  0.3333413 -0.0049470  )
         7           C   tau(   7) = ( -0.0003305  0.4000900 -0.0091903  )
         8           C   tau(   8) = (  0.0660465  0.5331987 -0.0100450  )
         9           C   tau(   9) = (  0.0001818  0.6002227 -0.0135312  )
        10           C   tau(  10) = (  0.0666986  0.7333377 -0.0141782  )
        11           C   tau(  11) = (  0.0003797  0.8002194 -0.0137656  )
        12           C   tau(  12) = (  0.0666992  0.9333334 -0.0146185  )
        13           C   tau(  13) = (  0.1997911 -0.0003611 -0.0134808  )
        14           C   tau(  14) = (  0.2662669  0.1325736 -0.0074988  )
        15           C   tau(  15) = (  0.1987807  0.1985179 -0.0046538  )
        16           C   tau(  16) = (  0.2645562  0.3311134  0.0109275  )
        17           C   tau(  17) = (  0.1986998  0.3995562  0.0082051  )
        18           C   tau(  18) = (  0.2645339  0.5336505  0.0143926  )
        19           C   tau(  19) = (  0.1988620  0.6003194 -0.0023108  )
        20           C   tau(  20) = (  0.2662911  0.7337301 -0.0056761  )
        21           C   tau(  21) = (  0.1998595  0.8001511 -0.0128176  )
        22           C   tau(  22) = (  0.2666751  0.9333241 -0.0139154  )
        23           C   tau(  23) = (  0.3997949 -0.0001583 -0.0131927  )
        24           C   tau(  24) = (  0.4667479  0.1326731 -0.0095063  )
        25           C   tau(  25) = (  0.3996020  0.1982987 -0.0032622  )
        26           C   tau(  26) = (  0.4662410  0.3307329  0.0126185  )
        27           C   tau(  27) = (  0.3948588  0.3900554  0.0313287  )
        28           Mn  tau(  28) = (  0.4678124  0.5319509  0.1360994  )
        29           C   tau(  29) = (  0.3949957  0.6049299  0.0380081  )
        30           C   tau(  30) = (  0.4663385  0.7354773  0.0147696  )
        31           C   tau(  31) = (  0.3996893  0.8011610 -0.0020248  )
        32           C   tau(  32) = (  0.4667992  0.9339700 -0.0097220  )
[...]
     atom   31 type  2   force =     0.67795574   -0.71770295    0.84419313
     atom   32 type  2   force =     0.16976642   -0.33824490    0.86543473
     atom   33 type  2   force =     0.01540558   -0.33572391    0.65773519
     atom   34 type  2   force =    -0.12504397   -0.00330730    0.63905090
     atom   35 type  2   force =    -0.35231751    0.28869915    0.62859522
     atom   36 type  2   force =    -0.80343788    0.46384024    0.61696714
     atom   37 type  2   force =    -1.50526552    0.86877424    0.70565854
     atom   38 type  2   force =    -2.24359638    0.17962163    1.31148967
     atom   39 type  2   force =    -3.01095898   -2.08583393    2.79147177
     atom   40 type  2   force =    -0.73115488   -2.07222872    1.24091471
     atom   41 type  2   force =     0.04883811   -1.57341252    0.63760168
     atom   42 type  2   force =    -0.00141806   -0.80836216    0.68811945
     atom   43 type  2   force =    -0.01964677   -0.35885906    0.70734536
     atom   44 type  2   force =     0.08929035   -0.04984603    0.68339860
     atom   45 type  2   force =    -0.05023749    0.02915404    0.50969527
     atom   46 type  2   force =    -0.05842644    0.11217622    0.64516179
     atom   47 type  2   force =    -0.42399106    0.16124252    0.63744553
     atom   48 type  2   force =    -0.51846775    0.02862888    0.88781548
     atom   49 type  2   force =    -1.07146635   -0.29131378    1.03526194
     atom   50 type  2   force =    -0.65477629   -0.43137963    0.87023259
     atom   51 type  2   force =    -0.65426965   -0.80384750    1.06877854
     atom   52 type  2   force =    -0.15904089   -0.41776329    0.92102767
     The core correction contribution to forces
     atom    1 type  1   force =     0.00000000    0.00000000    0.00000000
     atom    2 type  1   force =     0.00000000    0.00000000    0.00000000
     atom    3 type  2   force =    -0.00019493    0.00011303    0.00026808
     atom    4 type  2   force =     0.00003753   -0.00010808    0.00030239
     atom    5 type  2   force =    -0.00023018   -0.00022378    0.00029111
     atom    6 type  2   force =     0.00033463    0.00025838    0.00015866
     atom    7 type  2   force =    -0.00024050   -0.00003877    0.00030891
     atom    8 type  2   force =    -0.00007869    0.00001457    0.00034796
     atom    9 type  2   force =     0.00000844   -0.00019624    0.00022418
     atom   10 type  2   force =     0.00001130   -0.00000618    0.00027727
     atom   11 type  2   force =    -0.00005228    0.00000034    0.00021499
     atom   12 type  2   force =     0.00003916   -0.00002191    0.00030510
     atom   13 type  2   force =    -0.00002588    0.00004933    0.00019721
     atom   14 type  2   force =    -0.00001335   -0.00024599    0.00034378
     atom   15 type  2   force =    -0.00036910   -0.00004646    0.00009658
     atom   16 type  2   force =     0.00072196   -0.00040811   -0.00045915
     atom   17 type  2   force =    -0.00069242   -0.00030666   -0.00008950
     atom   18 type  2   force =    -0.00010054    0.00078681   -0.00056516
     atom   19 type  2   force =    -0.00010792   -0.00032053    0.00013689
     atom   20 type  2   force =    -0.00019779    0.00011372    0.00024587
     atom   21 type  2   force =     0.00006680   -0.00003550    0.00017786
     atom   22 type  2   force =     0.00001425   -0.00000702    0.00026015
     atom   23 type  2   force =     0.00017238    0.00009688    0.00021530
     atom   24 type  2   force =    -0.00005779   -0.00014768    0.00032182
     atom   25 type  2   force =     0.00035776   -0.00002748    0.00009208
     atom   26 type  2   force =    -0.00090289   -0.00050705   -0.00046644
     atom   27 type  2   force =    -0.00004314   -0.00000367    0.00111971
     atom   28 type  3   force =    -0.00028871    0.00014541    0.02983715
     atom   29 type  2   force =     0.00071000   -0.00042380    0.00177342
     atom   30 type  2   force =    -0.00074185   -0.00030943   -0.00060572
     atom   31 type  2   force =     0.00022354    0.00025359    0.00013052
     atom   32 type  2   force =    -0.00005567    0.00006034    0.00034680
     atom   33 type  2   force =    -0.00008356    0.00022816    0.00030254
     atom   34 type  2   force =     0.00020061    0.00009494    0.00019469
     atom   35 type  2   force =     0.00023266   -0.00019968    0.00023264
     atom   36 type  2   force =    -0.00022408    0.00011959    0.00009355
     atom   37 type  2   force =     0.00054054   -0.00034015   -0.00060259
     atom   38 type  2   force =    -0.00003360    0.00105533   -0.00048939
     atom   39 type  2   force =    -0.00004118    0.00004945    0.00104268
     atom   40 type  2   force =     0.00072211   -0.00045120   -0.00044638
     atom   41 type  2   force =    -0.00007541    0.00074171   -0.00014191
     atom   42 type  2   force =    -0.00005820   -0.00040520    0.00015712
     atom   43 type  2   force =     0.00007777    0.00031434    0.00029386
     atom   44 type  2   force =    -0.00010140    0.00005987    0.00016241
     atom   45 type  2   force =    -0.00006667    0.00003315    0.00020307
     atom   46 type  2   force =     0.00002150   -0.00021489    0.00018987
     atom   47 type  2   force =     0.00029579   -0.00010911    0.00023693
     atom   48 type  2   force =     0.00009853    0.00012826    0.00032455
     atom   49 type  2   force =     0.00021093   -0.00028802    0.00007464
     atom   50 type  2   force =     0.00020509    0.00013689    0.00037003
     atom   51 type  2   force =    -0.00014528    0.00034655    0.00009556
     atom   52 type  2   force =     0.00011554    0.00001762    0.00030224
     The Hubbard contrib.    to forces
     atom    1 type  1   force =     0.00000000    0.00000000    0.00000000
     atom    2 type  1   force =     0.00000000    0.00000000    0.00000000
     atom    3 type  2   force =     0.00000000    0.00000000    0.00000000
     atom    4 type  2   force =     0.00000000    0.00000000    0.00000000
     atom    5 type  2   force =     0.00000000    0.00000000    0.00000000
     atom    6 type  2   force =     0.00000000    0.00000000    0.00000000
     atom    7 type  2   force =     0.00000000    0.00000000    0.00000000
     atom    8 type  2   force =     0.00000000    0.00000000    0.00000000
     atom    9 type  2   force =     0.00000000    0.00000000    0.00000000
     atom   10 type  2   force =     0.00000000    0.00000000    0.00000000
     atom   11 type  2   force =     0.00000000    0.00000000    0.00000000
     atom   12 type  2   force =     0.00000000    0.00000000    0.00000000
     atom   13 type  2   force =     0.00000000    0.00000000    0.00000000
     atom   14 type  2   force =     0.00000000    0.00000000    0.00000000
     atom   15 type  2   force =     0.00000000    0.00000000    0.00000000
     atom   16 type  2   force =     0.00000000    0.00000000    0.00000000
     atom   17 type  2   force =     0.00000000    0.00000000    0.00000000
     atom   18 type  2   force =     0.00000000    0.00000000    0.00000000
     atom   19 type  2   force =     0.00000000    0.00000000    0.00000000
     atom   20 type  2   force =     0.00000000    0.00000000    0.00000000
     atom   21 type  2   force =     0.00000000    0.00000000    0.00000000
     atom   22 type  2   force =     0.00000000    0.00000000    0.00000000
     atom   23 type  2   force =     0.00000000    0.00000000    0.00000000
     atom   24 type  2   force =     0.00000000    0.00000000    0.00000000
     atom   25 type  2   force =     0.00000000    0.00000000    0.00000000
     atom   26 type  2   force =     0.00000000    0.00000000    0.00000000
     atom   27 type  2   force =     0.00000000    0.00000000    0.00000000
     atom   28 type  3   force =     0.00000000    0.00000000    0.00000000
     atom   29 type  2   force =     0.00000000    0.00000000    0.00000000
     atom   30 type  2   force =     0.00000000    0.00000000    0.00000000
     atom   31 type  2   force =     0.00000000    0.00000000    0.00000000
     atom   32 type  2   force =     0.00000000    0.00000000    0.00000000
     atom   33 type  2   force =     0.00000000    0.00000000    0.00000000
     atom   34 type  2   force =     0.00000000    0.00000000    0.00000000
     atom   35 type  2   force =     0.00000000    0.00000000    0.00000000
     atom   36 type  2   force =     0.00000000    0.00000000    0.00000000
     atom   37 type  2   force =     0.00000000    0.00000000    0.00000000
     atom   38 type  2   force =     0.00000000    0.00000000    0.00000000
     atom   39 type  2   force =     0.00000000    0.00000000    0.00000000
     atom   40 type  2   force =     0.00000000    0.00000000    0.00000000
     atom   41 type  2   force =     0.00000000    0.00000000    0.00000000
     atom   42 type  2   force =     0.00000000    0.00000000    0.00000000
     atom   43 type  2   force =     0.00000000    0.00000000    0.00000000
     atom   44 type  2   force =     0.00000000    0.00000000    0.00000000
     atom   45 type  2   force =     0.00000000    0.00000000    0.00000000
     atom   46 type  2   force =     0.00000000    0.00000000    0.00000000
     atom   47 type  2   force =     0.00000000    0.00000000    0.00000000
     atom   48 type  2   force =     0.00000000    0.00000000    0.00000000
     atom   49 type  2   force =     0.00000000    0.00000000    0.00000000
     atom   50 type  2   force =     0.00000000    0.00000000    0.00000000
     atom   51 type  2   force =     0.00000000    0.00000000    0.00000000
     atom   52 type  2   force =     0.00000000    0.00000000    0.00000000
     The SCF correction term to forces
     atom    1 type  1   force =    -0.00000000    0.00000001    0.00000002
     atom    2 type  1   force =     0.00000001    0.00000001    0.00000002
     atom    3 type  2   force =    -0.00000007   -0.00000011    0.00000002
     atom    4 type  2   force =    -0.00000012   -0.00000016    0.00000002
     atom    5 type  2   force =    -0.00000005   -0.00000012    0.00000001
     atom    6 type  2   force =    -0.00000006    0.00000000    0.00000001
     atom    7 type  2   force =     0.00000004    0.00000006   -0.00000000
     atom    8 type  2   force =     0.00000004    0.00000011    0.00000000
     atom    9 type  2   force =     0.00000010    0.00000012   -0.00000000
     atom   10 type  2   force =     0.00000004    0.00000004    0.00000001
     atom   11 type  2   force =    -0.00000000    0.00000006    0.00000001
     atom   12 type  2   force =    -0.00000008   -0.00000009    0.00000002
     atom   13 type  2   force =    -0.00000007   -0.00000020    0.00000002
     atom   14 type  2   force =    -0.00000010   -0.00000021    0.00000000
     atom   15 type  2   force =    -0.00000015   -0.00000016    0.00000000
     atom   16 type  2   force =    -0.00000018    0.00000001   -0.00000001
     atom   17 type  2   force =    -0.00000012    0.00000012    0.00000000
     atom   18 type  2   force =    -0.00000002    0.00000021    0.00000001
     atom   19 type  2   force =     0.00000002    0.00000012    0.00000001
     atom   20 type  2   force =     0.00000004    0.00000001    0.00000001
     atom   21 type  2   force =     0.00000004   -0.00000004    0.00000002
     atom   22 type  2   force =     0.00000003   -0.00000016    0.00000001
     atom   23 type  2   force =     0.00000004   -0.00000024    0.00000000
     atom   24 type  2   force =     0.00000008   -0.00000024   -0.00000001
     atom   25 type  2   force =    -0.00000003   -0.00000019   -0.00000002
     atom   26 type  2   force =    -0.00000002   -0.00000001   -0.00000003
     atom   27 type  2   force =    -0.00000015    0.00000010   -0.00000003
     atom   28 type  3   force =    -0.00000065    0.00000113    0.00000000
     atom   29 type  2   force =    -0.00000008    0.00000023   -0.00000005
     atom   30 type  2   force =    -0.00000002    0.00000002   -0.00000001
     atom   31 type  2   force =     0.00000004   -0.00000007    0.00000001
     atom   32 type  2   force =     0.00000005   -0.00000015    0.00000001
     atom   33 type  2   force =     0.00000007   -0.00000017   -0.00000000
     atom   34 type  2   force =     0.00000012   -0.00000016   -0.00000001
     atom   35 type  2   force =     0.00000013   -0.00000017   -0.00000002
     atom   36 type  2   force =     0.00000016   -0.00000004   -0.00000004
     atom   37 type  2   force =     0.00000005    0.00000011   -0.00000004
     atom   38 type  2   force =    -0.00000002    0.00000028   -0.00000005
     atom   39 type  2   force =    -0.00000007    0.00000031   -0.00000008
     atom   40 type  2   force =    -0.00000005    0.00000012   -0.00000003
     atom   41 type  2   force =    -0.00000004    0.00000000   -0.00000002
     atom   42 type  2   force =     0.00000003   -0.00000008   -0.00000000
     atom   43 type  2   force =     0.00000003   -0.00000009    0.00000000
     atom   44 type  2   force =     0.00000002   -0.00000013    0.00000001
     atom   45 type  2   force =     0.00000010   -0.00000012   -0.00000001
     atom   46 type  2   force =     0.00000011   -0.00000002   -0.00000001
     atom   47 type  2   force =     0.00000016    0.00000006   -0.00000003
     atom   48 type  2   force =     0.00000013    0.00000014   -0.00000002
     atom   49 type  2   force =     0.00000005    0.00000023   -0.00000003
     atom   50 type  2   force =    -0.00000002    0.00000016   -0.00000001
     atom   51 type  2   force =    -0.00000004    0.00000009   -0.00000001
     atom   52 type  2   force =    -0.00000003   -0.00000003    0.00000001

     Total force =     0.002815     Total SCF correction =     0.000002

     bfgs converged in   6 scf cycles and   5 bfgs steps
     (criteria: energy <  1.0E-04 Ry, force <  1.0E-03 Ry/Bohr)

     End of BFGS Geometry Optimization

     Final energy   =    -824.7591035074 Ry
Begin final coordinates

ATOMIC_POSITIONS (angstrom)
H        3.360173980   5.015540313   3.181403500
H        4.025806455   4.956381744   2.797788738
C        0.000493672  -0.000315299  -0.141776640
C       -0.005089370   1.419334601  -0.111794241
C       -1.235986076   2.132784476  -0.100263806
C       -1.234657122   3.558343143  -0.049903748
C       -2.469517635   4.269338621  -0.091545004
C       -2.470892464   5.690977387  -0.099161268
C       -3.697394859   6.406128007  -0.132025771
C       -3.697731353   7.828506822  -0.142143380
C       -4.928755102   8.541315532  -0.139621455
C       -4.930240825   9.963261997  -0.148081849
C        2.465164878  -0.002092224  -0.137310734
C        2.464824943   1.417363460  -0.075985163
C        1.226644197   2.122448284  -0.047186179
C        1.220402157   3.537632075   0.109693057
C       -0.014153182   4.264575187   0.082408458
C       -0.025366102   5.695201725   0.143257339
C       -1.246169237   6.406571866  -0.023273976
C       -1.237881862   7.831448488  -0.057305413
C       -2.466600114   8.540904938  -0.129740962
C       -2.465225218   9.963269284  -0.139805734
C        4.929957461  -0.000874636  -0.128703383
C        4.935720472   1.418299424  -0.094739564
C        3.703657983   2.120466381  -0.033206744
C        3.707896643   3.534151813   0.126390484
C        2.463037714   4.168206775   0.314941220
Mn       2.486466444   5.679226245   1.363863894
C        1.144621168   6.455217336   0.377757508
C        1.218106452   7.849251390   0.147035372
C       -0.008116784   8.551059146  -0.020360811
C       -0.000740058   9.969509593  -0.095781447
C        7.394483440   0.003962708  -0.088838882
C        7.397959488   1.424804030  -0.106298376
C        6.166171143   2.132546435  -0.080572818
C        6.165817183   3.556785967  -0.029111429
C        4.942429139   4.263005320   0.100794007
C        4.956750749   5.697016221   0.125098487
C        3.785056185   6.457593212   0.315191481
C        3.710141178   7.849012349   0.111139188
C        2.462951503   8.554726309   0.086029041
C        2.464282822   9.964956515  -0.047579143
C        9.861358038   0.003849410  -0.099659738
C        9.859472765   1.424232039  -0.117351835
C        8.627745441   2.135430919  -0.110023904
C        8.628248467   3.555886425  -0.107762883
C        7.399422828   4.268693195  -0.082203744
C        7.402907982   5.691503857  -0.097765398
C        6.178858497   6.407486531  -0.036156300
C        6.168229771   7.831839803  -0.079021717
C        4.938490460   8.551444716  -0.048449920
C        4.931525217   9.969686295  -0.112278414
End final coordinates

     Writing output data file manganeso-sixhollow-3.0.save/

     General routines

     Parallel routines

   This run was terminated on:   3:44:33   4Sep2023

   JOB DONE.