     Program PWSCF v.6.4.1 starts on 17Mar2022 at  9:23:11

     R & G space division:  proc/nbgrp/npool/nimage =       6
     Reading input from v-3.01564.in

     Current dimensions of program PWSCF are:
     Max number of different atomic species (ntypx) = 10
     Max number of k-points (npk) =  40000
     Max angular momentum in pseudopotentials (lmaxx) =  3
               file V.pbe-spnl-rrkjus_psl.1.0.0.UPF: wavefunction(s)  3P 3D renormalized
               file V.pbe-spnl-rrkjus_psl.1.0.0.UPF: wavefunction(s)  3P 3D renormalized

     Subspace diagonalization in iterative solution of the eigenvalue problem:
     a serial algorithm will be used

     Message from routine setup:
     DEPRECATED: symmetry with ibrav=0, use correct ibrav instead

     bravais-lattice index     =            0
     lattice parameter (alat)  =       5.6987  a.u.
     unit-cell volume          =     185.0696 (a.u.)^3
     number of atoms/cell      =            2
     number of atomic types    =            2
     number of electrons       =        26.00
     number of Kohn-Sham states=           17
     kinetic-energy cutoff     =      70.0000  Ry
     charge density cutoff     =     420.0000  Ry
     convergence threshold     =      1.0E-06
     mixing beta               =       0.7000
     number of iterations used =            8  plain     mixing
     Exchange-correlation      = PBE ( 1  4  3  4 0 0)
     nstep                     =           50

     celldm(1)=   5.698734  celldm(2)=   0.000000  celldm(3)=   0.000000
     celldm(4)=   0.000000  celldm(5)=   0.000000  celldm(6)=   0.000000

     crystal axes: (cart. coord. in units of alat)
               a(1) = (   1.000000   0.000000   0.000000 )
               a(2) = (   0.000000   1.000000   0.000000 )
               a(3) = (   0.000000   0.000000   1.000000 )

     reciprocal axes: (cart. coord. in units 2 pi/alat)
               b(1) = (  1.000000  0.000000  0.000000 )
               b(2) = (  0.000000  1.000000  0.000000 )
               b(3) = (  0.000000  0.000000  1.000000 )

     PseudoPot. # 1 for V  read from file:
     /home/cristian/Escritorio/Proyecto_Grafeno/pseudopotenciales/V.pbe-spnl-rrkjus_psl.1.0.0.UPF
     MD5 check sum: 79b3eb63147daf0b665d9f1bcc691206
     Pseudo is Ultrasoft + core correction, Zval = 13.0
     Generated using "atomic" code by A. Dal Corso v.6.2.2
     Using radial grid of 1181 points,  6 beta functions with:
                l(1) =   0
                l(2) =   0
                l(3) =   1
                l(4) =   1
                l(5) =   2
                l(6) =   2
     Q(r) pseudized with 0 coefficients

[...]

     atomic species   valence    mass     pseudopotential
        V1            13.00    50.94150     V ( 1.00)
        V2            13.00    50.94150     V ( 1.00)

     Starting magnetic structure
     atomic species   magnetization
        V1           0.100
        V2          -0.100

     48 Sym. Ops., with inversion, found

   Cartesian axes

     site n.     atom                  positions (alat units)
         1           V1  tau(   1) = (   0.0000000   0.0000000   0.0000000  )
         2           V2  tau(   2) = (   0.5000000   0.5000000   0.5000000  )

     number of k points=    20  Methfessel-Paxton smearing, width (Ry)=  0.0300
                       cart. coord. in units 2pi/alat
        k(    1) = (   0.0625000   0.0625000   0.0625000), wk =   0.0156250
        k(    2) = (   0.0625000   0.0625000   0.1875000), wk =   0.0468750
        k(    3) = (   0.0625000   0.0625000   0.3125000), wk =   0.0468750
        k(    4) = (   0.0625000   0.0625000   0.4375000), wk =   0.0468750
        k(    5) = (   0.0625000   0.1875000   0.1875000), wk =   0.0468750
        k(    6) = (   0.0625000   0.1875000   0.3125000), wk =   0.0937500
        k(    7) = (   0.0625000   0.1875000   0.4375000), wk =   0.0937500
        k(    8) = (   0.0625000   0.3125000   0.3125000), wk =   0.0468750
        k(    9) = (   0.0625000   0.3125000   0.4375000), wk =   0.0937500
        k(   10) = (   0.0625000   0.4375000   0.4375000), wk =   0.0468750
        k(   11) = (   0.1875000   0.1875000   0.1875000), wk =   0.0156250
        k(   12) = (   0.1875000   0.1875000   0.3125000), wk =   0.0468750
        k(   13) = (   0.1875000   0.1875000   0.4375000), wk =   0.0468750
        k(   14) = (   0.1875000   0.3125000   0.3125000), wk =   0.0468750
        k(   15) = (   0.1875000   0.3125000   0.4375000), wk =   0.0937500
        k(   16) = (   0.1875000   0.4375000   0.4375000), wk =   0.0468750
        k(   17) = (   0.3125000   0.3125000   0.3125000), wk =   0.0156250
        k(   18) = (   0.3125000   0.3125000   0.4375000), wk =   0.0468750
        k(   19) = (   0.3125000   0.4375000   0.4375000), wk =   0.0468750
        k(   20) = (   0.4375000   0.4375000   0.4375000), wk =   0.0156250

     Check: negative core charge=   -0.000012

     Initial potential from superposition of free atoms

     starting charge   25.99818, renormalised to   26.00000
     Starting wfcs are   20 randomized atomic wfcs

     Self-consistent Calculation

     iteration #  1     ecut=    70.00 Ry     beta= 0.70
     Davidson diagonalization with overlap
     ethr =  1.00E-02,  avg # of iterations =  2.5

     Threshold (ethr) on eigenvalues was too large:
     Diagonalizing with lowered threshold

     Davidson diagonalization with overlap
     ethr =  4.99E-04,  avg # of iterations =  2.2

     total energy              =    -291.03071746 Ry
     Harris-Foulkes estimate   =    -291.10845187 Ry
     estimated scf accuracy    <       0.14013201 Ry

     total magnetization       =     0.00 Bohr mag/cell
     absolute magnetization    =     1.28 Bohr mag/cell

[...]

     Magnetic moment per site:
     atom:    1    charge:   11.3065    magn:   -0.0016    constr:    0.0000
     atom:    2    charge:   11.3048    magn:    0.0027    constr:    0.0000

     End of self-consistent calculation

 ------ SPIN UP ------------

          k = 0.0625 0.0625 0.0625 (  1836 PWs)   bands (ev):

   -47.4296 -47.1350 -21.3464 -21.3464 -21.2998 -20.8135 -20.7640 -20.7640
     9.9434  13.5024  13.5024  16.6290  16.6290  16.8977  18.6208  18.6208
    19.3613

[...]

 ------ SPIN DOWN ----------

[...]

     the Fermi energy is    16.3022 ev

!    total energy              =    -291.09335620 Ry
     Harris-Foulkes estimate   =    -291.09335672 Ry
     estimated scf accuracy    <       0.00000075 Ry

     The total energy is the sum of the following terms:

     one-electron contribution =     -93.47636958 Ry
     hartree contribution      =      58.88637002 Ry
     xc contribution           =     -40.65348560 Ry
     ewald contribution        =    -215.84811072 Ry
     smearing contrib. (-TS)   =      -0.00176033 Ry

[...]

     convergence has been achieved in   9 iterations

     Forces acting on atoms (cartesian axes, Ry/au):

     atom    1 type  1   force =     0.00000000    0.00000000    0.00000000
     atom    2 type  2   force =     0.00000000    0.00000000    0.00000000

     Total force =     0.000000     Total SCF correction =     0.000000

     Computing stress (Cartesian axis) and pressure

          total   stress  (Ry/bohr**3)                   (kbar)     P=  -34.44
  -0.00023411   0.00000000   0.00000000        -34.44      0.00      0.00
   0.00000000  -0.00023411   0.00000000          0.00    -34.44      0.00
   0.00000000   0.00000000  -0.00023411          0.00      0.00    -34.44

     BFGS Geometry Optimization

     number of scf cycles    =   1
     number of bfgs steps    =   0

     enthalpy new            =    -291.0933561953 Ry

     new trust radius        =       0.0159242002 bohr
     new conv_thr            =       0.0000010000 Ry

     new unit-cell volume =    181.83908 a.u.^3 (    26.94577 Ang^3 )
     density =      6.27856 g/cm^3

CELL_PARAMETERS (angstrom)
   2.997990208   0.000000000   0.000000000
   0.000000000   2.997990208   0.000000000
   0.000000000   0.000000000   2.997990208

ATOMIC_POSITIONS (angstrom)
V1       0.000000000   0.000000000   0.000000000
V2       1.498995104   1.498995104   1.498995104

     Writing output data file v-3.01564.save/
     NEW-OLD atomic charge density approx. for the potential

     Check: negative core charge=   -0.000011
     extrapolated charge   25.53812, renormalised to   26.00000

[...]

     enthalpy old            =    -291.0933561953 Ry
     enthalpy new            =    -291.0937373903 Ry

     CASE: enthalpy_new < enthalpy_old

[...]

     CASE: enthalpy_new > enthalpy_old

[...]

     number of scf cycles    =   4
     number of bfgs steps    =   2

     enthalpy old            =    -291.0937373903 Ry
     enthalpy new            =    -291.0937377891 Ry

     CASE: enthalpy_new < enthalpy_old

     new trust radius        =       0.0001159656 bohr
     new conv_thr            =       0.0000000100 Ry

     new unit-cell volume =    181.71295 a.u.^3 (    26.92708 Ang^3 )
     density =      6.28292 g/cm^3

[...]

ATOMIC_POSITIONS (angstrom)
V1       0.000000000   0.000000000   0.000000000
V2       1.498648434   1.498648434   1.498648434

     Writing output data file v-3.01564.save/
     NEW-OLD atomic charge density approx. for the potential

     Check: negative core charge=   -0.000011
     extrapolated charge   26.00335, renormalised to   26.00000

[...]

     Threshold (ethr) on eigenvalues was too large:
     Diagonalizing with lowered threshold

     Davidson diagonalization with overlap
     ethr =  2.18E-08,  avg # of iterations =  1.0

[...]

     bfgs converged in   5 scf cycles and   3 bfgs steps
     (criteria: energy <  1.0E-05 Ry, force <  1.0E-04Ry/Bohr, cell <  5.0E-01kbar)

     End of BFGS Geometry Optimization

     Final enthalpy =    -291.0937378516 Ry
Begin final coordinates
     new unit-cell volume =    181.71295 a.u.^3 (    26.92708 Ang^3 )
     density =      6.28292 g/cm^3

CELL_PARAMETERS (angstrom)
   2.997296868   0.000000000   0.000000000
   0.000000000   2.997296868   0.000000000
   0.000000000   0.000000000   2.997296868

ATOMIC_POSITIONS (angstrom)
V1       0.000000000   0.000000000   0.000000000
V2       1.498648434   1.498648434   1.498648434
End final coordinates

     Writing output data file v-3.01564.save/

     A final scf calculation at the relaxed structure.
     The G-vectors are recalculated for the final unit cell
     Results may differ from those at the preceding step.

     bravais-lattice index     =            0
     lattice parameter (alat)  =       5.6987  a.u.
     unit-cell volume          =     181.7130 (a.u.)^3
     number of atoms/cell      =            2
     number of atomic types    =            2
     number of electrons       =        26.00
     number of Kohn-Sham states=           17
     kinetic-energy cutoff     =      70.0000  Ry
     charge density cutoff     =     420.0000  Ry
     convergence threshold     =      1.0E-08
     mixing beta               =       0.7000
     number of iterations used =            8  plain     mixing
     Exchange-correlation      = PBE ( 1  4  3  4 0 0)

     celldm(1)=   5.698734  celldm(2)=   0.000000  celldm(3)=   0.000000
     celldm(4)=   0.000000  celldm(5)=   0.000000  celldm(6)=   0.000000

     crystal axes: (cart. coord. in units of alat)
               a(1) = (   0.993917   0.000000   0.000000 )
               a(2) = (   0.000000   0.993917   0.000000 )
               a(3) = (   0.000000   0.000000   0.993917 )

     reciprocal axes: (cart. coord. in units 2 pi/alat)
               b(1) = (  1.006120  0.000000  0.000000 )
               b(2) = (  0.000000  1.006120  0.000000 )
               b(3) = (  0.000000  0.000000  1.006120 )

[...]

     PseudoPot. # 2 for V  read from file:
     /home/cristian/Escritorio/Proyecto_Grafeno/pseudopotenciales/V.pbe-spnl-rrkjus_psl.1.0.0.UPF
     MD5 check sum: 79b3eb63147daf0b665d9f1bcc691206
     Pseudo is Ultrasoft + core correction, Zval = 13.0
     Generated using "atomic" code by A. Dal Corso v.6.2.2
     Using radial grid of 1181 points,  6 beta functions with:
                l(1) =   0
                l(2) =   0
                l(3) =   1
                l(4) =   1
                l(5) =   2
                l(6) =   2
     Q(r) pseudized with 0 coefficients

     atomic species   valence    mass     pseudopotential
        V1            13.00    50.94150     V ( 1.00)
        V2            13.00    50.94150     V ( 1.00)

     Starting magnetic structure
     atomic species   magnetization
        V1          -0.000
        V2           0.000

     48 Sym. Ops., with inversion, found

   Cartesian axes

     site n.     atom                  positions (alat units)
         1           V1  tau(   1) = (   0.0000000   0.0000000   0.0000000  )
         2           V2  tau(   2) = (   0.4969587   0.4969587   0.4969587  )

     number of k points=    20  Methfessel-Paxton smearing, width (Ry)=  0.0300
                       cart. coord. in units 2pi/alat
        k(    1) = (   0.0628825   0.0628825   0.0628825), wk =   0.0156250
        k(    2) = (   0.0628825   0.0628825   0.1886475), wk =   0.0468750
        k(    3) = (   0.0628825   0.0628825   0.3144125), wk =   0.0468750
        k(    4) = (   0.0628825   0.0628825   0.4401775), wk =   0.0468750
        k(    5) = (   0.0628825   0.1886475   0.1886475), wk =   0.0468750
        k(    6) = (   0.0628825   0.1886475   0.3144125), wk =   0.0937500
        k(    7) = (   0.0628825   0.1886475   0.4401775), wk =   0.0937500
        k(    8) = (   0.0628825   0.3144125   0.3144125), wk =   0.0468750
        k(    9) = (   0.0628825   0.3144125   0.4401775), wk =   0.0937500
        k(   10) = (   0.0628825   0.4401775   0.4401775), wk =   0.0468750
        k(   11) = (   0.1886475   0.1886475   0.1886475), wk =   0.0156250
        k(   12) = (   0.1886475   0.1886475   0.3144125), wk =   0.0468750
        k(   13) = (   0.1886475   0.1886475   0.4401775), wk =   0.0468750
        k(   14) = (   0.1886475   0.3144125   0.3144125), wk =   0.0468750
        k(   15) = (   0.1886475   0.3144125   0.4401775), wk =   0.0937500
        k(   16) = (   0.1886475   0.4401775   0.4401775), wk =   0.0468750
        k(   17) = (   0.3144125   0.3144125   0.3144125), wk =   0.0156250
        k(   18) = (   0.3144125   0.3144125   0.4401775), wk =   0.0468750
        k(   19) = (   0.3144125   0.4401775   0.4401775), wk =   0.0468750
        k(   20) = (   0.4401775   0.4401775   0.4401775), wk =   0.0156250

     Check: negative core charge=   -0.000012

     Initial potential from superposition of free atoms

     starting charge   25.99818, renormalised to   26.00000
     Starting wfcs are   20 randomized atomic wfcs

     Self-consistent Calculation

[...]

     total energy              =    -291.09346833 Ry
     Harris-Foulkes estimate   =    -291.09346833 Ry
     estimated scf accuracy    <       0.00000001 Ry

[...]

     iteration #  9     ecut=    70.00 Ry     beta= 0.70
     Davidson diagonalization with overlap
     ethr =  5.27E-11,  avg # of iterations =  3.6

     Magnetic moment per site:
     atom:    1    charge:   11.3322    magn:   -0.0000    constr:    0.0000
     atom:    2    charge:   11.3321    magn:   -0.0000    constr:    0.0000

     End of self-consistent calculation

 ------ SPIN UP ------------

[...]

 ------ SPIN DOWN ----------

[...]

          k = 0.4402 0.4402 0.4402 (  1796 PWs)   bands (ev):

   -46.8545 -46.8520 -20.9638 -20.8847 -20.8847 -20.7116 -20.7116 -20.6308
    15.1660  15.4060  15.4060  15.6754  15.6925  15.6925  19.4682  19.4688
    19.4692

     the Fermi energy is    16.6546 ev

!    total energy              =    -291.09346833 Ry
     Harris-Foulkes estimate   =    -291.09346833 Ry
     estimated scf accuracy    <          2.2E-09 Ry

     The total energy is the sum of the following terms:

     one-electron contribution =     -91.50564433 Ry
     hartree contribution      =      58.27064926 Ry
     xc contribution           =     -40.68776763 Ry
     ewald contribution        =    -217.16907773 Ry
     smearing contrib. (-TS)   =      -0.00162790 Ry

     total magnetization       =    -0.00 Bohr mag/cell
     absolute magnetization    =     0.00 Bohr mag/cell

     convergence has been achieved in   9 iterations

     Forces acting on atoms (cartesian axes, Ry/au):

     atom    1 type  1   force =     0.00000000    0.00000000    0.00000000
     atom    2 type  2   force =     0.00000000    0.00000000    0.00000000

     Total force =     0.000000     Total SCF correction =     0.000000

     Computing stress (Cartesian axis) and pressure

          total   stress  (Ry/bohr**3)                   (kbar)     P=   -1.10
  -0.00000747   0.00000000   0.00000000         -1.10      0.00      0.00
   0.00000000  -0.00000747   0.00000000          0.00     -1.10      0.00
   0.00000000   0.00000000  -0.00000747          0.00      0.00     -1.10

     Writing output data file v-3.01564.save/

     General routines

     Parallel routines

   This run was terminated on:   9:24:40  17Mar2022

   JOB DONE.