     Program PWSCF v.6.4.1 starts on 24Oct2022 at 10:30: 0

     R & G space division:  proc/nbgrp/npool/nimage =       6
     Reading input from v-vcrelax-2.in

     Current dimensions of program PWSCF are:
     Max number of different atomic species (ntypx) = 10
     Max number of k-points (npk) =  40000
     Max angular momentum in pseudopotentials (lmaxx) =  3
               file H.pbe-rrkjus.UPF: wavefunction(s)  1S renormalized
               file V.pbe-spnl-rrkjus_psl.1.0.0.UPF: wavefunction(s)  3P 3D renormalized

     Subspace diagonalization in iterative solution of the eigenvalue problem:
     a serial algorithm will be used

     bravais-lattice index     =            4
     lattice parameter (alat)  =      23.2937  a.u.
     unit-cell volume          =    8879.8548 (a.u.)^3
     number of atoms/cell      =           52
     number of atomic types    =            3
     number of electrons       =       211.00
     number of Kohn-Sham states=          127
     kinetic-energy cutoff     =      70.0000  Ry
     charge density cutoff     =     490.0000  Ry
     convergence threshold     =      1.0E-10
     mixing beta               =       0.3000
     number of iterations used =            4  plain     mixing
     Exchange-correlation      = PBE ( 1  4  3  4 0 0)
     nstep                     =           50

     celldm(1)=  23.293684  celldm(2)=   0.000000  celldm(3)=   0.811261
     celldm(4)=   0.000000  celldm(5)=   0.000000  celldm(6)=   0.000000

     crystal axes: (cart. coord. in units of alat)
               a(1) = (   1.000000   0.000000   0.000000 )
               a(2) = (  -0.500000   0.866025   0.000000 )
               a(3) = (   0.000000   0.000000   0.811261 )

     reciprocal axes: (cart. coord. in units 2 pi/alat)
               b(1) = (  1.000000  0.577350 -0.000000 )
               b(2) = (  0.000000  1.154701  0.000000 )
               b(3) = (  0.000000 -0.000000  1.232649 )

     PseudoPot. # 1 for H  read from file:
     /home/cristian/Escritorio/Proyecto_Grafeno/pseudopotenciales/H.pbe-rrkjus.UPF
     MD5 check sum: 7cc9d459525c9a0585f487a71c3c9563
     Pseudo is Ultrasoft, Zval =  1.0
     Generated by new atomic code, or converted to UPF format
     Using radial grid of 1061 points,  2 beta functions with:
                l(1) =   0
                l(2) =   0
     Q(r) pseudized with 0 coefficients

     PseudoPot. # 2 for C  read from file:
     /home/cristian/Escritorio/Proyecto_Grafeno/pseudopotenciales/C.pbe-n-rrkjus_psl.1.0.0.UPF
     MD5 check sum: 1fdd950c42eb37d8afe3dd2f8d12311e
     Pseudo is Ultrasoft + core correction, Zval =  4.0
     Generated using "atomic" code by A. Dal Corso v.6.3MaX
     Using radial grid of 1073 points,  4 beta functions with:
                l(1) =   0
                l(2) =   0
                l(3) =   1
                l(4) =   1
     Q(r) pseudized with 0 coefficients

     PseudoPot. # 3 for V  read from file:
     /home/cristian/Escritorio/Proyecto_Grafeno/pseudopotenciales/V.pbe-spnl-rrkjus_psl.1.0.0.UPF
     MD5 check sum: 79b3eb63147daf0b665d9f1bcc691206
     Pseudo is Ultrasoft + core correction, Zval = 13.0
     Generated using "atomic" code by A. Dal Corso v.6.2.2
     Using radial grid of 1181 points,  6 beta functions with:
                l(1) =   0
                l(2) =   0
                l(3) =   1
                l(4) =   1
                l(5) =   2
                l(6) =   2
     Q(r) pseudized with 0 coefficients

     atomic species   valence    mass     pseudopotential
        H              1.00     1.00794     H ( 1.00)
        C              4.00    12.01070     C ( 1.00)
        V             13.00    50.94150     V ( 1.00)

     Starting magnetic structure
     atomic species   magnetization
        H            0.500
        C            0.300
        V            0.800

      2 Sym. Ops. (no inversion) found

                                    s                        frac. trans.

      isym =  1     identity

 cryst.   s( 1) = (     1          0          0      )
                  (     0          1          0      )
                  (     0          0          1      )

 cart.    s( 1) = (  1.0000000  0.0000000  0.0000000 )
                  (  0.0000000  1.0000000  0.0000000 )
                  (  0.0000000  0.0000000  1.0000000 )

      isym =  2     inv. 180 deg rotation - cryst. axis [1,1,0]

 cryst.   s( 2) = (     0         -1          0      )
                  (    -1          0          0      )
                  (     0          0          1      )

 cart.    s( 2) = (  0.5000000 -0.8660254  0.0000000 )
                  ( -0.8660254 -0.5000000  0.0000000 )
                  (  0.0000000  0.0000000  1.0000000 )

     point group C_s (m)
     there are  2 classes
     the character table:

       E     s
A'     1.00  1.00
A''    1.00 -1.00

     the symmetry operations in each class and the name of the first element:

     E        1
          identity
     s        2
          inv. 180 deg rotation - cryst. axis [1,1,0]

   Cartesian axes

     site n.     atom                  positions (alat units)
         1           H   tau(   1) = (   0.1998643   0.4619585   0.2999836  )
         2           H   tau(   2) = (   0.2000926   0.4618268   0.3611364  )
         3           C   tau(   3) = (   0.0000624  -0.0000360  -0.0174863  )
         4           C   tau(   4) = (  -0.0004439   0.1150555  -0.0145437  )
         5           C   tau(   5) = (  -0.1002212   0.1730507  -0.0138909  )
         6           C   tau(   6) = (  -0.1001222   0.2886121  -0.0091958  )
         7           C   tau(   7) = (  -0.2002417   0.3462824  -0.0138915  )
         8           C   tau(   8) = (  -0.2005816   0.4617088  -0.0145439  )
         9           C   tau(   9) = (  -0.3000040   0.5196912  -0.0174881  )
        10           C   tau(  10) = (  -0.2999876   0.6350768  -0.0181077  )
        11           C   tau(  11) = (  -0.3998903   0.6928979  -0.0174683  )
        12           C   tau(  12) = (  -0.3999917   0.8082856  -0.0181088  )
        13           C   tau(  13) = (   0.1999877  -0.0001338  -0.0174683  )
        14           C   tau(  14) = (   0.2000066   0.1148947  -0.0119526  )
        15           C   tau(  15) = (   0.0993996   0.1720841  -0.0084488  )
        16           C   tau(  16) = (   0.0990852   0.2863208   0.0071068  )
        17           C   tau(  17) = (  -0.0008777   0.3458954   0.0037015  )
        18           C   tau(  18) = (  -0.0025043   0.4622720   0.0071059  )
        19           C   tau(  19) = (  -0.1012606   0.5196510  -0.0084443  )
        20           C   tau(  20) = (  -0.1004962   0.6353718  -0.0119467  )
        21           C   tau(  21) = (  -0.2001270   0.6928936  -0.0174636  )
        22           C   tau(  22) = (  -0.1999864   0.8082839  -0.0181077  )
        23           C   tau(  23) = (   0.3999322  -0.0000345  -0.0174881  )
        24           C   tau(  24) = (   0.4004430   0.1150474  -0.0145464  )
        25           C   tau(  25) = (   0.3005961   0.1720872  -0.0084520  )
        26           C   tau(  26) = (   0.3009150   0.2863177   0.0071034  )
        27           C   tau(  27) = (   0.2000006   0.3377129   0.0271681  )
        28           V   tau(  28) = (   0.2000063   0.4618766   0.1156827  )
        29           C   tau(  29) = (   0.0924755   0.5239595   0.0271751  )
        30           C   tau(  30) = (   0.0984086   0.6370582   0.0071059  )
        31           C   tau(  31) = (  -0.0006612   0.6938942  -0.0084443  )
        32           C   tau(  32) = (  -0.0001424   0.8088797  -0.0145439  )
        33           C   tau(  33) = (   0.5999898   0.0002733  -0.0138915  )
        34           C   tau(  34) = (   0.6001612   0.1155609  -0.0164743  )
        35           C   tau(  35) = (   0.5002305   0.1730578  -0.0138905  )
        36           C   tau(  36) = (   0.5001190   0.2886064  -0.0091945  )
        37           C   tau(  37) = (   0.4008849   0.3458993   0.0036971  )
        38           C   tau(  38) = (   0.4024991   0.4622665   0.0071034  )
        39           C   tau(  39) = (   0.3075324   0.5239633   0.0271681  )
        40           C   tau(  40) = (   0.3015815   0.6370547   0.0071068  )
        41           C   tau(  41) = (   0.2000070   0.6938378   0.0037015  )
        42           C   tau(  42) = (   0.1999935   0.8084277  -0.0091958  )
        43           C   tau(  43) = (   0.8000231   0.0002687  -0.0138909  )
        44           C   tau(  44) = (   0.7998291   0.1155687  -0.0164731  )
        45           C   tau(  45) = (   0.7000056   0.1732019  -0.0169534  )
        46           C   tau(  46) = (   0.7000019   0.2884901  -0.0164743  )
        47           C   tau(  47) = (   0.6002428   0.3462842  -0.0138905  )
        48           C   tau(  48) = (   0.6005875   0.4617079  -0.0145464  )
        49           C   tau(  49) = (   0.5012662   0.5196579  -0.0084520  )
        50           C   tau(  50) = (   0.5005015   0.6353673  -0.0119526  )
        51           C   tau(  51) = (   0.4006706   0.6939007  -0.0084488  )
        52           C   tau(  52) = (   0.4001370   0.8088821  -0.0145437  )

   Crystallographic axes

     site n.     atom                  positions (cryst. coord.)
         1           H   tau(   1) = (  0.4665762  0.5334238  0.3697743  )
         2           H   tau(   2) = (  0.4667284  0.5332716  0.4451543  )
         3           C   tau(   3) = (  0.0000416 -0.0000416 -0.0215545  )
         4           C   tau(   4) = (  0.0659834  0.1328547 -0.0179273  )
         5           C   tau(   5) = ( -0.0003103  0.1998217 -0.0171226  )
         6           C   tau(   6) = (  0.0665081  0.3332605 -0.0113352  )
         7           C   tau(   7) = ( -0.0003155  0.3998524 -0.0171234  )
         8           C   tau(   8) = (  0.0659861  0.5331354 -0.0179275  )
         9           C   tau(   9) = (  0.0000398  0.6000877 -0.0215567  )
        10           C   tau(  10) = (  0.0666741  0.7333235 -0.0223205  )
        11           C   tau(  11) = (  0.0001545  0.8000896 -0.0215323  )
        12           C   tau(  12) = (  0.0666722  0.9333278 -0.0223217  )
        13           C   tau(  13) = (  0.1999104 -0.0001545 -0.0215323  )
        14           C   tau(  14) = (  0.2663411  0.1326690 -0.0147334  )
        15           C   tau(  15) = (  0.1987524  0.1987056 -0.0104143  )
        16           C   tau(  16) = (  0.2643926  0.3306148  0.0087602  )
        17           C   tau(  17) = (  0.1988251  0.3994056  0.0045627  )
        18           C   tau(  18) = (  0.2643885  0.5337857  0.0087591  )
        19           C   tau(  19) = (  0.1987600  0.6000412 -0.0104089  )
        20           C   tau(  20) = (  0.2663359  0.7336641 -0.0147260  )
        21           C   tau(  21) = (  0.1999154  0.8000846 -0.0215265  )
        22           C   tau(  22) = (  0.2666765  0.9333259 -0.0223205  )
        23           C   tau(  23) = (  0.3999123 -0.0000398 -0.0215567  )
        24           C   tau(  24) = (  0.4668656  0.1328453 -0.0179306  )
        25           C   tau(  25) = (  0.3999507  0.1987092 -0.0104184  )
[...]
     atom   30 type  2   force =     0.44807265   -1.41343015    0.74738764
     atom   31 type  2   force =     0.54891295   -0.54342046    0.95744099
     atom   32 type  2   force =     0.09879015   -0.32356764    0.92014470
     atom   33 type  2   force =    -0.01490780   -0.28245917    0.71491201
     atom   34 type  2   force =    -0.08947005   -0.03687603    0.72943231
     atom   35 type  2   force =    -0.22448613    0.15084757    0.71188875
     atom   36 type  2   force =    -0.51038126    0.29466875    0.71289971
     atom   37 type  2   force =    -0.91645552    0.52911585    0.43702510
     atom   38 type  2   force =    -1.38297855    0.26732444    0.71469349
     atom   39 type  2   force =    -2.13396902   -1.14967702    0.99760850
     atom   40 type  2   force =    -0.51656770   -1.41048205    0.56756992
     atom   41 type  2   force =    -0.07747687   -1.10324844    0.38114469
     atom   42 type  2   force =    -0.03417305   -0.58304324    0.68364192
     atom   43 type  2   force =    -0.01957512   -0.28131574    0.72051338
     atom   44 type  2   force =     0.04508314   -0.02602876    0.76464328
     atom   45 type  2   force =    -0.00945370    0.00545809    0.58497617
     atom   46 type  2   force =    -0.01279945    0.09592134    0.72943231
     atom   47 type  2   force =    -0.24288089    0.11898691    0.71188875
     atom   48 type  2   force =    -0.30807003    0.06380570    0.93247984
     atom   49 type  2   force =    -0.71971283   -0.21201156    0.93838764
     atom   50 type  2   force =    -0.44312299   -0.26911020    0.71104471
     atom   51 type  2   force =    -0.47589160   -0.55691040    0.78865043
     atom   52 type  2   force =    -0.13660377   -0.29432733    0.90165388
     The core correction contribution to forces
     atom    1 type  1   force =     0.00000000    0.00000000    0.00000000
     atom    2 type  1   force =     0.00000000    0.00000000    0.00000000
     atom    3 type  2   force =    -0.00010058    0.00005807    0.00026365
     atom    4 type  2   force =     0.00002869    0.00000663    0.00043385
     atom    5 type  2   force =    -0.00008946   -0.00015040    0.00032222
     atom    6 type  2   force =     0.00017683    0.00012566    0.00014581
     atom    7 type  2   force =    -0.00021337   -0.00000312    0.00030504
     atom    8 type  2   force =    -0.00006744    0.00021960    0.00029541
     atom    9 type  2   force =     0.00004330   -0.00026566    0.00028588
     atom   10 type  2   force =    -0.00004182    0.00002569    0.00037215
     atom   11 type  2   force =    -0.00003480   -0.00025037    0.00026563
     atom   12 type  2   force =    -0.00005464    0.00003155    0.00040029
     atom   13 type  2   force =     0.00019943    0.00015533    0.00026563
     atom   14 type  2   force =    -0.00004664   -0.00026138    0.00030917
     atom   15 type  2   force =    -0.00023784    0.00006756    0.00009320
     atom   16 type  2   force =     0.00089445   -0.00050619   -0.00130056
     atom   17 type  2   force =    -0.00056060   -0.00007913    0.00003692
     atom   18 type  2   force =     0.00007271    0.00123129   -0.00069070
     atom   19 type  2   force =     0.00007417   -0.00070078    0.00010959
     atom   20 type  2   force =    -0.00036276    0.00020944    0.00034590
     atom   21 type  2   force =     0.00011703   -0.00006757    0.00028234
     atom   22 type  2   force =    -0.00004316    0.00002337    0.00037215
     atom   23 type  2   force =     0.00025172    0.00009533    0.00028588
     atom   24 type  2   force =    -0.00020661   -0.00015619    0.00036805
     atom   25 type  2   force =     0.00045519    0.00041001    0.00017178
     atom   26 type  2   force =    -0.00083853   -0.00058287   -0.00036970
     atom   27 type  2   force =     0.00031851    0.00326572    0.00261477
     atom   28 type  3   force =    -0.00132311    0.00076390    0.03956835
     atom   29 type  2   force =     0.00310718   -0.00179393    0.00267045
     atom   30 type  2   force =    -0.00102997   -0.00067861   -0.00069070
     atom   31 type  2   force =     0.00064398    0.00028615    0.00010959
     atom   32 type  2   force =    -0.00022390   -0.00005140    0.00029541
     atom   33 type  2   force =    -0.00010398    0.00018634    0.00030504
     atom   34 type  2   force =     0.00007954    0.00010163    0.00015915
     atom   35 type  2   force =     0.00019059   -0.00012635    0.00031250
     atom   36 type  2   force =    -0.00027555    0.00015909    0.00014130
     atom   37 type  2   force =     0.00032879   -0.00018983    0.00019281
     atom   38 type  2   force =     0.00008551    0.00101763   -0.00036970
     atom   39 type  2   force =    -0.00266894   -0.00190870    0.00261477
     atom   40 type  2   force =     0.00088560   -0.00052152   -0.00130056
     atom   41 type  2   force =    -0.00021177    0.00052505    0.00003692
     atom   42 type  2   force =    -0.00002041   -0.00021597    0.00014581
     atom   43 type  2   force =     0.00008552    0.00015267    0.00032222
     atom   44 type  2   force =    -0.00020296    0.00011718    0.00018460
     atom   45 type  2   force =    -0.00001027    0.00000593    0.00019813
     atom   46 type  2   force =    -0.00004824   -0.00011970    0.00015915
     atom   47 type  2   force =     0.00020472   -0.00010188    0.00031250
     atom   48 type  2   force =     0.00003196    0.00025702    0.00036805
     atom   49 type  2   force =    -0.00012748   -0.00059921    0.00017178
     atom   50 type  2   force =     0.00020304    0.00017109    0.00030917
     atom   51 type  2   force =    -0.00017743    0.00017219    0.00009320
     atom   52 type  2   force =     0.00000860   -0.00002816    0.00043385
     The Hubbard contrib.    to forces
     atom    1 type  1   force =     0.00000000    0.00000000    0.00000000
     atom    2 type  1   force =     0.00000000    0.00000000    0.00000000
     atom    3 type  2   force =     0.00000000    0.00000000    0.00000000
     atom    4 type  2   force =     0.00000000    0.00000000    0.00000000
     atom    5 type  2   force =     0.00000000    0.00000000    0.00000000
     atom    6 type  2   force =     0.00000000    0.00000000    0.00000000
     atom    7 type  2   force =     0.00000000    0.00000000    0.00000000
     atom    8 type  2   force =     0.00000000    0.00000000    0.00000000
     atom    9 type  2   force =     0.00000000    0.00000000    0.00000000
     atom   10 type  2   force =     0.00000000    0.00000000    0.00000000
     atom   11 type  2   force =     0.00000000    0.00000000    0.00000000
     atom   12 type  2   force =     0.00000000    0.00000000    0.00000000
     atom   13 type  2   force =     0.00000000    0.00000000    0.00000000
     atom   14 type  2   force =     0.00000000    0.00000000    0.00000000
     atom   15 type  2   force =     0.00000000    0.00000000    0.00000000
     atom   16 type  2   force =     0.00000000    0.00000000    0.00000000
     atom   17 type  2   force =     0.00000000    0.00000000    0.00000000
     atom   18 type  2   force =     0.00000000    0.00000000    0.00000000
     atom   19 type  2   force =     0.00000000    0.00000000    0.00000000
     atom   20 type  2   force =     0.00000000    0.00000000    0.00000000
     atom   21 type  2   force =     0.00000000    0.00000000    0.00000000
     atom   22 type  2   force =     0.00000000    0.00000000    0.00000000
     atom   23 type  2   force =     0.00000000    0.00000000    0.00000000
     atom   24 type  2   force =     0.00000000    0.00000000    0.00000000
     atom   25 type  2   force =     0.00000000    0.00000000    0.00000000
     atom   26 type  2   force =     0.00000000    0.00000000    0.00000000
     atom   27 type  2   force =     0.00000000    0.00000000    0.00000000
     atom   28 type  3   force =     0.00000000    0.00000000    0.00000000
     atom   29 type  2   force =     0.00000000    0.00000000    0.00000000
     atom   30 type  2   force =     0.00000000    0.00000000    0.00000000
     atom   31 type  2   force =     0.00000000    0.00000000    0.00000000
     atom   32 type  2   force =     0.00000000    0.00000000    0.00000000
     atom   33 type  2   force =     0.00000000    0.00000000    0.00000000
     atom   34 type  2   force =     0.00000000    0.00000000    0.00000000
     atom   35 type  2   force =     0.00000000    0.00000000    0.00000000
     atom   36 type  2   force =     0.00000000    0.00000000    0.00000000
     atom   37 type  2   force =     0.00000000    0.00000000    0.00000000
     atom   38 type  2   force =     0.00000000    0.00000000    0.00000000
     atom   39 type  2   force =     0.00000000    0.00000000    0.00000000
     atom   40 type  2   force =     0.00000000    0.00000000    0.00000000
     atom   41 type  2   force =     0.00000000    0.00000000    0.00000000
     atom   42 type  2   force =     0.00000000    0.00000000    0.00000000
     atom   43 type  2   force =     0.00000000    0.00000000    0.00000000
     atom   44 type  2   force =     0.00000000    0.00000000    0.00000000
     atom   45 type  2   force =     0.00000000    0.00000000    0.00000000
     atom   46 type  2   force =     0.00000000    0.00000000    0.00000000
     atom   47 type  2   force =     0.00000000    0.00000000    0.00000000
     atom   48 type  2   force =     0.00000000    0.00000000    0.00000000
     atom   49 type  2   force =     0.00000000    0.00000000    0.00000000
     atom   50 type  2   force =     0.00000000    0.00000000    0.00000000
     atom   51 type  2   force =     0.00000000    0.00000000    0.00000000
     atom   52 type  2   force =     0.00000000    0.00000000    0.00000000
     The SCF correction term to forces
     atom    1 type  1   force =    -0.00000003    0.00000002    0.00000005
     atom    2 type  1   force =     0.00000003   -0.00000002    0.00000002
     atom    3 type  2   force =     0.00000008   -0.00000005   -0.00000002
     atom    4 type  2   force =     0.00000002   -0.00000012   -0.00000002
     atom    5 type  2   force =     0.00000004   -0.00000011   -0.00000003
     atom    6 type  2   force =    -0.00000001   -0.00000006   -0.00000004
     atom    7 type  2   force =    -0.00000002   -0.00000002   -0.00000001
     atom    8 type  2   force =    -0.00000007    0.00000002   -0.00000001
     atom    9 type  2   force =    -0.00000004    0.00000010   -0.00000001
     atom   10 type  2   force =    -0.00000010    0.00000012   -0.00000001
     atom   11 type  2   force =     0.00000003    0.00000009    0.00000000
     atom   12 type  2   force =    -0.00000000    0.00000000   -0.00000002
     atom   13 type  2   force =    -0.00000006   -0.00000007    0.00000000
     atom   14 type  2   force =    -0.00000006   -0.00000015   -0.00000000
     atom   15 type  2   force =    -0.00000002   -0.00000018   -0.00000001
     atom   16 type  2   force =    -0.00000003   -0.00000015   -0.00000002
     atom   17 type  2   force =    -0.00000007   -0.00000009   -0.00000005
     atom   18 type  2   force =    -0.00000010   -0.00000004   -0.00000007
     atom   19 type  2   force =    -0.00000011   -0.00000000   -0.00000002
     atom   20 type  2   force =    -0.00000014    0.00000008   -0.00000000
     atom   21 type  2   force =    -0.00000015    0.00000009   -0.00000001
     atom   22 type  2   force =    -0.00000015    0.00000003   -0.00000001
     atom   23 type  2   force =    -0.00000011   -0.00000002   -0.00000001
     atom   24 type  2   force =    -0.00000005   -0.00000007   -0.00000001
     atom   25 type  2   force =    -0.00000005   -0.00000010   -0.00000001
     atom   26 type  2   force =     0.00000004   -0.00000011   -0.00000005
     atom   27 type  2   force =    -0.00000002   -0.00000018   -0.00000008
     atom   28 type  3   force =     0.00000006   -0.00000004    0.00000013
     atom   29 type  2   force =    -0.00000013    0.00000008   -0.00000013
     atom   30 type  2   force =    -0.00000002    0.00000011   -0.00000007
     atom   31 type  2   force =    -0.00000005    0.00000009   -0.00000002
     atom   32 type  2   force =    -0.00000005    0.00000005   -0.00000001
     atom   33 type  2   force =     0.00000001    0.00000002   -0.00000001
     atom   34 type  2   force =     0.00000004   -0.00000003    0.00000003
     atom   35 type  2   force =     0.00000002   -0.00000003   -0.00000000
     atom   36 type  2   force =     0.00000005   -0.00000003   -0.00000004
     atom   37 type  2   force =     0.00000003   -0.00000002   -0.00000006
     atom   38 type  2   force =     0.00000011    0.00000002   -0.00000005
     atom   39 type  2   force =     0.00000015    0.00000011   -0.00000008
     atom   40 type  2   force =     0.00000011    0.00000010   -0.00000002
     atom   41 type  2   force =     0.00000004    0.00000011   -0.00000005
     atom   42 type  2   force =     0.00000005    0.00000004   -0.00000004
     atom   43 type  2   force =     0.00000012    0.00000002   -0.00000003
     atom   44 type  2   force =     0.00000005   -0.00000003   -0.00000002
     atom   45 type  2   force =     0.00000007   -0.00000004    0.00000003
     atom   46 type  2   force =     0.00000004   -0.00000002    0.00000003
     atom   47 type  2   force =     0.00000004   -0.00000000   -0.00000000
     atom   48 type  2   force =     0.00000003    0.00000008   -0.00000001
     atom   49 type  2   force =     0.00000006    0.00000009   -0.00000001
     atom   50 type  2   force =     0.00000010    0.00000012   -0.00000000
     atom   51 type  2   force =     0.00000014    0.00000010   -0.00000001
     atom   52 type  2   force =     0.00000012    0.00000004   -0.00000002

     Total force =     0.004746     Total SCF correction =     0.000001

     bfgs converged in   8 scf cycles and   7 bfgs steps
     (criteria: energy <  1.0E-04 Ry, force <  1.0E-03 Ry/Bohr)

     End of BFGS Geometry Optimization

     Final energy   =    -756.4354979251 Ry
Begin final coordinates

ATOMIC_POSITIONS (angstrom)
H        2.468981535   5.691233290   3.697023673
H        2.464539556   5.693797867   4.450797450
C        0.000046444  -0.000026814  -0.215846859
C       -0.002648566   1.421405062  -0.176181055
C       -1.233499509   2.134347927  -0.171412220
C       -1.230864971   3.559140844  -0.117067143
C       -2.465847342   4.269114172  -0.173007126
C       -2.475014438   5.691368863  -0.182246354
C       -3.698899560   6.405907896  -0.218027088
C       -3.699719398   7.828680643  -0.228048423
C       -4.930498675   8.539640015  -0.216221998
C       -4.931471114   9.963886618  -0.225919572
C        2.465692221   0.000117099  -0.216221998
C        2.465862127   1.418166993  -0.136888949
C        1.228954355   2.125059527  -0.089601007
C        1.229022886   3.538832298   0.097411915
C       -0.008695124   4.268415958   0.042129956
C       -0.036546126   5.701373313   0.082467490
C       -1.252910171   6.406871984  -0.105256266
C       -1.242147344   7.833854547  -0.145438366
C       -2.468952321   8.542150731  -0.219190925
C       -2.466452638   9.964761329  -0.228048423
C        4.929357998   0.000387038  -0.218027088
C        4.936210903   1.418655112  -0.182821053
C        3.706960421   2.122504544  -0.102709562
C        3.715749286   3.529407872   0.082225161
C        2.478799017   4.168686878   0.337591077
V        2.442600760   5.706464237   1.431519167
C        1.132154267   6.463050872   0.328246990
C        1.207436188   7.856013883   0.082467490
C       -0.011725608   8.556666710  -0.105256266
C       -0.003133862   9.972791613  -0.182246354
C        7.396401754   0.000929355  -0.173007126
C        7.399992884   1.422569313  -0.198029041
C        6.168621539   2.130996946  -0.174617398
C        6.169038021   3.555004681  -0.123122709
C        4.946536362   4.260816343   0.031881868
C        4.964561140   5.692413453   0.082225161
C        3.792454147   6.444004306   0.337591077
C        3.713036149   7.841269475   0.097411915
C        2.462339159   8.548372885   0.042129956
C        2.465504504   9.961440577  -0.117067143
C        9.861337471   0.001067947  -0.171412220
C        9.861024232   1.423435449  -0.198422649
C        8.630303129   2.133992610  -0.198837883
C        8.631258654   3.555184185  -0.198029041
C        7.402056654   4.267369233  -0.174617398
C        7.402757461   5.690839069  -0.182821053
C        6.178580731   6.403476497  -0.102709562
C        6.168005796   7.830467924  -0.136888949
C        4.937365018   8.548215210  -0.089601007
C        4.930946200   9.966641860  -0.176181055
End final coordinates

     Writing output data file vanadio-top-2.1.save/

     General routines

     Parallel routines

   This run was terminated on:  14:30:28  24Oct2022

   JOB DONE.