     Program PWSCF v.6.4.1 starts on 22Oct2022 at 19:18:29

     R & G space division:  proc/nbgrp/npool/nimage =       6
     Reading input from v-vcrelax.in

     Current dimensions of program PWSCF are:
     Max number of different atomic species (ntypx) = 10
     Max number of k-points (npk) =  40000
     Max angular momentum in pseudopotentials (lmaxx) =  3
               file H.pbe-rrkjus.UPF: wavefunction(s)  1S renormalized
               file V.pbe-spnl-rrkjus_psl.1.0.0.UPF: wavefunction(s)  3P 3D renormalized

     Subspace diagonalization in iterative solution of the eigenvalue problem:
     a serial algorithm will be used

     bravais-lattice index     =            4
     lattice parameter (alat)  =      23.2937  a.u.
     unit-cell volume          =    8879.8548 (a.u.)^3
     number of atoms/cell      =           52
     number of atomic types    =            3
     number of electrons       =       211.00
     number of Kohn-Sham states=          127
     kinetic-energy cutoff     =      70.0000  Ry
     charge density cutoff     =     490.0000  Ry
     convergence threshold     =      1.0E-10
     mixing beta               =       0.3000
     number of iterations used =            4  plain     mixing
     Exchange-correlation      = PBE ( 1  4  3  4 0 0)
     nstep                     =           50

     celldm(1)=  23.293684  celldm(2)=   0.000000  celldm(3)=   0.811261
     celldm(4)=   0.000000  celldm(5)=   0.000000  celldm(6)=   0.000000

     crystal axes: (cart. coord. in units of alat)
               a(1) = (   1.000000   0.000000   0.000000 )
               a(2) = (  -0.500000   0.866025   0.000000 )
               a(3) = (   0.000000   0.000000   0.811261 )

     reciprocal axes: (cart. coord. in units 2 pi/alat)
               b(1) = (  1.000000  0.577350 -0.000000 )
               b(2) = (  0.000000  1.154701  0.000000 )
               b(3) = (  0.000000 -0.000000  1.232649 )

     PseudoPot. # 1 for H  read from file:
     /home/cristian/Escritorio/Proyecto_Grafeno/pseudopotenciales/H.pbe-rrkjus.UPF
     MD5 check sum: 7cc9d459525c9a0585f487a71c3c9563
     Pseudo is Ultrasoft, Zval =  1.0
     Generated by new atomic code, or converted to UPF format
     Using radial grid of 1061 points,  2 beta functions with:
                l(1) =   0
                l(2) =   0
     Q(r) pseudized with 0 coefficients

     PseudoPot. # 2 for C  read from file:
     /home/cristian/Escritorio/Proyecto_Grafeno/pseudopotenciales/C.pbe-n-rrkjus_psl.1.0.0.UPF
     MD5 check sum: 1fdd950c42eb37d8afe3dd2f8d12311e
     Pseudo is Ultrasoft + core correction, Zval =  4.0
     Generated using "atomic" code by A. Dal Corso v.6.3MaX
     Using radial grid of 1073 points,  4 beta functions with:
                l(1) =   0
                l(2) =   0
                l(3) =   1
                l(4) =   1
     Q(r) pseudized with 0 coefficients

     PseudoPot. # 3 for V  read from file:
     /home/cristian/Escritorio/Proyecto_Grafeno/pseudopotenciales/V.pbe-spnl-rrkjus_psl.1.0.0.UPF
     MD5 check sum: 79b3eb63147daf0b665d9f1bcc691206
     Pseudo is Ultrasoft + core correction, Zval = 13.0
     Generated using "atomic" code by A. Dal Corso v.6.2.2
     Using radial grid of 1181 points,  6 beta functions with:
                l(1) =   0
                l(2) =   0
                l(3) =   1
                l(4) =   1
                l(5) =   2
                l(6) =   2
     Q(r) pseudized with 0 coefficients

     atomic species   valence    mass     pseudopotential
        H              1.00     1.00794     H ( 1.00)
        C              4.00    12.01070     C ( 1.00)
        V             13.00    50.94150     V ( 1.00)

     Starting magnetic structure
     atomic species   magnetization
        H            0.500
        C            0.300
        V            0.800

      2 Sym. Ops. (no inversion) found

                                    s                        frac. trans.

      isym =  1     identity

 cryst.   s( 1) = (     1          0          0      )
                  (     0          1          0      )
                  (     0          0          1      )

 cart.    s( 1) = (  1.0000000  0.0000000  0.0000000 )
                  (  0.0000000  1.0000000  0.0000000 )
                  (  0.0000000  0.0000000  1.0000000 )

      isym =  2     inv. 180 deg rotation - cryst. axis [1,1,0]

 cryst.   s( 2) = (     0         -1          0      )
                  (    -1          0          0      )
                  (     0          0          1      )

 cart.    s( 2) = (  0.5000000 -0.8660254  0.0000000 )
                  ( -0.8660254 -0.5000000  0.0000000 )
                  (  0.0000000  0.0000000  1.0000000 )

     point group C_s (m)
     there are  2 classes
     the character table:

       E     s
A'     1.00  1.00
A''    1.00 -1.00

     the symmetry operations in each class and the name of the first element:

     E        1
          identity
     s        2
          inv. 180 deg rotation - cryst. axis [1,1,0]

   Cartesian axes

     site n.     atom                  positions (alat units)
         1           H   tau(   1) = (   0.2000000   0.4618802   0.1703648  )
         2           H   tau(   2) = (   0.2000000   0.4618802   0.2313775  )
         3           C   tau(   3) = (   0.0000000   0.0000000   0.0000000  )
         4           C   tau(   4) = (   0.0000000   0.1154701   0.0000000  )
         5           C   tau(   5) = (  -0.1000000   0.1732051   0.0000000  )
         6           C   tau(   6) = (  -0.1000000   0.2886751   0.0000000  )
         7           C   tau(   7) = (  -0.2000000   0.3464102   0.0000000  )
         8           C   tau(   8) = (  -0.2000000   0.4618802   0.0000000  )
         9           C   tau(   9) = (  -0.3000000   0.5196152   0.0000000  )
        10           C   tau(  10) = (  -0.3000000   0.6350853   0.0000000  )
        11           C   tau(  11) = (  -0.4000000   0.6928203   0.0000000  )
        12           C   tau(  12) = (  -0.4000000   0.8082904   0.0000000  )
        13           C   tau(  13) = (   0.2000000   0.0000000   0.0000000  )
        14           C   tau(  14) = (   0.2000000   0.1154701   0.0000000  )
        15           C   tau(  15) = (   0.1000000   0.1732051   0.0000000  )
        16           C   tau(  16) = (   0.1000000   0.2886751   0.0000000  )
        17           C   tau(  17) = (   0.0000000   0.3464102   0.0000000  )
        18           C   tau(  18) = (   0.0000000   0.4618802   0.0000000  )
        19           C   tau(  19) = (  -0.1000000   0.5196152   0.0000000  )
        20           C   tau(  20) = (  -0.1000000   0.6350853   0.0000000  )
        21           C   tau(  21) = (  -0.2000000   0.6928203   0.0000000  )
        22           C   tau(  22) = (  -0.2000000   0.8082904   0.0000000  )
        23           C   tau(  23) = (   0.4000000   0.0000000   0.0000000  )
        24           C   tau(  24) = (   0.4000000   0.1154701   0.0000000  )
        25           C   tau(  25) = (   0.3000000   0.1732051   0.0000000  )
        26           C   tau(  26) = (   0.3000000   0.2886751   0.0000000  )
        27           C   tau(  27) = (   0.2000000   0.3464102   0.0000000  )
        28           V   tau(  28) = (   0.2000000   0.4618802   0.0000000  )
        29           C   tau(  29) = (   0.1000000   0.5196152   0.0000000  )
        30           C   tau(  30) = (   0.1000000   0.6350853   0.0000000  )
        31           C   tau(  31) = (   0.0000000   0.6928203   0.0000000  )
        32           C   tau(  32) = (   0.0000000   0.8082904   0.0000000  )
        33           C   tau(  33) = (   0.6000000   0.0000000   0.0000000  )
        34           C   tau(  34) = (   0.6000000   0.1154701   0.0000000  )
        35           C   tau(  35) = (   0.5000000   0.1732051   0.0000000  )
        36           C   tau(  36) = (   0.5000000   0.2886751   0.0000000  )
        37           C   tau(  37) = (   0.4000000   0.3464102   0.0000000  )
        38           C   tau(  38) = (   0.4000000   0.4618802   0.0000000  )
        39           C   tau(  39) = (   0.3000000   0.5196152   0.0000000  )
        40           C   tau(  40) = (   0.3000000   0.6350853   0.0000000  )
        41           C   tau(  41) = (   0.2000000   0.6928203   0.0000000  )
        42           C   tau(  42) = (   0.2000000   0.8082904   0.0000000  )
        43           C   tau(  43) = (   0.8000000   0.0000000   0.0000000  )
        44           C   tau(  44) = (   0.8000000   0.1154701   0.0000000  )
        45           C   tau(  45) = (   0.7000000   0.1732051   0.0000000  )
        46           C   tau(  46) = (   0.7000000   0.2886751   0.0000000  )
        47           C   tau(  47) = (   0.6000000   0.3464102   0.0000000  )
        48           C   tau(  48) = (   0.6000000   0.4618802   0.0000000  )
        49           C   tau(  49) = (   0.5000000   0.5196152   0.0000000  )
        50           C   tau(  50) = (   0.5000000   0.6350853   0.0000000  )
        51           C   tau(  51) = (   0.4000000   0.6928203   0.0000000  )
        52           C   tau(  52) = (   0.4000000   0.8082904   0.0000000  )

   Crystallographic axes

     site n.     atom                  positions (cryst. coord.)
         1           H   tau(   1) = (  0.4666667  0.5333333  0.2100000  )
         2           H   tau(   2) = (  0.4666667  0.5333333  0.2852072  )
         3           C   tau(   3) = (  0.0000000  0.0000000  0.0000000  )
         4           C   tau(   4) = (  0.0666667  0.1333333  0.0000000  )
         5           C   tau(   5) = (  0.0000000  0.2000000  0.0000000  )
         6           C   tau(   6) = (  0.0666667  0.3333333  0.0000000  )
         7           C   tau(   7) = (  0.0000000  0.4000000  0.0000000  )
         8           C   tau(   8) = (  0.0666667  0.5333333  0.0000000  )
         9           C   tau(   9) = (  0.0000000  0.6000000  0.0000000  )
        10           C   tau(  10) = (  0.0666667  0.7333333  0.0000000  )
        11           C   tau(  11) = (  0.0000000  0.8000000  0.0000000  )
        12           C   tau(  12) = (  0.0666667  0.9333333  0.0000000  )
        13           C   tau(  13) = (  0.2000000  0.0000000  0.0000000  )
        14           C   tau(  14) = (  0.2666667  0.1333333  0.0000000  )
        15           C   tau(  15) = (  0.2000000  0.2000000  0.0000000  )
        16           C   tau(  16) = (  0.2666667  0.3333333  0.0000000  )
        17           C   tau(  17) = (  0.2000000  0.4000000  0.0000000  )
        18           C   tau(  18) = (  0.2666667  0.5333333  0.0000000  )
        19           C   tau(  19) = (  0.2000000  0.6000000  0.0000000  )
        20           C   tau(  20) = (  0.2666667  0.7333333  0.0000000  )
        21           C   tau(  21) = (  0.2000000  0.8000000  0.0000000  )
        22           C   tau(  22) = (  0.2666667  0.9333333  0.0000000  )
        23           C   tau(  23) = (  0.4000000  0.0000000  0.0000000  )
        24           C   tau(  24) = (  0.4666667  0.1333333  0.0000000  )
        25           C   tau(  25) = (  0.4000000  0.2000000  0.0000000  )
[...]
     atom   34 type  2   force =    -0.07173213   -0.03907885    0.80671056
     atom   35 type  2   force =    -0.22814236    0.13933559    0.67625891
     atom   36 type  2   force =    -0.50717826    0.29281950    0.62936463
     atom   37 type  2   force =    -0.95546055    0.55163540    0.30234959
     atom   38 type  2   force =    -1.44130335    0.27852339    0.68051705
     atom   39 type  2   force =    -2.13680230   -1.23072233    1.12009601
     atom   40 type  2   force =    -0.47812860   -1.39132411    0.68094351
     atom   41 type  2   force =    -0.00110133   -1.10185965    0.30171457
     atom   42 type  2   force =     0.00006598   -0.58507741    0.62977687
     atom   43 type  2   force =    -0.00954164   -0.26815804    0.67681558
     atom   44 type  2   force =     0.07051490   -0.04071180    0.80622917
     atom   45 type  2   force =    -0.00051350    0.00029647    0.74069720
     atom   46 type  2   force =    -0.00202279    0.08166127    0.80671056
     atom   47 type  2   force =    -0.23473934    0.12790929    0.67625891
     atom   48 type  2   force =    -0.31577637    0.05840149    0.86656403
     atom   49 type  2   force =    -0.72156689   -0.18345320    0.96404639
     atom   50 type  2   force =    -0.42699017   -0.25032757    0.87402994
     atom   51 type  2   force =    -0.52311615   -0.52920646    0.96331504
     atom   52 type  2   force =    -0.10518367   -0.30585789    0.86652390
     The core correction contribution to forces
     atom    1 type  1   force =     0.00000000    0.00000000    0.00000000
     atom    2 type  1   force =     0.00000000    0.00000000    0.00000000
     atom    3 type  2   force =    -0.00022103    0.00012761    0.00023303
     atom    4 type  2   force =     0.00015225   -0.00014635    0.00037113
     atom    5 type  2   force =    -0.00017434   -0.00015565    0.00030115
     atom    6 type  2   force =     0.00022775    0.00012809    0.00012564
     atom    7 type  2   force =    -0.00021583   -0.00005789    0.00030136
     atom    8 type  2   force =    -0.00005851    0.00018831    0.00037049
     atom    9 type  2   force =     0.00000505   -0.00022538    0.00023249
     atom   10 type  2   force =     0.00001585   -0.00000573    0.00031673
     atom   11 type  2   force =    -0.00014914   -0.00005661    0.00024497
     atom   12 type  2   force =     0.00003209   -0.00001853    0.00031685
     atom   13 type  2   force =    -0.00002555    0.00015747    0.00024497
     atom   14 type  2   force =     0.00002781   -0.00035989    0.00041739
     atom   15 type  2   force =    -0.00046994    0.00031054    0.00014296
     atom   16 type  2   force =     0.00097276   -0.00056407   -0.00077552
     atom   17 type  2   force =    -0.00040933   -0.00022732    0.00009649
     atom   18 type  2   force =    -0.00000528    0.00110808   -0.00077596
     atom   19 type  2   force =     0.00003985   -0.00053881    0.00014278
     atom   20 type  2   force =    -0.00030789    0.00017776    0.00041654
     atom   21 type  2   force =     0.00012606   -0.00007278    0.00024408
     atom   22 type  2   force =     0.00001289   -0.00001087    0.00031673
     atom   23 type  2   force =     0.00019771    0.00010832    0.00023249
     atom   24 type  2   force =    -0.00012164   -0.00013815    0.00037073
     atom   25 type  2   force =     0.00042401    0.00030358    0.00014311
     atom   26 type  2   force =    -0.00093461   -0.00056801   -0.00077904
     atom   27 type  2   force =    -0.00002101    0.00347027    0.00266411
     atom   28 type  3   force =     0.00000368   -0.00000212    0.03940002
     atom   29 type  2   force =     0.00299927   -0.00173163    0.00266028
     atom   30 type  2   force =    -0.00096226   -0.00054947   -0.00077596
     atom   31 type  2   force =     0.00048655    0.00023489    0.00014278
     atom   32 type  2   force =    -0.00019233   -0.00004348    0.00037049
     atom   33 type  2   force =    -0.00005778    0.00021587    0.00030136
     atom   34 type  2   force =     0.00011712    0.00008415    0.00019152
     atom   35 type  2   force =     0.00016844   -0.00017644    0.00030054
     atom   36 type  2   force =    -0.00023038    0.00013301    0.00012602
     atom   37 type  2   force =     0.00039355   -0.00022721    0.00009623
     atom   38 type  2   force =     0.00002460    0.00109340   -0.00077904
     atom   39 type  2   force =    -0.00301585   -0.00171694    0.00266411
     atom   40 type  2   force =     0.00097488   -0.00056041   -0.00077552
     atom   41 type  2   force =    -0.00000779    0.00046815    0.00009649
     atom   42 type  2   force =     0.00000294   -0.00026129    0.00012564
     atom   43 type  2   force =     0.00004762    0.00022881    0.00030115
     atom   44 type  2   force =    -0.00012119    0.00006997    0.00019163
     atom   45 type  2   force =     0.00000048   -0.00000028    0.00025785
     atom   46 type  2   force =    -0.00001432   -0.00014351    0.00019152
     atom   47 type  2   force =     0.00023702   -0.00005765    0.00030054
     atom   48 type  2   force =     0.00005882    0.00017442    0.00037073
     atom   49 type  2   force =    -0.00005090   -0.00051899    0.00014311
     atom   50 type  2   force =     0.00032558    0.00015586    0.00041739
     atom   51 type  2   force =    -0.00050391    0.00025171    0.00014296
     atom   52 type  2   force =     0.00020287   -0.00005867    0.00037113
     The Hubbard contrib.    to forces
     atom    1 type  1   force =     0.00000000    0.00000000    0.00000000
     atom    2 type  1   force =     0.00000000    0.00000000    0.00000000
     atom    3 type  2   force =     0.00000000    0.00000000    0.00000000
     atom    4 type  2   force =     0.00000000    0.00000000    0.00000000
     atom    5 type  2   force =     0.00000000    0.00000000    0.00000000
     atom    6 type  2   force =     0.00000000    0.00000000    0.00000000
     atom    7 type  2   force =     0.00000000    0.00000000    0.00000000
     atom    8 type  2   force =     0.00000000    0.00000000    0.00000000
     atom    9 type  2   force =     0.00000000    0.00000000    0.00000000
     atom   10 type  2   force =     0.00000000    0.00000000    0.00000000
     atom   11 type  2   force =     0.00000000    0.00000000    0.00000000
     atom   12 type  2   force =     0.00000000    0.00000000    0.00000000
     atom   13 type  2   force =     0.00000000    0.00000000    0.00000000
     atom   14 type  2   force =     0.00000000    0.00000000    0.00000000
     atom   15 type  2   force =     0.00000000    0.00000000    0.00000000
     atom   16 type  2   force =     0.00000000    0.00000000    0.00000000
     atom   17 type  2   force =     0.00000000    0.00000000    0.00000000
     atom   18 type  2   force =     0.00000000    0.00000000    0.00000000
     atom   19 type  2   force =     0.00000000    0.00000000    0.00000000
     atom   20 type  2   force =     0.00000000    0.00000000    0.00000000
     atom   21 type  2   force =     0.00000000    0.00000000    0.00000000
     atom   22 type  2   force =     0.00000000    0.00000000    0.00000000
     atom   23 type  2   force =     0.00000000    0.00000000    0.00000000
     atom   24 type  2   force =     0.00000000    0.00000000    0.00000000
     atom   25 type  2   force =     0.00000000    0.00000000    0.00000000
     atom   26 type  2   force =     0.00000000    0.00000000    0.00000000
     atom   27 type  2   force =     0.00000000    0.00000000    0.00000000
     atom   28 type  3   force =     0.00000000    0.00000000    0.00000000
     atom   29 type  2   force =     0.00000000    0.00000000    0.00000000
     atom   30 type  2   force =     0.00000000    0.00000000    0.00000000
     atom   31 type  2   force =     0.00000000    0.00000000    0.00000000
     atom   32 type  2   force =     0.00000000    0.00000000    0.00000000
     atom   33 type  2   force =     0.00000000    0.00000000    0.00000000
     atom   34 type  2   force =     0.00000000    0.00000000    0.00000000
     atom   35 type  2   force =     0.00000000    0.00000000    0.00000000
     atom   36 type  2   force =     0.00000000    0.00000000    0.00000000
     atom   37 type  2   force =     0.00000000    0.00000000    0.00000000
     atom   38 type  2   force =     0.00000000    0.00000000    0.00000000
     atom   39 type  2   force =     0.00000000    0.00000000    0.00000000
     atom   40 type  2   force =     0.00000000    0.00000000    0.00000000
     atom   41 type  2   force =     0.00000000    0.00000000    0.00000000
     atom   42 type  2   force =     0.00000000    0.00000000    0.00000000
     atom   43 type  2   force =     0.00000000    0.00000000    0.00000000
     atom   44 type  2   force =     0.00000000    0.00000000    0.00000000
     atom   45 type  2   force =     0.00000000    0.00000000    0.00000000
     atom   46 type  2   force =     0.00000000    0.00000000    0.00000000
     atom   47 type  2   force =     0.00000000    0.00000000    0.00000000
     atom   48 type  2   force =     0.00000000    0.00000000    0.00000000
     atom   49 type  2   force =     0.00000000    0.00000000    0.00000000
     atom   50 type  2   force =     0.00000000    0.00000000    0.00000000
     atom   51 type  2   force =     0.00000000    0.00000000    0.00000000
     atom   52 type  2   force =     0.00000000    0.00000000    0.00000000
     The SCF correction term to forces
     atom    1 type  1   force =     0.00000002   -0.00000001   -0.00000000
     atom    2 type  1   force =     0.00000002   -0.00000001    0.00000001
     atom    3 type  2   force =    -0.00000004    0.00000002   -0.00000001
     atom    4 type  2   force =    -0.00000001   -0.00000005   -0.00000001
     atom    5 type  2   force =    -0.00000004   -0.00000005   -0.00000001
     atom    6 type  2   force =    -0.00000010   -0.00000005   -0.00000001
     atom    7 type  2   force =    -0.00000009    0.00000001   -0.00000001
     atom    8 type  2   force =    -0.00000012   -0.00000002   -0.00000002
     atom    9 type  2   force =    -0.00000003    0.00000004   -0.00000001
     atom   10 type  2   force =    -0.00000006   -0.00000000   -0.00000002
     atom   11 type  2   force =     0.00000002   -0.00000013   -0.00000001
     atom   12 type  2   force =     0.00000004   -0.00000002   -0.00000002
     atom   13 type  2   force =     0.00000012    0.00000005   -0.00000001
     atom   14 type  2   force =     0.00000006   -0.00000003   -0.00000000
     atom   15 type  2   force =     0.00000009   -0.00000015   -0.00000001
     atom   16 type  2   force =     0.00000007   -0.00000010    0.00000000
     atom   17 type  2   force =    -0.00000009   -0.00000006    0.00000001
     atom   18 type  2   force =    -0.00000006   -0.00000003    0.00000002
     atom   19 type  2   force =    -0.00000018   -0.00000006   -0.00000002
     atom   20 type  2   force =    -0.00000012    0.00000007   -0.00000002
     atom   21 type  2   force =    -0.00000016    0.00000009   -0.00000002
     atom   22 type  2   force =    -0.00000003    0.00000006   -0.00000002
     atom   23 type  2   force =    -0.00000005    0.00000001   -0.00000001
     atom   24 type  2   force =    -0.00000001    0.00000002   -0.00000000
     atom   25 type  2   force =    -0.00000001    0.00000001    0.00000001
     atom   26 type  2   force =     0.00000008   -0.00000008    0.00000003
     atom   27 type  2   force =     0.00000017   -0.00000012    0.00000004
     atom   28 type  3   force =     0.00000037   -0.00000021    0.00000037
     atom   29 type  2   force =     0.00000006   -0.00000004    0.00000004
     atom   30 type  2   force =    -0.00000000    0.00000007    0.00000002
     atom   31 type  2   force =    -0.00000004    0.00000018   -0.00000002
     atom   32 type  2   force =    -0.00000004    0.00000011   -0.00000002
     atom   33 type  2   force =    -0.00000006    0.00000007   -0.00000001
     atom   34 type  2   force =    -0.00000002    0.00000006   -0.00000001
     atom   35 type  2   force =     0.00000001    0.00000002   -0.00000000
     atom   36 type  2   force =     0.00000001   -0.00000001    0.00000000
     atom   37 type  2   force =     0.00000002   -0.00000001    0.00000002
     atom   38 type  2   force =     0.00000010   -0.00000003    0.00000003
     atom   39 type  2   force =     0.00000019   -0.00000009    0.00000004
     atom   40 type  2   force =     0.00000012   -0.00000001    0.00000000
     atom   41 type  2   force =     0.00000001    0.00000011    0.00000001
     atom   42 type  2   force =    -0.00000001    0.00000011   -0.00000001
     atom   43 type  2   force =     0.00000002    0.00000006   -0.00000001
     atom   44 type  2   force =    -0.00000003    0.00000002   -0.00000001
     atom   45 type  2   force =    -0.00000004    0.00000002   -0.00000001
     atom   46 type  2   force =    -0.00000006   -0.00000001   -0.00000001
     atom   47 type  2   force =    -0.00000001   -0.00000002   -0.00000000
     atom   48 type  2   force =    -0.00000002    0.00000000   -0.00000000
     atom   49 type  2   force =    -0.00000001    0.00000001    0.00000001
     atom   50 type  2   force =     0.00000006   -0.00000004   -0.00000000
     atom   51 type  2   force =     0.00000017   -0.00000000   -0.00000001
     atom   52 type  2   force =     0.00000004    0.00000003   -0.00000001

     Total force =     0.010078     Total SCF correction =     0.000001

     number of scf cycles    =  50
     number of bfgs steps    =  49

     energy   old            =    -756.4304905346 Ry
     energy   new            =    -756.4306087085 Ry

     CASE: energy  _new < energy  _old

     new trust radius        =       0.0098708637 bohr
     new conv_thr            =            1.2E-12 Ry

ATOMIC_POSITIONS (angstrom)
H        2.463625166   5.694325791   3.697743424
H        2.466438365   5.692701589   4.451543150
C        0.000769327  -0.000444171  -0.215545220
C       -0.005471601   1.418230424  -0.179272607
C       -1.235374716   2.133106849  -0.171226088
C       -1.234154528   3.557573178  -0.113351775
C       -2.468277199   4.268444909  -0.171233776
C       -2.472466203   5.691247609  -0.179274588
C       -3.697995642   6.405966321  -0.215566629
C       -3.697793441   7.828265579  -0.223204505
C       -4.929242612   8.540996496  -0.215323256
C       -4.930492917   9.963321856  -0.223217381
C        2.465145505  -0.001648924  -0.215323256
C        2.465378219   1.416248179  -0.147333757
C        1.225248241   2.121192366  -0.104143497
C        1.221372378   3.529329645   0.087602364
C       -0.010819201   4.263674659   0.045627024
C       -0.030869808   5.698189400   0.087591220
C       -1.248187720   6.405470703  -0.104088928
C       -1.238765361   7.831901958  -0.147260237
C       -2.466862422   8.540944127  -0.215265411
C       -2.465130204   9.963300934  -0.223204505
C        4.929759359  -0.000424991  -0.215566629
C        4.936055415   1.418130069  -0.179305990
C        3.705294086   2.121230286  -0.104184074
C        3.709224770   3.529291155   0.087559458
C        2.465305330   4.162813308   0.334886847
V        2.465374733   5.693315678   1.425961853
C        1.139898433   6.458579776   0.334974099
C        1.213031696   7.852690004   0.087591220
C       -0.008150837   8.553277588  -0.104088928
C       -0.001754735   9.970645403  -0.179274588
C        7.395766425   0.003368304  -0.171233776
C        7.397878883   1.424459769  -0.203070398
C        6.166084764   2.133194591  -0.171220515
C        6.164709833   3.557503562  -0.113335904
C        4.941502251   4.263722788   0.045571822
C        4.961399963   5.698122208   0.087559458
C        3.790793965   6.458626967   0.334886847
C        3.717440434   7.852646336   0.087602364
C        2.465383206   8.552583039   0.045627024
C        2.465217364   9.965073250  -0.113351775
C        9.861474672   0.003312463  -0.171226088
C        9.859083351   1.424556017  -0.203055314
C        8.628609570   2.134970386  -0.208975925
C        8.628564470   3.556069735  -0.203070398
C        7.398885050   4.268467322  -0.171220515
C        7.403134417   5.691236247  -0.179305990
C        6.178851103   6.405556714  -0.104184074
C        6.169425584   7.831846408  -0.147333757
C        4.938861020   8.553358379  -0.104143497
C        4.932284000   9.970673999  -0.179272607

     Writing output data file vanadio-top-2.1.save/
     NEW-OLD atomic charge density approx. for the potential

     Check: negative core charge=   -0.000002

     negative rho (up, down):  1.072E-03 2.570E-03

     Writing output data file vanadio-top-2.1.save/

     General routines

     Parallel routines

   This run was terminated on:   1:19:35  24Oct2022

   JOB DONE.