     Program PWSCF v.6.4.1 starts on 14Nov2022 at 22: 6:58

     R & G space division:  proc/nbgrp/npool/nimage =       6
     Reading input from distance-4.0.in

     Current dimensions of program PWSCF are:
     Max number of different atomic species (ntypx) = 10
     Max number of k-points (npk) =  40000
     Max angular momentum in pseudopotentials (lmaxx) =  3

     IMPORTANT: XC functional enforced from input :
     Exchange-correlation      = RVV10 ( 1  4 13  4 3 0)
     Any further DFT definition will be discarded
     Please, verify this is what you really want

               file H.pbe-rrkjus.UPF: wavefunction(s)  1S renormalized

     Subspace diagonalization in iterative solution of the eigenvalue problem:
     a serial algorithm will be used

     bravais-lattice index     =            4
     lattice parameter (alat)  =      23.2937  a.u.
     unit-cell volume          =    8879.8548 (a.u.)^3
     number of atoms/cell      =           52
     number of atomic types    =            3
     number of electrons       =       214.00
     number of Kohn-Sham states=          128
     kinetic-energy cutoff     =      70.0000  Ry
     charge density cutoff     =     490.0000  Ry
     convergence threshold     =      1.0E-06
     mixing beta               =       0.3000
     number of iterations used =            4  plain     mixing
     Exchange-correlation      = RVV10 ( 1  4 13  4 3 0)

     celldm(1)=  23.293684  celldm(2)=   0.000000  celldm(3)=   0.811261
     celldm(4)=   0.000000  celldm(5)=   0.000000  celldm(6)=   0.000000

     crystal axes: (cart. coord. in units of alat)
               a(1) = (   1.000000   0.000000   0.000000 )
               a(2) = (  -0.500000   0.866025   0.000000 )
               a(3) = (   0.000000   0.000000   0.811261 )

     reciprocal axes: (cart. coord. in units 2 pi/alat)
               b(1) = (  1.000000  0.577350 -0.000000 )
               b(2) = (  0.000000  1.154701  0.000000 )
               b(3) = (  0.000000 -0.000000  1.232649 )

     PseudoPot. # 1 for H  read from file:
     /home/cristian/Escritorio/Proyecto_Grafeno/pseudopotenciales/H.pbe-rrkjus.UPF
     MD5 check sum: 7cc9d459525c9a0585f487a71c3c9563
     Pseudo is Ultrasoft, Zval =  1.0
     Generated by new atomic code, or converted to UPF format
     Using radial grid of 1061 points,  2 beta functions with:
                l(1) =   0
                l(2) =   0
     Q(r) pseudized with 0 coefficients

     PseudoPot. # 2 for C  read from file:
     /home/cristian/Escritorio/Proyecto_Grafeno/pseudopotenciales/C.pbe-n-rrkjus_psl.1.0.0.UPF
     MD5 check sum: 1fdd950c42eb37d8afe3dd2f8d12311e
     Pseudo is Ultrasoft + core correction, Zval =  4.0
     Generated using "atomic" code by A. Dal Corso v.6.3MaX
     Using radial grid of 1073 points,  4 beta functions with:
                l(1) =   0
                l(2) =   0
                l(3) =   1
                l(4) =   1
     Q(r) pseudized with 0 coefficients

     PseudoPot. # 3 for Fe read from file:
     /home/cristian/Escritorio/Proyecto_Grafeno/pseudopotenciales/Fe.pbe-spn-rrkjus_psl.1.0.0.UPF
     MD5 check sum: 72ea77fed8e64ab3a2ccf2804dfc1862
     Pseudo is Ultrasoft + core correction, Zval = 16.0
     Generated using "atomic" code by A. Dal Corso v.6.3
     Using radial grid of 1191 points,  6 beta functions with:
                l(1) =   0
                l(2) =   0
                l(3) =   1
                l(4) =   1
                l(5) =   2
                l(6) =   2
     Q(r) pseudized with 0 coefficients

     vdW kernel table read from file rVV10_kernel_table
     MD5 check sum: b8e2538accc0c0b3206b45ba4daaba6c

     atomic species   valence    mass     pseudopotential
        H              1.00     1.00794     H ( 1.00)
        C              4.00    12.01070     C ( 1.00)
        Fe            16.00    55.84500     Fe( 1.00)

     Starting magnetic structure
     atomic species   magnetization
        H            0.500
        C            0.300
        Fe           0.800

      2 Sym. Ops. (no inversion) found

                                    s                        frac. trans.

      isym =  1     identity

 cryst.   s( 1) = (     1          0          0      )
                  (     0          1          0      )
                  (     0          0          1      )

 cart.    s( 1) = (  1.0000000  0.0000000  0.0000000 )
                  (  0.0000000  1.0000000  0.0000000 )
                  (  0.0000000  0.0000000  1.0000000 )

      isym =  2     inv. 180 deg rotation - cryst. axis [1,1,0]

 cryst.   s( 2) = (     0         -1          0      )
                  (    -1          0          0      )
                  (     0          0          1      )

 cart.    s( 2) = (  0.5000000 -0.8660254  0.0000000 )
                  ( -0.8660254 -0.5000000  0.0000000 )
                  (  0.0000000  0.0000000  1.0000000 )

     point group C_s (m)
     there are  2 classes
     the character table:

       E     s
A'     1.00  1.00
A''    1.00 -1.00

     the symmetry operations in each class and the name of the first element:

     E        1
          identity
     s        2
          inv. 180 deg rotation - cryst. axis [1,1,0]

   Cartesian axes

     site n.     atom                  positions (alat units)
         1           H   tau(   1) = (   0.2500000   0.4330127   0.3245045  )
         2           H   tau(   2) = (   0.2500000   0.4330127   0.3855171  )
         3           C   tau(   3) = (   0.0000000   0.0000000   0.0000000  )
         4           C   tau(   4) = (   0.0000000   0.1154701   0.0000000  )
         5           C   tau(   5) = (  -0.1000000   0.1732051   0.0000000  )
         6           C   tau(   6) = (  -0.1000000   0.2886751   0.0000000  )
         7           C   tau(   7) = (  -0.2000000   0.3464102   0.0000000  )
         8           C   tau(   8) = (  -0.2000000   0.4618802   0.0000000  )
         9           C   tau(   9) = (  -0.3000000   0.5196152   0.0000000  )
        10           C   tau(  10) = (  -0.3000000   0.6350853   0.0000000  )
        11           C   tau(  11) = (  -0.4000000   0.6928203   0.0000000  )
        12           C   tau(  12) = (  -0.4000000   0.8082904   0.0000000  )
        13           C   tau(  13) = (   0.2000000   0.0000000   0.0000000  )
        14           C   tau(  14) = (   0.2000000   0.1154701   0.0000000  )
        15           C   tau(  15) = (   0.1000000   0.1732051   0.0000000  )
        16           C   tau(  16) = (   0.1000000   0.2886751   0.0000000  )
        17           C   tau(  17) = (   0.0000000   0.3464102   0.0000000  )
        18           C   tau(  18) = (   0.0000000   0.4618802   0.0000000  )
        19           C   tau(  19) = (  -0.1000000   0.5196152   0.0000000  )
        20           C   tau(  20) = (  -0.1000000   0.6350853   0.0000000  )
        21           C   tau(  21) = (  -0.2000000   0.6928203   0.0000000  )
        22           C   tau(  22) = (  -0.2000000   0.8082904   0.0000000  )
        23           C   tau(  23) = (   0.4000000   0.0000000   0.0000000  )
        24           C   tau(  24) = (   0.4000000   0.1154701   0.0000000  )
        25           C   tau(  25) = (   0.3000000   0.1732051   0.0000000  )
        26           C   tau(  26) = (   0.3000000   0.2886751   0.0000000  )
        27           C   tau(  27) = (   0.2000000   0.3464102   0.0000000  )
        28           Fe  tau(  28) = (   0.2000000   0.4618802   0.0000000  )
        29           C   tau(  29) = (   0.1000000   0.5196152   0.0000000  )
        30           C   tau(  30) = (   0.1000000   0.6350853   0.0000000  )
        31           C   tau(  31) = (   0.0000000   0.6928203   0.0000000  )
        32           C   tau(  32) = (   0.0000000   0.8082904   0.0000000  )
        33           C   tau(  33) = (   0.6000000   0.0000000   0.0000000  )
        34           C   tau(  34) = (   0.6000000   0.1154701   0.0000000  )
        35           C   tau(  35) = (   0.5000000   0.1732051   0.0000000  )
        36           C   tau(  36) = (   0.5000000   0.2886751   0.0000000  )
        37           C   tau(  37) = (   0.4000000   0.3464102   0.0000000  )
        38           C   tau(  38) = (   0.4000000   0.4618802   0.0000000  )
        39           C   tau(  39) = (   0.3000000   0.5196152   0.0000000  )
        40           C   tau(  40) = (   0.3000000   0.6350853   0.0000000  )
        41           C   tau(  41) = (   0.2000000   0.6928203   0.0000000  )
        42           C   tau(  42) = (   0.2000000   0.8082904   0.0000000  )
        43           C   tau(  43) = (   0.8000000   0.0000000   0.0000000  )
        44           C   tau(  44) = (   0.8000000   0.1154701   0.0000000  )
        45           C   tau(  45) = (   0.7000000   0.1732051   0.0000000  )
        46           C   tau(  46) = (   0.7000000   0.2886751   0.0000000  )
        47           C   tau(  47) = (   0.6000000   0.3464102   0.0000000  )
        48           C   tau(  48) = (   0.6000000   0.4618802   0.0000000  )
        49           C   tau(  49) = (   0.5000000   0.5196152   0.0000000  )
        50           C   tau(  50) = (   0.5000000   0.6350853   0.0000000  )
        51           C   tau(  51) = (   0.4000000   0.6928203   0.0000000  )
        52           C   tau(  52) = (   0.4000000   0.8082904   0.0000000  )

   Crystallographic axes

     site n.     atom                  positions (cryst. coord.)
         1           H   tau(   1) = (  0.5000000  0.5000000  0.4000000  )
         2           H   tau(   2) = (  0.5000000  0.5000000  0.4752072  )
         3           C   tau(   3) = (  0.0000000  0.0000000  0.0000000  )
         4           C   tau(   4) = (  0.0666667  0.1333333  0.0000000  )
         5           C   tau(   5) = (  0.0000000  0.2000000  0.0000000  )
         6           C   tau(   6) = (  0.0666667  0.3333333  0.0000000  )
         7           C   tau(   7) = (  0.0000000  0.4000000  0.0000000  )
         8           C   tau(   8) = (  0.0666667  0.5333333  0.0000000  )
         9           C   tau(   9) = (  0.0000000  0.6000000  0.0000000  )
        10           C   tau(  10) = (  0.0666667  0.7333333  0.0000000  )
        11           C   tau(  11) = (  0.0000000  0.8000000  0.0000000  )
        12           C   tau(  12) = (  0.0666667  0.9333333  0.0000000  )
        13           C   tau(  13) = (  0.2000000  0.0000000  0.0000000  )
        14           C   tau(  14) = (  0.2666667  0.1333333  0.0000000  )
        15           C   tau(  15) = (  0.2000000  0.2000000  0.0000000  )
        16           C   tau(  16) = (  0.2666667  0.3333333  0.0000000  )
        17           C   tau(  17) = (  0.2000000  0.4000000  0.0000000  )
        18           C   tau(  18) = (  0.2666667  0.5333333  0.0000000  )
        19           C   tau(  19) = (  0.2000000  0.6000000  0.0000000  )
        20           C   tau(  20) = (  0.2666667  0.7333333  0.0000000  )
        21           C   tau(  21) = (  0.2000000  0.8000000  0.0000000  )
        22           C   tau(  22) = (  0.2666667  0.9333333  0.0000000  )
        23           C   tau(  23) = (  0.4000000  0.0000000  0.0000000  )
        24           C   tau(  24) = (  0.4666667  0.1333333  0.0000000  )
        25           C   tau(  25) = (  0.4000000  0.2000000  0.0000000  )
        26           C   tau(  26) = (  0.4666667  0.3333333  0.0000000  )
        27           C   tau(  27) = (  0.4000000  0.4000000  0.0000000  )
        28           Fe  tau(  28) = (  0.4666667  0.5333333  0.0000000  )
        29           C   tau(  29) = (  0.4000000  0.6000000  0.0000000  )
        30           C   tau(  30) = (  0.4666667  0.7333333  0.0000000  )
        31           C   tau(  31) = (  0.4000000  0.8000000  0.0000000  )
        32           C   tau(  32) = (  0.4666667  0.9333333  0.0000000  )
        33           C   tau(  33) = (  0.6000000  0.0000000  0.0000000  )
        34           C   tau(  34) = (  0.6666667  0.1333333  0.0000000  )
        35           C   tau(  35) = (  0.6000000  0.2000000  0.0000000  )
        36           C   tau(  36) = (  0.6666667  0.3333333  0.0000000  )
        37           C   tau(  37) = (  0.6000000  0.4000000  0.0000000  )
        38           C   tau(  38) = (  0.6666667  0.5333333  0.0000000  )
        39           C   tau(  39) = (  0.6000000  0.6000000  0.0000000  )
        40           C   tau(  40) = (  0.6666667  0.7333333  0.0000000  )
        41           C   tau(  41) = (  0.6000000  0.8000000  0.0000000  )
        42           C   tau(  42) = (  0.6666667  0.9333333  0.0000000  )
        43           C   tau(  43) = (  0.8000000  0.0000000  0.0000000  )
        44           C   tau(  44) = (  0.8666667  0.1333333  0.0000000  )
        45           C   tau(  45) = (  0.8000000  0.2000000  0.0000000  )
        46           C   tau(  46) = (  0.8666667  0.3333333  0.0000000  )
        47           C   tau(  47) = (  0.8000000  0.4000000  0.0000000  )
        48           C   tau(  48) = (  0.8666667  0.5333333  0.0000000  )
        49           C   tau(  49) = (  0.8000000  0.6000000  0.0000000  )
        50           C   tau(  50) = (  0.8666667  0.7333333  0.0000000  )
        51           C   tau(  51) = (  0.8000000  0.8000000  0.0000000  )
        52           C   tau(  52) = (  0.8666667  0.9333333  0.0000000  )

     number of k points=     1  Marzari-Vanderbilt smearing, width (Ry)=  0.0010
                       cart. coord. in units 2pi/alat
        k(    1) = (   0.0000000   0.0000000   0.0000000), wk =   1.0000000

                       cryst. coord.
        k(    1) = (   0.0000000   0.0000000   0.0000000), wk =   1.0000000

     Check: negative core charge=   -0.000002

     Initial potential from superposition of free atoms

     starting charge  213.80512, renormalised to  214.00000

     negative rho (up, down):  6.306E-05 9.264E-03

Carrying out rVV10 run using the following parameters:
Nqs =      20    Nr_points =    1024   r_max =   100.000
b_value =  6.30000    beta =  0.00901
     q_mesh =  0.00010000  0.00030000  0.00058939  0.00100810
               0.00161396  0.00249058  0.00375900  0.00559430
               0.00824984  0.01209221  0.01765183  0.02569619
               0.03733578  0.05417739  0.07854596  0.11380545
               0.16482331  0.23864234  0.34545298  0.50000000

Gradients computed in Reciprocal space

     Starting wfcs are  208 randomized atomic wfcs

     Self-consistent Calculation

     iteration #  1     ecut=    70.00 Ry     beta= 0.30
     Davidson diagonalization with overlap
     ethr =  1.00E-02,  avg # of iterations =  2.5

[...]

     total energy              =    -858.10903412 Ry
     Harris-Foulkes estimate   =    -858.63140347 Ry
     estimated scf accuracy    <      10.05976932 Ry

     total magnetization       =     6.00 Bohr mag/cell
     absolute magnetization    =     6.66 Bohr mag/cell

[...]

     total energy              =    -860.05422870 Ry
     Harris-Foulkes estimate   =    -860.05422961 Ry
     estimated scf accuracy    <       0.00000127 Ry

[...]

     iteration # 86     ecut=    70.00 Ry     beta= 0.30
     Davidson diagonalization with overlap
     ethr =  5.25E-10,  avg # of iterations =  2.0

     negative rho (up, down):  5.380E-04 7.574E-03

     Magnetic moment per site:
     atom:    1    charge:    0.2107    magn:   -0.0000    constr:    0.0000
     atom:    2    charge:    0.2119    magn:   -0.0000    constr:    0.0000
     atom:    3    charge:    1.7171    magn:   -0.0128    constr:    0.0000
     atom:    4    charge:    1.7153    magn:    0.0180    constr:    0.0000
     atom:    5    charge:    1.7177    magn:   -0.0088    constr:    0.0000
     atom:    6    charge:    1.7142    magn:    0.0059    constr:    0.0000
     atom:    7    charge:    1.7177    magn:   -0.0088    constr:    0.0000
     atom:    8    charge:    1.7153    magn:    0.0180    constr:    0.0000
     atom:    9    charge:    1.7171    magn:   -0.0129    constr:    0.0000
     atom:   10    charge:    1.7149    magn:    0.0589    constr:    0.0000
     atom:   11    charge:    1.7176    magn:   -0.0173    constr:    0.0000
     atom:   12    charge:    1.7149    magn:    0.0588    constr:    0.0000
     atom:   13    charge:    1.7176    magn:   -0.0173    constr:    0.0000
     atom:   14    charge:    1.7155    magn:    0.0460    constr:    0.0000
     atom:   15    charge:    1.7140    magn:   -0.0137    constr:    0.0000
     atom:   16    charge:    1.7106    magn:    0.0556    constr:    0.0000
     atom:   17    charge:    1.7228    magn:   -0.0124    constr:    0.0000
     atom:   18    charge:    1.7106    magn:    0.0556    constr:    0.0000
     atom:   19    charge:    1.7140    magn:   -0.0137    constr:    0.0000
     atom:   20    charge:    1.7155    magn:    0.0460    constr:    0.0000
     atom:   21    charge:    1.7176    magn:   -0.0173    constr:    0.0000
     atom:   22    charge:    1.7149    magn:    0.0589    constr:    0.0000
     atom:   23    charge:    1.7171    magn:   -0.0129    constr:    0.0000
     atom:   24    charge:    1.7153    magn:    0.0180    constr:    0.0000
     atom:   25    charge:    1.7140    magn:   -0.0137    constr:    0.0000
     atom:   26    charge:    1.7106    magn:    0.0556    constr:    0.0000
     atom:   27    charge:    1.8519    magn:   -0.0195    constr:    0.0000
     atom:   28    charge:   11.1425    magn:    0.4523    constr:    0.0000
     atom:   29    charge:    1.8518    magn:   -0.0194    constr:    0.0000
     atom:   30    charge:    1.7106    magn:    0.0556    constr:    0.0000
     atom:   31    charge:    1.7140    magn:   -0.0137    constr:    0.0000
     atom:   32    charge:    1.7153    magn:    0.0180    constr:    0.0000
     atom:   33    charge:    1.7177    magn:   -0.0088    constr:    0.0000
     atom:   34    charge:    1.7139    magn:    0.0128    constr:    0.0000
     atom:   35    charge:    1.7177    magn:   -0.0088    constr:    0.0000
     atom:   36    charge:    1.7142    magn:    0.0059    constr:    0.0000
     atom:   37    charge:    1.7229    magn:   -0.0124    constr:    0.0000
     atom:   38    charge:    1.7106    magn:    0.0556    constr:    0.0000
     atom:   39    charge:    1.8519    magn:   -0.0195    constr:    0.0000
     atom:   40    charge:    1.7106    magn:    0.0556    constr:    0.0000
     atom:   41    charge:    1.7228    magn:   -0.0124    constr:    0.0000
     atom:   42    charge:    1.7142    magn:    0.0059    constr:    0.0000
     atom:   43    charge:    1.7177    magn:   -0.0088    constr:    0.0000
     atom:   44    charge:    1.7139    magn:    0.0128    constr:    0.0000
     atom:   45    charge:    1.7236    magn:   -0.0056    constr:    0.0000
     atom:   46    charge:    1.7139    magn:    0.0128    constr:    0.0000
     atom:   47    charge:    1.7177    magn:   -0.0088    constr:    0.0000
     atom:   48    charge:    1.7153    magn:    0.0180    constr:    0.0000
     atom:   49    charge:    1.7140    magn:   -0.0137    constr:    0.0000
     atom:   50    charge:    1.7155    magn:    0.0460    constr:    0.0000
     atom:   51    charge:    1.7140    magn:   -0.0137    constr:    0.0000
     atom:   52    charge:    1.7153    magn:    0.0180    constr:    0.0000

     End of self-consistent calculation

 ------ SPIN UP ------------

          k = 0.0000 0.0000 0.0000 ( 87777 PWs)   bands (ev):

   -88.6944 -55.5827 -55.5822 -53.8675 -19.8879 -19.0531 -19.0528 -18.9666
   -18.9284 -18.9281 -18.5845 -17.1780 -17.1778 -17.1777 -17.1061 -17.1061
   -16.8006 -16.3315 -16.3315 -16.2298 -16.1779 -16.1779 -15.4864 -14.2336
   -14.2334 -14.1482 -14.1013 -14.1012 -13.4320 -13.1653 -13.1653 -13.1407
   -12.8607 -12.8607 -12.4519 -11.9440 -11.9439 -11.7558 -11.5085 -11.5084
   -10.6271  -9.7938  -9.7938  -9.5310  -9.4219  -9.4218  -9.3390  -9.3079
    -9.3078  -9.2950  -8.8289  -8.8288  -8.2858  -8.2857  -8.1970  -8.0352
    -7.9375  -7.5481  -7.5480  -7.3412  -7.2243  -7.2240  -7.0806  -7.0804
    -6.9466  -6.9233  -6.9231  -6.8127  -6.6700  -6.6698  -6.6396  -6.6270
    -6.6270  -6.5852  -6.5800  -6.2780  -5.7362  -5.7361  -5.6705  -5.6698
    -5.4816  -5.4816  -5.2761  -5.0925  -4.9824  -4.8452  -4.8186  -4.8184
    -4.5345  -4.5345  -4.5038  -4.3366  -4.3365  -3.9817  -3.9815  -3.8941
    -3.7860  -3.7860  -3.2095  -2.8965  -2.8964  -1.9778  -1.9079  -1.9077
    -1.3017  -1.3006  -1.0634  -0.8886   0.8199   0.8672   0.8675   1.3957
     1.3960   1.5058   2.3850   2.3858   2.5215   2.6622   2.6625   2.7621
     3.2961   3.2966   3.4170   3.6518   3.6801   3.7224   3.7462   3.8859

     occupation numbers
     1.0000   1.0000   1.0000   1.0000   1.0000   1.0000   1.0000   1.0000
     1.0000   1.0000   1.0000   1.0000   1.0000   1.0000   1.0000   1.0000
     1.0000   1.0000   1.0000   1.0000   1.0000   1.0000   1.0000   1.0000
     1.0000   1.0000   1.0000   1.0000   1.0000   1.0000   1.0000   1.0000
     1.0000   1.0000   1.0000   1.0000   1.0000   1.0000   1.0000   1.0000
     1.0000   1.0000   1.0000   1.0000   1.0000   1.0000   1.0000   1.0000
     1.0000   1.0000   1.0000   1.0000   1.0000   1.0000   1.0000   1.0000
     1.0000   1.0000   1.0000   1.0000   1.0000   1.0000   1.0000   1.0000
     1.0000   1.0000   1.0000   1.0000   1.0000   1.0000   1.0000   1.0000
     1.0000   1.0000   1.0000   1.0000   1.0000   1.0000   1.0000   1.0000
     1.0000   1.0000   1.0000   1.0000   1.0000   1.0000   1.0000   1.0000
     1.0000   1.0000   1.0000   1.0000   1.0000   1.0000   1.0000   1.0000
     1.0000   1.0000   1.0000   1.0000   1.0000   1.0000   1.0000   1.0000
     1.0000   1.0000   1.0000   1.0001   0.0000   0.0000   0.0000   0.0000
     0.0000   0.0000   0.0000   0.0000   0.0000   0.0000   0.0000   0.0000
     0.0000   0.0000   0.0000   0.0000   0.0000   0.0000   0.0000   0.0000

 ------ SPIN DOWN ----------

          k = 0.0000 0.0000 0.0000 ( 87777 PWs)   bands (ev):

   -87.9738 -54.9951 -54.9944 -52.9739 -19.8457 -19.0064 -19.0061 -18.9268
   -18.9019 -18.9016 -18.5256 -17.1499 -17.1413 -17.1412 -17.0522 -17.0521
   -16.7704 -16.2857 -16.2857 -16.1959 -16.1344 -16.1344 -15.4616 -14.1625
   -14.1623 -14.0908 -14.0907 -14.0855 -13.4396 -13.1401 -13.1401 -13.1082
   -12.8413 -12.8413 -12.4208 -11.9063 -11.9062 -11.7328 -11.4862 -11.4861
   -10.6041  -9.7450  -9.7449  -9.4989  -9.3896  -9.3895  -9.3216  -9.2841
    -9.2841  -9.2769  -8.8160  -8.8159  -8.2498  -8.2498  -8.1772  -7.9380
    -7.9200  -7.5332  -7.5331  -7.3089  -7.0601  -7.0601  -7.0343  -7.0343
    -6.8642  -6.8639  -6.8473  -6.7970  -6.6532  -6.6530  -6.6287  -6.6130
    -6.6130  -6.5619  -6.4514  -6.2762  -5.6906  -5.6904  -5.4393  -5.4393
    -5.4366  -5.4364  -5.1962  -5.0784  -4.9723  -4.7702  -4.7269  -4.7265
    -4.4511  -4.4508  -4.4309  -4.2107  -4.2106  -3.8474  -3.8470  -3.7987
    -3.7710  -3.7709  -3.1665  -2.6664  -2.6661  -1.8801  -1.8799  -1.8169
    -0.9076  -0.8521  -0.7923  -0.7922   0.9147   0.9150   0.9765   1.5515
     1.5516   1.6281   2.5321   2.5325   2.5362   2.8028   2.8032   2.8350
     3.4534   3.4548   3.5071   3.6692   3.6956   3.7320   3.7345   3.7525

     occupation numbers
     1.0000   1.0000   1.0000   1.0000   1.0000   1.0000   1.0000   1.0000
     1.0000   1.0000   1.0000   1.0000   1.0000   1.0000   1.0000   1.0000
     1.0000   1.0000   1.0000   1.0000   1.0000   1.0000   1.0000   1.0000
     1.0000   1.0000   1.0000   1.0000   1.0000   1.0000   1.0000   1.0000
     1.0000   1.0000   1.0000   1.0000   1.0000   1.0000   1.0000   1.0000
     1.0000   1.0000   1.0000   1.0000   1.0000   1.0000   1.0000   1.0000
     1.0000   1.0000   1.0000   1.0000   1.0000   1.0000   1.0000   1.0000
     1.0000   1.0000   1.0000   1.0000   1.0000   1.0000   1.0000   1.0000
     1.0000   1.0000   1.0000   1.0000   1.0000   1.0000   1.0000   1.0000
     1.0000   1.0000   1.0000   1.0000   1.0000   1.0000   1.0000   1.0000
     1.0000   1.0000   1.0000   1.0000   1.0000   1.0000   1.0000   1.0000
     1.0000   1.0000   1.0000   1.0000   1.0000   1.0000   1.0000   1.0000
     1.0000   1.0000   1.0000   1.0000   1.0000   1.0000   1.0000   1.0000
     1.0000   0.9999   0.0000   0.0000   0.0000   0.0000   0.0000   0.0000
     0.0000   0.0000   0.0000   0.0000   0.0000   0.0000   0.0000   0.0000
     0.0000   0.0000   0.0000   0.0000   0.0000   0.0000   0.0000   0.0000

     the Fermi energy is    -0.8396 ev

!    total energy              =    -860.05422997 Ry
     Harris-Foulkes estimate   =    -860.05422884 Ry
     estimated scf accuracy    <       0.00000093 Ry

     The total energy is the sum of the following terms:

     one-electron contribution =   -2780.29030534 Ry
     hartree contribution      =    1433.93211459 Ry
     xc contribution           =    -259.29933501 Ry
     ewald contribution        =     745.60321404 Ry
     smearing contrib. (-TS)   =       0.00008175 Ry

     total magnetization       =     2.00 Bohr mag/cell
     absolute magnetization    =     3.20 Bohr mag/cell

     convergence has been achieved in  86 iterations

     Writing output data file distance-4.0.save/

     General routines

     Parallel routines

   This run was terminated on:   0:16:42  15Nov2022

   JOB DONE.