     Program PWSCF v.6.4.1 starts on 16Nov2022 at  5:35: 5

     R & G space division:  proc/nbgrp/npool/nimage =       6
     Reading input from distance-2.6.in

     Current dimensions of program PWSCF are:
     Max number of different atomic species (ntypx) = 10
     Max number of k-points (npk) =  40000
     Max angular momentum in pseudopotentials (lmaxx) =  3

     IMPORTANT: XC functional enforced from input :
     Exchange-correlation      = RVV10 ( 1  4 13  4 3 0)
     Any further DFT definition will be discarded
     Please, verify this is what you really want

               file H.pbe-rrkjus.UPF: wavefunction(s)  1S renormalized

     Subspace diagonalization in iterative solution of the eigenvalue problem:
     a serial algorithm will be used

     bravais-lattice index     =            4
     lattice parameter (alat)  =      23.2937  a.u.
     unit-cell volume          =    8879.8548 (a.u.)^3
     number of atoms/cell      =           52
     number of atomic types    =            3
     number of electrons       =       214.00
     number of Kohn-Sham states=          128
     kinetic-energy cutoff     =      70.0000  Ry
     charge density cutoff     =     490.0000  Ry
     convergence threshold     =      1.0E-06
     mixing beta               =       0.3000
     number of iterations used =            4  plain     mixing
     Exchange-correlation      = RVV10 ( 1  4 13  4 3 0)

     celldm(1)=  23.293684  celldm(2)=   0.000000  celldm(3)=   0.811261
     celldm(4)=   0.000000  celldm(5)=   0.000000  celldm(6)=   0.000000

     crystal axes: (cart. coord. in units of alat)
               a(1) = (   1.000000   0.000000   0.000000 )
               a(2) = (  -0.500000   0.866025   0.000000 )
               a(3) = (   0.000000   0.000000   0.811261 )

     reciprocal axes: (cart. coord. in units 2 pi/alat)
               b(1) = (  1.000000  0.577350 -0.000000 )
               b(2) = (  0.000000  1.154701  0.000000 )
               b(3) = (  0.000000 -0.000000  1.232649 )

     PseudoPot. # 1 for H  read from file:
     /home/cristian/Escritorio/Proyecto_Grafeno/pseudopotenciales/H.pbe-rrkjus.UPF
     MD5 check sum: 7cc9d459525c9a0585f487a71c3c9563
     Pseudo is Ultrasoft, Zval =  1.0
     Generated by new atomic code, or converted to UPF format
     Using radial grid of 1061 points,  2 beta functions with:
                l(1) =   0
                l(2) =   0
     Q(r) pseudized with 0 coefficients

     PseudoPot. # 2 for C  read from file:
     /home/cristian/Escritorio/Proyecto_Grafeno/pseudopotenciales/C.pbe-n-rrkjus_psl.1.0.0.UPF
     MD5 check sum: 1fdd950c42eb37d8afe3dd2f8d12311e
     Pseudo is Ultrasoft + core correction, Zval =  4.0
     Generated using "atomic" code by A. Dal Corso v.6.3MaX
     Using radial grid of 1073 points,  4 beta functions with:
                l(1) =   0
                l(2) =   0
                l(3) =   1
                l(4) =   1
     Q(r) pseudized with 0 coefficients

     PseudoPot. # 3 for Fe read from file:
     /home/cristian/Escritorio/Proyecto_Grafeno/pseudopotenciales/Fe.pbe-spn-rrkjus_psl.1.0.0.UPF
     MD5 check sum: 72ea77fed8e64ab3a2ccf2804dfc1862
     Pseudo is Ultrasoft + core correction, Zval = 16.0
     Generated using "atomic" code by A. Dal Corso v.6.3
     Using radial grid of 1191 points,  6 beta functions with:
                l(1) =   0
                l(2) =   0
                l(3) =   1
                l(4) =   1
                l(5) =   2
                l(6) =   2
     Q(r) pseudized with 0 coefficients

     vdW kernel table read from file rVV10_kernel_table
     MD5 check sum: b8e2538accc0c0b3206b45ba4daaba6c

     atomic species   valence    mass     pseudopotential
        H              1.00     1.00794     H ( 1.00)
        C              4.00    12.01070     C ( 1.00)
        Fe            16.00    55.84500     Fe( 1.00)

     Starting magnetic structure
     atomic species   magnetization
        H            0.500
        C            0.300
        Fe           0.800

      2 Sym. Ops. (no inversion) found

                                    s                        frac. trans.

      isym =  1     identity

 cryst.   s( 1) = (     1          0          0      )
                  (     0          1          0      )
                  (     0          0          1      )

 cart.    s( 1) = (  1.0000000  0.0000000  0.0000000 )
                  (  0.0000000  1.0000000  0.0000000 )
                  (  0.0000000  0.0000000  1.0000000 )

      isym =  2     inv. 180 deg rotation - cryst. axis [1,1,0]

 cryst.   s( 2) = (     0         -1          0      )
                  (    -1          0          0      )
                  (     0          0          1      )

 cart.    s( 2) = (  0.5000000 -0.8660254  0.0000000 )
                  ( -0.8660254 -0.5000000  0.0000000 )
                  (  0.0000000  0.0000000  1.0000000 )

     point group C_s (m)
     there are  2 classes
     the character table:

       E     s
A'     1.00  1.00
A''    1.00 -1.00

     the symmetry operations in each class and the name of the first element:

     E        1
          identity
     s        2
          inv. 180 deg rotation - cryst. axis [1,1,0]

   Cartesian axes

     site n.     atom                  positions (alat units)
         1           H   tau(   1) = (   0.2500000   0.4330127   0.2109279  )
         2           H   tau(   2) = (   0.2500000   0.4330127   0.2719406  )
         3           C   tau(   3) = (   0.0000000   0.0000000   0.0000000  )
         4           C   tau(   4) = (   0.0000000   0.1154701   0.0000000  )
         5           C   tau(   5) = (  -0.1000000   0.1732051   0.0000000  )
         6           C   tau(   6) = (  -0.1000000   0.2886751   0.0000000  )
         7           C   tau(   7) = (  -0.2000000   0.3464102   0.0000000  )
         8           C   tau(   8) = (  -0.2000000   0.4618802   0.0000000  )
         9           C   tau(   9) = (  -0.3000000   0.5196152   0.0000000  )
        10           C   tau(  10) = (  -0.3000000   0.6350853   0.0000000  )
        11           C   tau(  11) = (  -0.4000000   0.6928203   0.0000000  )
        12           C   tau(  12) = (  -0.4000000   0.8082904   0.0000000  )
        13           C   tau(  13) = (   0.2000000   0.0000000   0.0000000  )
        14           C   tau(  14) = (   0.2000000   0.1154701   0.0000000  )
        15           C   tau(  15) = (   0.1000000   0.1732051   0.0000000  )
        16           C   tau(  16) = (   0.1000000   0.2886751   0.0000000  )
        17           C   tau(  17) = (   0.0000000   0.3464102   0.0000000  )
        18           C   tau(  18) = (   0.0000000   0.4618802   0.0000000  )
        19           C   tau(  19) = (  -0.1000000   0.5196152   0.0000000  )
        20           C   tau(  20) = (  -0.1000000   0.6350853   0.0000000  )
        21           C   tau(  21) = (  -0.2000000   0.6928203   0.0000000  )
        22           C   tau(  22) = (  -0.2000000   0.8082904   0.0000000  )
        23           C   tau(  23) = (   0.4000000   0.0000000   0.0000000  )
        24           C   tau(  24) = (   0.4000000   0.1154701   0.0000000  )
        25           C   tau(  25) = (   0.3000000   0.1732051   0.0000000  )
        26           C   tau(  26) = (   0.3000000   0.2886751   0.0000000  )
        27           C   tau(  27) = (   0.2000000   0.3464102   0.0000000  )
        28           Fe  tau(  28) = (   0.2000000   0.4618802   0.0000000  )
        29           C   tau(  29) = (   0.1000000   0.5196152   0.0000000  )
        30           C   tau(  30) = (   0.1000000   0.6350853   0.0000000  )
        31           C   tau(  31) = (   0.0000000   0.6928203   0.0000000  )
        32           C   tau(  32) = (   0.0000000   0.8082904   0.0000000  )
        33           C   tau(  33) = (   0.6000000   0.0000000   0.0000000  )
        34           C   tau(  34) = (   0.6000000   0.1154701   0.0000000  )
        35           C   tau(  35) = (   0.5000000   0.1732051   0.0000000  )
        36           C   tau(  36) = (   0.5000000   0.2886751   0.0000000  )
        37           C   tau(  37) = (   0.4000000   0.3464102   0.0000000  )
        38           C   tau(  38) = (   0.4000000   0.4618802   0.0000000  )
        39           C   tau(  39) = (   0.3000000   0.5196152   0.0000000  )
        40           C   tau(  40) = (   0.3000000   0.6350853   0.0000000  )
        41           C   tau(  41) = (   0.2000000   0.6928203   0.0000000  )
        42           C   tau(  42) = (   0.2000000   0.8082904   0.0000000  )
        43           C   tau(  43) = (   0.8000000   0.0000000   0.0000000  )
        44           C   tau(  44) = (   0.8000000   0.1154701   0.0000000  )
        45           C   tau(  45) = (   0.7000000   0.1732051   0.0000000  )
        46           C   tau(  46) = (   0.7000000   0.2886751   0.0000000  )
        47           C   tau(  47) = (   0.6000000   0.3464102   0.0000000  )
        48           C   tau(  48) = (   0.6000000   0.4618802   0.0000000  )
        49           C   tau(  49) = (   0.5000000   0.5196152   0.0000000  )
        50           C   tau(  50) = (   0.5000000   0.6350853   0.0000000  )
        51           C   tau(  51) = (   0.4000000   0.6928203   0.0000000  )
        52           C   tau(  52) = (   0.4000000   0.8082904   0.0000000  )

   Crystallographic axes

     site n.     atom                  positions (cryst. coord.)
         1           H   tau(   1) = (  0.5000000  0.5000000  0.2600000  )
         2           H   tau(   2) = (  0.5000000  0.5000000  0.3352072  )
         3           C   tau(   3) = (  0.0000000  0.0000000  0.0000000  )
         4           C   tau(   4) = (  0.0666667  0.1333333  0.0000000  )
         5           C   tau(   5) = (  0.0000000  0.2000000  0.0000000  )
         6           C   tau(   6) = (  0.0666667  0.3333333  0.0000000  )
         7           C   tau(   7) = (  0.0000000  0.4000000  0.0000000  )
         8           C   tau(   8) = (  0.0666667  0.5333333  0.0000000  )
         9           C   tau(   9) = (  0.0000000  0.6000000  0.0000000  )
        10           C   tau(  10) = (  0.0666667  0.7333333  0.0000000  )
        11           C   tau(  11) = (  0.0000000  0.8000000  0.0000000  )
        12           C   tau(  12) = (  0.0666667  0.9333333  0.0000000  )
        13           C   tau(  13) = (  0.2000000  0.0000000  0.0000000  )
        14           C   tau(  14) = (  0.2666667  0.1333333  0.0000000  )
        15           C   tau(  15) = (  0.2000000  0.2000000  0.0000000  )
        16           C   tau(  16) = (  0.2666667  0.3333333  0.0000000  )
        17           C   tau(  17) = (  0.2000000  0.4000000  0.0000000  )
        18           C   tau(  18) = (  0.2666667  0.5333333  0.0000000  )
        19           C   tau(  19) = (  0.2000000  0.6000000  0.0000000  )
        20           C   tau(  20) = (  0.2666667  0.7333333  0.0000000  )
        21           C   tau(  21) = (  0.2000000  0.8000000  0.0000000  )
        22           C   tau(  22) = (  0.2666667  0.9333333  0.0000000  )
        23           C   tau(  23) = (  0.4000000  0.0000000  0.0000000  )
        24           C   tau(  24) = (  0.4666667  0.1333333  0.0000000  )
        25           C   tau(  25) = (  0.4000000  0.2000000  0.0000000  )
        26           C   tau(  26) = (  0.4666667  0.3333333  0.0000000  )
        27           C   tau(  27) = (  0.4000000  0.4000000  0.0000000  )
        28           Fe  tau(  28) = (  0.4666667  0.5333333  0.0000000  )
        29           C   tau(  29) = (  0.4000000  0.6000000  0.0000000  )
        30           C   tau(  30) = (  0.4666667  0.7333333  0.0000000  )
        31           C   tau(  31) = (  0.4000000  0.8000000  0.0000000  )
        32           C   tau(  32) = (  0.4666667  0.9333333  0.0000000  )
        33           C   tau(  33) = (  0.6000000  0.0000000  0.0000000  )
        34           C   tau(  34) = (  0.6666667  0.1333333  0.0000000  )
        35           C   tau(  35) = (  0.6000000  0.2000000  0.0000000  )
        36           C   tau(  36) = (  0.6666667  0.3333333  0.0000000  )
        37           C   tau(  37) = (  0.6000000  0.4000000  0.0000000  )
        38           C   tau(  38) = (  0.6666667  0.5333333  0.0000000  )
        39           C   tau(  39) = (  0.6000000  0.6000000  0.0000000  )
        40           C   tau(  40) = (  0.6666667  0.7333333  0.0000000  )
        41           C   tau(  41) = (  0.6000000  0.8000000  0.0000000  )
        42           C   tau(  42) = (  0.6666667  0.9333333  0.0000000  )
        43           C   tau(  43) = (  0.8000000  0.0000000  0.0000000  )
        44           C   tau(  44) = (  0.8666667  0.1333333  0.0000000  )
        45           C   tau(  45) = (  0.8000000  0.2000000  0.0000000  )
        46           C   tau(  46) = (  0.8666667  0.3333333  0.0000000  )
        47           C   tau(  47) = (  0.8000000  0.4000000  0.0000000  )
        48           C   tau(  48) = (  0.8666667  0.5333333  0.0000000  )
        49           C   tau(  49) = (  0.8000000  0.6000000  0.0000000  )
        50           C   tau(  50) = (  0.8666667  0.7333333  0.0000000  )
        51           C   tau(  51) = (  0.8000000  0.8000000  0.0000000  )
        52           C   tau(  52) = (  0.8666667  0.9333333  0.0000000  )

     number of k points=     1  Marzari-Vanderbilt smearing, width (Ry)=  0.0010
                       cart. coord. in units 2pi/alat
        k(    1) = (   0.0000000   0.0000000   0.0000000), wk =   1.0000000

                       cryst. coord.
        k(    1) = (   0.0000000   0.0000000   0.0000000), wk =   1.0000000

     Check: negative core charge=   -0.000002

     Initial potential from superposition of free atoms

     starting charge  213.80512, renormalised to  214.00000

     negative rho (up, down):  5.958E-05 1.122E-02

Carrying out rVV10 run using the following parameters:
Nqs =      20    Nr_points =    1024   r_max =   100.000
b_value =  6.30000    beta =  0.00901
     q_mesh =  0.00010000  0.00030000  0.00058939  0.00100810
               0.00161396  0.00249058  0.00375900  0.00559430
               0.00824984  0.01209221  0.01765183  0.02569619
               0.03733578  0.05417739  0.07854596  0.11380545
               0.16482331  0.23864234  0.34545298  0.50000000

Gradients computed in Reciprocal space

     Starting wfcs are  208 randomized atomic wfcs

     Self-consistent Calculation

     iteration #  1     ecut=    70.00 Ry     beta= 0.30
     Davidson diagonalization with overlap
     ethr =  1.00E-02,  avg # of iterations =  2.5

[...]

     total energy              =    -858.02154903 Ry
     Harris-Foulkes estimate   =    -858.63576545 Ry
     estimated scf accuracy    <      10.27327183 Ry

     total magnetization       =     6.00 Bohr mag/cell
     absolute magnetization    =     6.64 Bohr mag/cell

[...]

     iteration #  7     ecut=    70.00 Ry     beta= 0.30
     Davidson diagonalization with overlap
     c_bands:  3 eigenvalues not converged
     ethr =  6.78E-05,  avg # of iterations = 11.5

[...]

     total energy              =    -860.05472442 Ry
     Harris-Foulkes estimate   =    -860.05472414 Ry
     estimated scf accuracy    <       0.00000104 Ry

[...]

     iteration # 60     ecut=    70.00 Ry     beta= 0.30
     Davidson diagonalization with overlap
     ethr =  4.84E-10,  avg # of iterations =  1.5

     negative rho (up, down):  6.052E-04 1.206E-02

     Magnetic moment per site:
     atom:    1    charge:    0.2098    magn:    0.0000    constr:    0.0000
     atom:    2    charge:    0.2134    magn:    0.0007    constr:    0.0000
     atom:    3    charge:    1.7166    magn:   -0.0117    constr:    0.0000
     atom:    4    charge:    1.7155    magn:    0.0150    constr:    0.0000
     atom:    5    charge:    1.7174    magn:   -0.0085    constr:    0.0000
     atom:    6    charge:    1.7142    magn:    0.0055    constr:    0.0000
     atom:    7    charge:    1.7177    magn:   -0.0092    constr:    0.0000
     atom:    8    charge:    1.7151    magn:    0.0177    constr:    0.0000
     atom:    9    charge:    1.7171    magn:   -0.0123    constr:    0.0000
     atom:   10    charge:    1.7149    magn:    0.0561    constr:    0.0000
     atom:   11    charge:    1.7172    magn:   -0.0153    constr:    0.0000
     atom:   12    charge:    1.7162    magn:    0.0462    constr:    0.0000
     atom:   13    charge:    1.7172    magn:   -0.0153    constr:    0.0000
     atom:   14    charge:    1.7157    magn:    0.0427    constr:    0.0000
     atom:   15    charge:    1.7136    magn:   -0.0116    constr:    0.0000
     atom:   16    charge:    1.7119    magn:    0.0465    constr:    0.0000
     atom:   17    charge:    1.7224    magn:   -0.0131    constr:    0.0000
     atom:   18    charge:    1.7118    magn:    0.0464    constr:    0.0000
     atom:   19    charge:    1.7135    magn:   -0.0111    constr:    0.0000
     atom:   20    charge:    1.7163    magn:    0.0368    constr:    0.0000
     atom:   21    charge:    1.7174    magn:   -0.0158    constr:    0.0000
     atom:   22    charge:    1.7149    magn:    0.0561    constr:    0.0000
     atom:   23    charge:    1.7171    magn:   -0.0123    constr:    0.0000
     atom:   24    charge:    1.7154    magn:    0.0163    constr:    0.0000
     atom:   25    charge:    1.7137    magn:   -0.0116    constr:    0.0000
     atom:   26    charge:    1.7111    magn:    0.0544    constr:    0.0000
     atom:   27    charge:    1.8525    magn:   -0.0189    constr:    0.0000
     atom:   28    charge:   11.1476    magn:    0.4896    constr:    0.0000
     atom:   29    charge:    1.8518    magn:   -0.0211    constr:    0.0000
     atom:   30    charge:    1.7118    magn:    0.0464    constr:    0.0000
     atom:   31    charge:    1.7135    magn:   -0.0111    constr:    0.0000
     atom:   32    charge:    1.7151    magn:    0.0177    constr:    0.0000
     atom:   33    charge:    1.7177    magn:   -0.0092    constr:    0.0000
     atom:   34    charge:    1.7140    magn:    0.0126    constr:    0.0000
     atom:   35    charge:    1.7175    magn:   -0.0087    constr:    0.0000
     atom:   36    charge:    1.7143    magn:    0.0052    constr:    0.0000
     atom:   37    charge:    1.7227    magn:   -0.0136    constr:    0.0000
     atom:   38    charge:    1.7111    magn:    0.0544    constr:    0.0000
     atom:   39    charge:    1.8525    magn:   -0.0189    constr:    0.0000
     atom:   40    charge:    1.7119    magn:    0.0465    constr:    0.0000
     atom:   41    charge:    1.7224    magn:   -0.0131    constr:    0.0000
     atom:   42    charge:    1.7142    magn:    0.0055    constr:    0.0000
     atom:   43    charge:    1.7174    magn:   -0.0085    constr:    0.0000
     atom:   44    charge:    1.7142    magn:    0.0108    constr:    0.0000
     atom:   45    charge:    1.7232    magn:   -0.0096    constr:    0.0000
     atom:   46    charge:    1.7140    magn:    0.0126    constr:    0.0000
     atom:   47    charge:    1.7175    magn:   -0.0087    constr:    0.0000
     atom:   48    charge:    1.7154    magn:    0.0163    constr:    0.0000
     atom:   49    charge:    1.7137    magn:   -0.0116    constr:    0.0000
     atom:   50    charge:    1.7157    magn:    0.0427    constr:    0.0000
     atom:   51    charge:    1.7136    magn:   -0.0116    constr:    0.0000
     atom:   52    charge:    1.7155    magn:    0.0150    constr:    0.0000

     End of self-consistent calculation

 ------ SPIN UP ------------

          k = 0.0000 0.0000 0.0000 ( 87777 PWs)   bands (ev):

   -88.8962 -55.7891 -55.7209 -54.1357 -19.8604 -19.0348 -19.0169 -18.9336
   -18.9121 -18.9059 -18.5797 -17.1652 -17.1522 -17.1503 -17.0869 -17.0814
   -16.7761 -16.3126 -16.3076 -16.2041 -16.1630 -16.1609 -15.4833 -14.2299
   -14.2065 -14.1294 -14.0766 -14.0726 -13.4199 -13.1467 -13.1429 -13.1169
   -12.8452 -12.8435 -12.4296 -11.9320 -11.9288 -11.7345 -11.4945 -11.4919
   -10.6235  -9.8056  -9.8013  -9.5196  -9.3977  -9.3965  -9.3101  -9.2800
    -9.2790  -9.2668  -8.8125  -8.8108  -8.2870  -8.2819  -8.1813  -8.0141
    -7.9164  -7.5260  -7.5214  -7.3424  -7.2416  -7.2406  -7.0774  -7.0765
    -6.9207  -6.9024  -6.8942  -6.7983  -6.6908  -6.6488  -6.6380  -6.6153
    -6.6052  -6.6013  -6.5577  -6.1784  -5.7498  -5.7406  -5.7364  -5.7014
    -5.4731  -5.4691  -5.3647  -5.0687  -4.9618  -4.8210  -4.7928  -4.7868
    -4.5565  -4.5519  -4.4719  -4.3300  -4.3138  -3.9514  -3.9487  -3.8609
    -3.7649  -3.7619  -3.2035  -2.9195  -2.9085  -1.9506  -1.8825  -1.8793
    -1.3973  -1.3277  -1.2248  -0.9076   0.8444   0.8898   0.8939   1.3943
     1.4147   1.5236   2.2819   2.2860   2.5333   2.6912   2.6939   2.7883
     3.2888   3.3035   3.4413   3.6653   3.6962   3.7415   3.7442   3.7595

     occupation numbers
     1.0000   1.0000   1.0000   1.0000   1.0000   1.0000   1.0000   1.0000
     1.0000   1.0000   1.0000   1.0000   1.0000   1.0000   1.0000   1.0000
     1.0000   1.0000   1.0000   1.0000   1.0000   1.0000   1.0000   1.0000
     1.0000   1.0000   1.0000   1.0000   1.0000   1.0000   1.0000   1.0000
     1.0000   1.0000   1.0000   1.0000   1.0000   1.0000   1.0000   1.0000
     1.0000   1.0000   1.0000   1.0000   1.0000   1.0000   1.0000   1.0000
     1.0000   1.0000   1.0000   1.0000   1.0000   1.0000   1.0000   1.0000
     1.0000   1.0000   1.0000   1.0000   1.0000   1.0000   1.0000   1.0000
     1.0000   1.0000   1.0000   1.0000   1.0000   1.0000   1.0000   1.0000
     1.0000   1.0000   1.0000   1.0000   1.0000   1.0000   1.0000   1.0000
     1.0000   1.0000   1.0000   1.0000   1.0000   1.0000   1.0000   1.0000
     1.0000   1.0000   1.0000   1.0000   1.0000   1.0000   1.0000   1.0000
     1.0000   1.0000   1.0000   1.0000   1.0000   1.0000   1.0000   1.0000
     1.0000   1.0000   1.0000   0.9666   0.0000   0.0000   0.0000   0.0000
     0.0000   0.0000   0.0000   0.0000   0.0000   0.0000   0.0000   0.0000
     0.0000   0.0000   0.0000   0.0000   0.0000   0.0000   0.0000   0.0000

 ------ SPIN DOWN ----------

          k = 0.0000 0.0000 0.0000 ( 87777 PWs)   bands (ev):

   -88.1144 -55.1308 -55.1114 -53.1566 -19.8237 -18.9905 -18.9754 -18.8998
   -18.8909 -18.8844 -18.5284 -17.1316 -17.1258 -17.1214 -17.0392 -17.0352
   -16.7501 -16.2707 -16.2691 -16.1764 -16.1237 -16.1236 -15.4610 -14.1614
   -14.1479 -14.0757 -14.0676 -14.0629 -13.4307 -13.1230 -13.1205 -13.0892
   -12.8271 -12.8270 -12.4013 -11.8982 -11.8941 -11.7152 -11.4735 -11.4732
   -10.6006  -9.7543  -9.7512  -9.4908  -9.3692  -9.3691  -9.2949  -9.2596
    -9.2588  -9.2518  -8.8003  -8.7991  -8.2490  -8.2443  -8.1594  -7.9291
    -7.9012  -7.5138  -7.5083  -7.3080  -7.0936  -7.0795  -7.0281  -7.0276
    -6.8492  -6.8483  -6.8265  -6.7847  -6.6332  -6.6239  -6.6147  -6.6059
    -6.5937  -6.5900  -6.5420  -6.1323  -5.6917  -5.6872  -5.5024  -5.4872
    -5.4304  -5.4277  -5.2386  -5.0559  -4.9539  -4.7530  -4.7129  -4.7123
    -4.4739  -4.4684  -4.4079  -4.2080  -4.2058  -3.8342  -3.8313  -3.7828
    -3.7511  -3.7485  -3.1635  -2.6971  -2.6911  -1.8585  -1.8553  -1.8123
    -0.9487  -0.9247  -0.8441  -0.8121   0.9307   0.9354   0.9792   1.5466
     1.5476   1.6341   2.4459   2.4511   2.5458   2.8118   2.8175   2.8477
     3.4391   3.4422   3.5260   3.6822   3.7099   3.7488   3.7506   3.7629

     occupation numbers
     1.0000   1.0000   1.0000   1.0000   1.0000   1.0000   1.0000   1.0000
     1.0000   1.0000   1.0000   1.0000   1.0000   1.0000   1.0000   1.0000
     1.0000   1.0000   1.0000   1.0000   1.0000   1.0000   1.0000   1.0000
     1.0000   1.0000   1.0000   1.0000   1.0000   1.0000   1.0000   1.0000
     1.0000   1.0000   1.0000   1.0000   1.0000   1.0000   1.0000   1.0000
     1.0000   1.0000   1.0000   1.0000   1.0000   1.0000   1.0000   1.0000
     1.0000   1.0000   1.0000   1.0000   1.0000   1.0000   1.0000   1.0000
     1.0000   1.0000   1.0000   1.0000   1.0000   1.0000   1.0000   1.0000
     1.0000   1.0000   1.0000   1.0000   1.0000   1.0000   1.0000   1.0000
     1.0000   1.0000   1.0000   1.0000   1.0000   1.0000   1.0000   1.0000
     1.0000   1.0000   1.0000   1.0000   1.0000   1.0000   1.0000   1.0000
     1.0000   1.0000   1.0000   1.0000   1.0000   1.0000   1.0000   1.0000
     1.0000   1.0000   1.0000   1.0000   1.0000   1.0000   1.0000   1.0000
     1.0000   1.0334   0.0000   0.0000   0.0000   0.0000   0.0000   0.0000
     0.0000   0.0000   0.0000   0.0000   0.0000   0.0000   0.0000   0.0000
     0.0000   0.0000   0.0000   0.0000   0.0000   0.0000   0.0000   0.0000

     the Fermi energy is    -0.8962 ev

!    total energy              =    -860.05472492 Ry
     Harris-Foulkes estimate   =    -860.05472451 Ry
     estimated scf accuracy    <       0.00000020 Ry

     The total energy is the sum of the following terms:

     one-electron contribution =   -2798.98610848 Ry
     hartree contribution      =    1443.33003466 Ry
     xc contribution           =    -259.33778407 Ry
     ewald contribution        =     754.93899980 Ry
     smearing contrib. (-TS)   =       0.00013316 Ry

     total magnetization       =     1.93 Bohr mag/cell
     absolute magnetization    =     3.08 Bohr mag/cell

     convergence has been achieved in  60 iterations

     Writing output data file distance-2.6.save/

     General routines

     Parallel routines

   This run was terminated on:   7:11: 0  16Nov2022

   JOB DONE.