     Program PWSCF v.6.4.1 starts on 14Nov2022 at 19: 4:42

     R & G space division:  proc/nbgrp/npool/nimage =       6
     Reading input from distance-5.0.in

     Current dimensions of program PWSCF are:
     Max number of different atomic species (ntypx) = 10
     Max number of k-points (npk) =  40000
     Max angular momentum in pseudopotentials (lmaxx) =  3

     IMPORTANT: XC functional enforced from input :
     Exchange-correlation      = RVV10 ( 1  4 13  4 3 0)
     Any further DFT definition will be discarded
     Please, verify this is what you really want

               file H.pbe-rrkjus.UPF: wavefunction(s)  1S renormalized

     Subspace diagonalization in iterative solution of the eigenvalue problem:
     a serial algorithm will be used

     bravais-lattice index     =            4
     lattice parameter (alat)  =      23.2937  a.u.
     unit-cell volume          =    8879.8548 (a.u.)^3
     number of atoms/cell      =           52
     number of atomic types    =            3
     number of electrons       =       214.00
     number of Kohn-Sham states=          128
     kinetic-energy cutoff     =      70.0000  Ry
     charge density cutoff     =     490.0000  Ry
     convergence threshold     =      1.0E-06
     mixing beta               =       0.3000
     number of iterations used =            4  plain     mixing
     Exchange-correlation      = RVV10 ( 1  4 13  4 3 0)

     celldm(1)=  23.293684  celldm(2)=   0.000000  celldm(3)=   0.811261
     celldm(4)=   0.000000  celldm(5)=   0.000000  celldm(6)=   0.000000

     crystal axes: (cart. coord. in units of alat)
               a(1) = (   1.000000   0.000000   0.000000 )
               a(2) = (  -0.500000   0.866025   0.000000 )
               a(3) = (   0.000000   0.000000   0.811261 )

     reciprocal axes: (cart. coord. in units 2 pi/alat)
               b(1) = (  1.000000  0.577350 -0.000000 )
               b(2) = (  0.000000  1.154701  0.000000 )
               b(3) = (  0.000000 -0.000000  1.232649 )

     PseudoPot. # 1 for H  read from file:
     /home/cristian/Escritorio/Proyecto_Grafeno/pseudopotenciales/H.pbe-rrkjus.UPF
     MD5 check sum: 7cc9d459525c9a0585f487a71c3c9563
     Pseudo is Ultrasoft, Zval =  1.0
     Generated by new atomic code, or converted to UPF format
     Using radial grid of 1061 points,  2 beta functions with:
                l(1) =   0
                l(2) =   0
     Q(r) pseudized with 0 coefficients

     PseudoPot. # 2 for C  read from file:
     /home/cristian/Escritorio/Proyecto_Grafeno/pseudopotenciales/C.pbe-n-rrkjus_psl.1.0.0.UPF
     MD5 check sum: 1fdd950c42eb37d8afe3dd2f8d12311e
     Pseudo is Ultrasoft + core correction, Zval =  4.0
     Generated using "atomic" code by A. Dal Corso v.6.3MaX
     Using radial grid of 1073 points,  4 beta functions with:
                l(1) =   0
                l(2) =   0
                l(3) =   1
                l(4) =   1
     Q(r) pseudized with 0 coefficients

     PseudoPot. # 3 for Fe read from file:
     /home/cristian/Escritorio/Proyecto_Grafeno/pseudopotenciales/Fe.pbe-spn-rrkjus_psl.1.0.0.UPF
     MD5 check sum: 72ea77fed8e64ab3a2ccf2804dfc1862
     Pseudo is Ultrasoft + core correction, Zval = 16.0
     Generated using "atomic" code by A. Dal Corso v.6.3
     Using radial grid of 1191 points,  6 beta functions with:
                l(1) =   0
                l(2) =   0
                l(3) =   1
                l(4) =   1
                l(5) =   2
                l(6) =   2
     Q(r) pseudized with 0 coefficients

     vdW kernel table read from file rVV10_kernel_table
     MD5 check sum: b8e2538accc0c0b3206b45ba4daaba6c

     atomic species   valence    mass     pseudopotential
        H              1.00     1.00794     H ( 1.00)
        C              4.00    12.01070     C ( 1.00)
        Fe            16.00    55.84500     Fe( 1.00)

     Starting magnetic structure
     atomic species   magnetization
        H            0.500
        C            0.300
        Fe           0.800

      2 Sym. Ops. (no inversion) found

                                    s                        frac. trans.

      isym =  1     identity

 cryst.   s( 1) = (     1          0          0      )
                  (     0          1          0      )
                  (     0          0          1      )

 cart.    s( 1) = (  1.0000000  0.0000000  0.0000000 )
                  (  0.0000000  1.0000000  0.0000000 )
                  (  0.0000000  0.0000000  1.0000000 )

      isym =  2     inv. 180 deg rotation - cryst. axis [1,1,0]

 cryst.   s( 2) = (     0         -1          0      )
                  (    -1          0          0      )
                  (     0          0          1      )

 cart.    s( 2) = (  0.5000000 -0.8660254  0.0000000 )
                  ( -0.8660254 -0.5000000  0.0000000 )
                  (  0.0000000  0.0000000  1.0000000 )

     point group C_s (m)
     there are  2 classes
     the character table:

       E     s
A'     1.00  1.00
A''    1.00 -1.00

     the symmetry operations in each class and the name of the first element:

     E        1
          identity
     s        2
          inv. 180 deg rotation - cryst. axis [1,1,0]

   Cartesian axes

     site n.     atom                  positions (alat units)
         1           H   tau(   1) = (   0.2500000   0.4330127   0.4056306  )
         2           H   tau(   2) = (   0.2500000   0.4330127   0.4666433  )
         3           C   tau(   3) = (   0.0000000   0.0000000   0.0000000  )
         4           C   tau(   4) = (   0.0000000   0.1154701   0.0000000  )
         5           C   tau(   5) = (  -0.1000000   0.1732051   0.0000000  )
         6           C   tau(   6) = (  -0.1000000   0.2886751   0.0000000  )
         7           C   tau(   7) = (  -0.2000000   0.3464102   0.0000000  )
         8           C   tau(   8) = (  -0.2000000   0.4618802   0.0000000  )
         9           C   tau(   9) = (  -0.3000000   0.5196152   0.0000000  )
        10           C   tau(  10) = (  -0.3000000   0.6350853   0.0000000  )
        11           C   tau(  11) = (  -0.4000000   0.6928203   0.0000000  )
        12           C   tau(  12) = (  -0.4000000   0.8082904   0.0000000  )
        13           C   tau(  13) = (   0.2000000   0.0000000   0.0000000  )
        14           C   tau(  14) = (   0.2000000   0.1154701   0.0000000  )
        15           C   tau(  15) = (   0.1000000   0.1732051   0.0000000  )
        16           C   tau(  16) = (   0.1000000   0.2886751   0.0000000  )
        17           C   tau(  17) = (   0.0000000   0.3464102   0.0000000  )
        18           C   tau(  18) = (   0.0000000   0.4618802   0.0000000  )
        19           C   tau(  19) = (  -0.1000000   0.5196152   0.0000000  )
        20           C   tau(  20) = (  -0.1000000   0.6350853   0.0000000  )
        21           C   tau(  21) = (  -0.2000000   0.6928203   0.0000000  )
        22           C   tau(  22) = (  -0.2000000   0.8082904   0.0000000  )
        23           C   tau(  23) = (   0.4000000   0.0000000   0.0000000  )
        24           C   tau(  24) = (   0.4000000   0.1154701   0.0000000  )
        25           C   tau(  25) = (   0.3000000   0.1732051   0.0000000  )
        26           C   tau(  26) = (   0.3000000   0.2886751   0.0000000  )
        27           C   tau(  27) = (   0.2000000   0.3464102   0.0000000  )
        28           Fe  tau(  28) = (   0.2000000   0.4618802   0.0000000  )
        29           C   tau(  29) = (   0.1000000   0.5196152   0.0000000  )
        30           C   tau(  30) = (   0.1000000   0.6350853   0.0000000  )
        31           C   tau(  31) = (   0.0000000   0.6928203   0.0000000  )
        32           C   tau(  32) = (   0.0000000   0.8082904   0.0000000  )
        33           C   tau(  33) = (   0.6000000   0.0000000   0.0000000  )
        34           C   tau(  34) = (   0.6000000   0.1154701   0.0000000  )
        35           C   tau(  35) = (   0.5000000   0.1732051   0.0000000  )
        36           C   tau(  36) = (   0.5000000   0.2886751   0.0000000  )
        37           C   tau(  37) = (   0.4000000   0.3464102   0.0000000  )
        38           C   tau(  38) = (   0.4000000   0.4618802   0.0000000  )
        39           C   tau(  39) = (   0.3000000   0.5196152   0.0000000  )
        40           C   tau(  40) = (   0.3000000   0.6350853   0.0000000  )
        41           C   tau(  41) = (   0.2000000   0.6928203   0.0000000  )
        42           C   tau(  42) = (   0.2000000   0.8082904   0.0000000  )
        43           C   tau(  43) = (   0.8000000   0.0000000   0.0000000  )
        44           C   tau(  44) = (   0.8000000   0.1154701   0.0000000  )
        45           C   tau(  45) = (   0.7000000   0.1732051   0.0000000  )
        46           C   tau(  46) = (   0.7000000   0.2886751   0.0000000  )
        47           C   tau(  47) = (   0.6000000   0.3464102   0.0000000  )
        48           C   tau(  48) = (   0.6000000   0.4618802   0.0000000  )
        49           C   tau(  49) = (   0.5000000   0.5196152   0.0000000  )
        50           C   tau(  50) = (   0.5000000   0.6350853   0.0000000  )
        51           C   tau(  51) = (   0.4000000   0.6928203   0.0000000  )
        52           C   tau(  52) = (   0.4000000   0.8082904   0.0000000  )

   Crystallographic axes

     site n.     atom                  positions (cryst. coord.)
         1           H   tau(   1) = (  0.5000000  0.5000000  0.5000000  )
         2           H   tau(   2) = (  0.5000000  0.5000000  0.5752072  )
         3           C   tau(   3) = (  0.0000000  0.0000000  0.0000000  )
         4           C   tau(   4) = (  0.0666667  0.1333333  0.0000000  )
         5           C   tau(   5) = (  0.0000000  0.2000000  0.0000000  )
         6           C   tau(   6) = (  0.0666667  0.3333333  0.0000000  )
         7           C   tau(   7) = (  0.0000000  0.4000000  0.0000000  )
         8           C   tau(   8) = (  0.0666667  0.5333333  0.0000000  )
         9           C   tau(   9) = (  0.0000000  0.6000000  0.0000000  )
        10           C   tau(  10) = (  0.0666667  0.7333333  0.0000000  )
        11           C   tau(  11) = (  0.0000000  0.8000000  0.0000000  )
        12           C   tau(  12) = (  0.0666667  0.9333333  0.0000000  )
        13           C   tau(  13) = (  0.2000000  0.0000000  0.0000000  )
        14           C   tau(  14) = (  0.2666667  0.1333333  0.0000000  )
        15           C   tau(  15) = (  0.2000000  0.2000000  0.0000000  )
        16           C   tau(  16) = (  0.2666667  0.3333333  0.0000000  )
        17           C   tau(  17) = (  0.2000000  0.4000000  0.0000000  )
        18           C   tau(  18) = (  0.2666667  0.5333333  0.0000000  )
        19           C   tau(  19) = (  0.2000000  0.6000000  0.0000000  )
        20           C   tau(  20) = (  0.2666667  0.7333333  0.0000000  )
        21           C   tau(  21) = (  0.2000000  0.8000000  0.0000000  )
        22           C   tau(  22) = (  0.2666667  0.9333333  0.0000000  )
        23           C   tau(  23) = (  0.4000000  0.0000000  0.0000000  )
        24           C   tau(  24) = (  0.4666667  0.1333333  0.0000000  )
        25           C   tau(  25) = (  0.4000000  0.2000000  0.0000000  )
        26           C   tau(  26) = (  0.4666667  0.3333333  0.0000000  )
        27           C   tau(  27) = (  0.4000000  0.4000000  0.0000000  )
        28           Fe  tau(  28) = (  0.4666667  0.5333333  0.0000000  )
        29           C   tau(  29) = (  0.4000000  0.6000000  0.0000000  )
        30           C   tau(  30) = (  0.4666667  0.7333333  0.0000000  )
        31           C   tau(  31) = (  0.4000000  0.8000000  0.0000000  )
        32           C   tau(  32) = (  0.4666667  0.9333333  0.0000000  )
        33           C   tau(  33) = (  0.6000000  0.0000000  0.0000000  )
        34           C   tau(  34) = (  0.6666667  0.1333333  0.0000000  )
        35           C   tau(  35) = (  0.6000000  0.2000000  0.0000000  )
        36           C   tau(  36) = (  0.6666667  0.3333333  0.0000000  )
        37           C   tau(  37) = (  0.6000000  0.4000000  0.0000000  )
        38           C   tau(  38) = (  0.6666667  0.5333333  0.0000000  )
        39           C   tau(  39) = (  0.6000000  0.6000000  0.0000000  )
        40           C   tau(  40) = (  0.6666667  0.7333333  0.0000000  )
        41           C   tau(  41) = (  0.6000000  0.8000000  0.0000000  )
        42           C   tau(  42) = (  0.6666667  0.9333333  0.0000000  )
        43           C   tau(  43) = (  0.8000000  0.0000000  0.0000000  )
        44           C   tau(  44) = (  0.8666667  0.1333333  0.0000000  )
        45           C   tau(  45) = (  0.8000000  0.2000000  0.0000000  )
        46           C   tau(  46) = (  0.8666667  0.3333333  0.0000000  )
        47           C   tau(  47) = (  0.8000000  0.4000000  0.0000000  )
        48           C   tau(  48) = (  0.8666667  0.5333333  0.0000000  )
        49           C   tau(  49) = (  0.8000000  0.6000000  0.0000000  )
        50           C   tau(  50) = (  0.8666667  0.7333333  0.0000000  )
        51           C   tau(  51) = (  0.8000000  0.8000000  0.0000000  )
        52           C   tau(  52) = (  0.8666667  0.9333333  0.0000000  )

     number of k points=     1  Marzari-Vanderbilt smearing, width (Ry)=  0.0010
                       cart. coord. in units 2pi/alat
        k(    1) = (   0.0000000   0.0000000   0.0000000), wk =   1.0000000

                       cryst. coord.
        k(    1) = (   0.0000000   0.0000000   0.0000000), wk =   1.0000000

     Check: negative core charge=   -0.000002

     Initial potential from superposition of free atoms

     starting charge  213.80512, renormalised to  214.00000

     negative rho (up, down):  6.620E-05 9.330E-03

Carrying out rVV10 run using the following parameters:
Nqs =      20    Nr_points =    1024   r_max =   100.000
b_value =  6.30000    beta =  0.00901
     q_mesh =  0.00010000  0.00030000  0.00058939  0.00100810
               0.00161396  0.00249058  0.00375900  0.00559430
               0.00824984  0.01209221  0.01765183  0.02569619
               0.03733578  0.05417739  0.07854596  0.11380545
               0.16482331  0.23864234  0.34545298  0.50000000

Gradients computed in Reciprocal space

     Starting wfcs are  208 randomized atomic wfcs

     Self-consistent Calculation

     iteration #  1     ecut=    70.00 Ry     beta= 0.30
     Davidson diagonalization with overlap
     ethr =  1.00E-02,  avg # of iterations =  2.5

[...]

     total energy              =    -858.11296910 Ry
     Harris-Foulkes estimate   =    -858.63373036 Ry
     estimated scf accuracy    <      10.05564663 Ry

     total magnetization       =     6.00 Bohr mag/cell
     absolute magnetization    =     6.66 Bohr mag/cell

[...]

     iteration # 13     ecut=    70.00 Ry     beta= 0.30
     Davidson diagonalization with overlap
     c_bands:  2 eigenvalues not converged
     ethr =  9.78E-06,  avg # of iterations = 16.0

[...]

     total energy              =    -860.05390185 Ry
     Harris-Foulkes estimate   =    -860.05390247 Ry
     estimated scf accuracy    <       0.00000121 Ry

[...]

     iteration # 74     ecut=    70.00 Ry     beta= 0.30
     Davidson diagonalization with overlap
     ethr =  5.65E-10,  avg # of iterations =  2.0

     negative rho (up, down):  5.335E-04 7.504E-03

     Magnetic moment per site:
     atom:    1    charge:    0.2118    magn:   -0.0000    constr:    0.0000
     atom:    2    charge:    0.2109    magn:   -0.0000    constr:    0.0000
     atom:    3    charge:    1.7171    magn:   -0.0125    constr:    0.0000
     atom:    4    charge:    1.7153    magn:    0.0176    constr:    0.0000
     atom:    5    charge:    1.7177    magn:   -0.0085    constr:    0.0000
     atom:    6    charge:    1.7142    magn:    0.0055    constr:    0.0000
     atom:    7    charge:    1.7177    magn:   -0.0085    constr:    0.0000
     atom:    8    charge:    1.7153    magn:    0.0176    constr:    0.0000
     atom:    9    charge:    1.7171    magn:   -0.0124    constr:    0.0000
     atom:   10    charge:    1.7149    magn:    0.0586    constr:    0.0000
     atom:   11    charge:    1.7176    magn:   -0.0170    constr:    0.0000
     atom:   12    charge:    1.7149    magn:    0.0586    constr:    0.0000
     atom:   13    charge:    1.7176    magn:   -0.0170    constr:    0.0000
     atom:   14    charge:    1.7155    magn:    0.0456    constr:    0.0000
     atom:   15    charge:    1.7140    magn:   -0.0133    constr:    0.0000
     atom:   16    charge:    1.7106    magn:    0.0553    constr:    0.0000
     atom:   17    charge:    1.7228    magn:   -0.0121    constr:    0.0000
     atom:   18    charge:    1.7106    magn:    0.0555    constr:    0.0000
     atom:   19    charge:    1.7140    magn:   -0.0135    constr:    0.0000
     atom:   20    charge:    1.7155    magn:    0.0458    constr:    0.0000
     atom:   21    charge:    1.7176    magn:   -0.0170    constr:    0.0000
     atom:   22    charge:    1.7149    magn:    0.0586    constr:    0.0000
     atom:   23    charge:    1.7171    magn:   -0.0124    constr:    0.0000
     atom:   24    charge:    1.7153    magn:    0.0175    constr:    0.0000
     atom:   25    charge:    1.7140    magn:   -0.0133    constr:    0.0000
     atom:   26    charge:    1.7106    magn:    0.0551    constr:    0.0000
     atom:   27    charge:    1.8519    magn:   -0.0195    constr:    0.0000
     atom:   28    charge:   11.1425    magn:    0.4533    constr:    0.0000
     atom:   29    charge:    1.8519    magn:   -0.0196    constr:    0.0000
     atom:   30    charge:    1.7106    magn:    0.0555    constr:    0.0000
     atom:   31    charge:    1.7140    magn:   -0.0135    constr:    0.0000
     atom:   32    charge:    1.7153    magn:    0.0176    constr:    0.0000
     atom:   33    charge:    1.7177    magn:   -0.0085    constr:    0.0000
     atom:   34    charge:    1.7139    magn:    0.0124    constr:    0.0000
     atom:   35    charge:    1.7177    magn:   -0.0084    constr:    0.0000
     atom:   36    charge:    1.7142    magn:    0.0054    constr:    0.0000
     atom:   37    charge:    1.7229    magn:   -0.0118    constr:    0.0000
     atom:   38    charge:    1.7106    magn:    0.0551    constr:    0.0000
     atom:   39    charge:    1.8519    magn:   -0.0195    constr:    0.0000
     atom:   40    charge:    1.7106    magn:    0.0553    constr:    0.0000
     atom:   41    charge:    1.7228    magn:   -0.0121    constr:    0.0000
     atom:   42    charge:    1.7142    magn:    0.0055    constr:    0.0000
     atom:   43    charge:    1.7177    magn:   -0.0085    constr:    0.0000
     atom:   44    charge:    1.7139    magn:    0.0124    constr:    0.0000
     atom:   45    charge:    1.7236    magn:   -0.0051    constr:    0.0000
     atom:   46    charge:    1.7139    magn:    0.0124    constr:    0.0000
     atom:   47    charge:    1.7177    magn:   -0.0084    constr:    0.0000
     atom:   48    charge:    1.7153    magn:    0.0175    constr:    0.0000
     atom:   49    charge:    1.7140    magn:   -0.0133    constr:    0.0000
     atom:   50    charge:    1.7155    magn:    0.0456    constr:    0.0000
     atom:   51    charge:    1.7140    magn:   -0.0133    constr:    0.0000
     atom:   52    charge:    1.7153    magn:    0.0176    constr:    0.0000

     End of self-consistent calculation

 ------ SPIN UP ------------

          k = 0.0000 0.0000 0.0000 ( 87777 PWs)   bands (ev):

   -88.6953 -55.5835 -55.5829 -53.8683 -19.8876 -19.0527 -19.0526 -18.9665
   -18.9280 -18.9278 -18.5840 -17.1775 -17.1775 -17.1774 -17.1058 -17.1058
   -16.8003 -16.3312 -16.3311 -16.2296 -16.1774 -16.1774 -15.4859 -14.2330
   -14.2329 -14.1477 -14.1011 -14.1009 -13.4323 -13.1649 -13.1648 -13.1405
   -12.8603 -12.8603 -12.4514 -11.9437 -11.9435 -11.7555 -11.5080 -11.5080
   -10.6266  -9.7934  -9.7933  -9.5305  -9.4216  -9.4215  -9.3387  -9.3076
    -9.3075  -9.2947  -8.8284  -8.8284  -8.2852  -8.2851  -8.1967  -8.0351
    -7.9371  -7.5478  -7.5477  -7.3406  -7.2240  -7.2239  -7.0802  -7.0801
    -6.9467  -6.9232  -6.9231  -6.8121  -6.6696  -6.6695  -6.6392  -6.6266
    -6.6266  -6.5837  -6.5796  -6.2893  -5.7357  -5.7356  -5.6702  -5.6700
    -5.4813  -5.4812  -5.2753  -5.0921  -4.9820  -4.8450  -4.8187  -4.8185
    -4.5340  -4.5339  -4.5039  -4.3367  -4.3367  -3.9816  -3.9816  -3.8944
    -3.7856  -3.7856  -3.2094  -2.8969  -2.8966  -1.9774  -1.9078  -1.9076
    -1.3001  -1.2999  -1.0625  -0.8903   0.8196   0.8671   0.8675   1.3952
     1.3955   1.5060   2.3860   2.3863   2.5209   2.6621   2.6622   2.7618
     3.2961   3.2967   3.4150   3.6518   3.6794   3.7223   3.7265   3.7474

     occupation numbers
     1.0000   1.0000   1.0000   1.0000   1.0000   1.0000   1.0000   1.0000
     1.0000   1.0000   1.0000   1.0000   1.0000   1.0000   1.0000   1.0000
     1.0000   1.0000   1.0000   1.0000   1.0000   1.0000   1.0000   1.0000
     1.0000   1.0000   1.0000   1.0000   1.0000   1.0000   1.0000   1.0000
     1.0000   1.0000   1.0000   1.0000   1.0000   1.0000   1.0000   1.0000
     1.0000   1.0000   1.0000   1.0000   1.0000   1.0000   1.0000   1.0000
     1.0000   1.0000   1.0000   1.0000   1.0000   1.0000   1.0000   1.0000
     1.0000   1.0000   1.0000   1.0000   1.0000   1.0000   1.0000   1.0000
     1.0000   1.0000   1.0000   1.0000   1.0000   1.0000   1.0000   1.0000
     1.0000   1.0000   1.0000   1.0000   1.0000   1.0000   1.0000   1.0000
     1.0000   1.0000   1.0000   1.0000   1.0000   1.0000   1.0000   1.0000
     1.0000   1.0000   1.0000   1.0000   1.0000   1.0000   1.0000   1.0000
     1.0000   1.0000   1.0000   1.0000   1.0000   1.0000   1.0000   1.0000
     1.0000   1.0000   1.0000   1.0000   0.0000   0.0000   0.0000   0.0000
     0.0000   0.0000   0.0000   0.0000   0.0000   0.0000   0.0000   0.0000
     0.0000   0.0000   0.0000   0.0000   0.0000   0.0000   0.0000   0.0000

 ------ SPIN DOWN ----------

          k = 0.0000 0.0000 0.0000 ( 87777 PWs)   bands (ev):

   -87.9709 -54.9922 -54.9921 -52.9709 -19.8457 -19.0063 -19.0061 -18.9267
   -18.9018 -18.9016 -18.5254 -17.1499 -17.1411 -17.1411 -17.0520 -17.0520
   -16.7703 -16.2856 -16.2856 -16.1957 -16.1343 -16.1343 -15.4615 -14.1625
   -14.1622 -14.0907 -14.0906 -14.0854 -13.4387 -13.1401 -13.1401 -13.1081
   -12.8413 -12.8412 -12.4209 -11.9061 -11.9060 -11.7327 -11.4861 -11.4860
   -10.6040  -9.7448  -9.7446  -9.4988  -9.3895  -9.3895  -9.3216  -9.2841
    -9.2841  -9.2769  -8.8159  -8.8159  -8.2497  -8.2497  -8.1771  -7.9376
    -7.9200  -7.5332  -7.5331  -7.3089  -7.0597  -7.0596  -7.0341  -7.0340
    -6.8639  -6.8637  -6.8469  -6.7970  -6.6532  -6.6530  -6.6287  -6.6130
    -6.6130  -6.5618  -6.4483  -6.2889  -5.6905  -5.6903  -5.4391  -5.4391
    -5.4358  -5.4354  -5.1959  -5.0784  -4.9722  -4.7701  -4.7264  -4.7262
    -4.4507  -4.4505  -4.4306  -4.2101  -4.2101  -3.8470  -3.8467  -3.7981
    -3.7709  -3.7709  -3.1660  -2.6652  -2.6652  -1.8797  -1.8796  -1.8165
    -0.9049  -0.8505  -0.7934  -0.7921   0.9149   0.9150   0.9767   1.5523
     1.5523   1.6282   2.5330   2.5337   2.5362   2.8031   2.8035   2.8356
     3.4544   3.4555   3.5047   3.6698   3.6959   3.7341   3.7495   3.8809

     occupation numbers
     1.0000   1.0000   1.0000   1.0000   1.0000   1.0000   1.0000   1.0000
     1.0000   1.0000   1.0000   1.0000   1.0000   1.0000   1.0000   1.0000
     1.0000   1.0000   1.0000   1.0000   1.0000   1.0000   1.0000   1.0000
     1.0000   1.0000   1.0000   1.0000   1.0000   1.0000   1.0000   1.0000
     1.0000   1.0000   1.0000   1.0000   1.0000   1.0000   1.0000   1.0000
     1.0000   1.0000   1.0000   1.0000   1.0000   1.0000   1.0000   1.0000
     1.0000   1.0000   1.0000   1.0000   1.0000   1.0000   1.0000   1.0000
     1.0000   1.0000   1.0000   1.0000   1.0000   1.0000   1.0000   1.0000
     1.0000   1.0000   1.0000   1.0000   1.0000   1.0000   1.0000   1.0000
     1.0000   1.0000   1.0000   1.0000   1.0000   1.0000   1.0000   1.0000
     1.0000   1.0000   1.0000   1.0000   1.0000   1.0000   1.0000   1.0000
     1.0000   1.0000   1.0000   1.0000   1.0000   1.0000   1.0000   1.0000
     1.0000   1.0000   1.0000   1.0000   1.0000   1.0000   1.0000   1.0000
     1.0000   1.0000   0.0000   0.0000   0.0000   0.0000   0.0000   0.0000
     0.0000   0.0000   0.0000   0.0000   0.0000   0.0000   0.0000   0.0000
     0.0000   0.0000   0.0000   0.0000   0.0000   0.0000   0.0000   0.0000

     the Fermi energy is    -0.8379 ev

!    total energy              =    -860.05390416 Ry
     Harris-Foulkes estimate   =    -860.05390213 Ry
     estimated scf accuracy    <       0.00000099 Ry

     The total energy is the sum of the following terms:

     one-electron contribution =   -2779.07955823 Ry
     hartree contribution      =    1433.32788865 Ry
     xc contribution           =    -259.29873359 Ry
     ewald contribution        =     744.99641741 Ry
     smearing contrib. (-TS)   =       0.00008160 Ry

     total magnetization       =     2.00 Bohr mag/cell
     absolute magnetization    =     3.16 Bohr mag/cell

     convergence has been achieved in  74 iterations

     Writing output data file distance-5.0.save/

     General routines

     Parallel routines

   This run was terminated on:  20:50: 2  14Nov2022

   JOB DONE.