     Program PWSCF v.6.4.1 starts on 16Nov2022 at  3:35: 1

     R & G space division:  proc/nbgrp/npool/nimage =       6
     Reading input from distance-2.8.in

     Current dimensions of program PWSCF are:
     Max number of different atomic species (ntypx) = 10
     Max number of k-points (npk) =  40000
     Max angular momentum in pseudopotentials (lmaxx) =  3

     IMPORTANT: XC functional enforced from input :
     Exchange-correlation      = RVV10 ( 1  4 13  4 3 0)
     Any further DFT definition will be discarded
     Please, verify this is what you really want

               file H.pbe-rrkjus.UPF: wavefunction(s)  1S renormalized

     Subspace diagonalization in iterative solution of the eigenvalue problem:
     a serial algorithm will be used

     bravais-lattice index     =            4
     lattice parameter (alat)  =      23.2937  a.u.
     unit-cell volume          =    8879.8548 (a.u.)^3
     number of atoms/cell      =           52
     number of atomic types    =            3
     number of electrons       =       214.00
     number of Kohn-Sham states=          128
     kinetic-energy cutoff     =      70.0000  Ry
     charge density cutoff     =     490.0000  Ry
     convergence threshold     =      1.0E-06
     mixing beta               =       0.3000
     number of iterations used =            4  plain     mixing
     Exchange-correlation      = RVV10 ( 1  4 13  4 3 0)

     celldm(1)=  23.293684  celldm(2)=   0.000000  celldm(3)=   0.811261
     celldm(4)=   0.000000  celldm(5)=   0.000000  celldm(6)=   0.000000

     crystal axes: (cart. coord. in units of alat)
               a(1) = (   1.000000   0.000000   0.000000 )
               a(2) = (  -0.500000   0.866025   0.000000 )
               a(3) = (   0.000000   0.000000   0.811261 )

     reciprocal axes: (cart. coord. in units 2 pi/alat)
               b(1) = (  1.000000  0.577350 -0.000000 )
               b(2) = (  0.000000  1.154701  0.000000 )
               b(3) = (  0.000000 -0.000000  1.232649 )

     PseudoPot. # 1 for H  read from file:
     /home/cristian/Escritorio/Proyecto_Grafeno/pseudopotenciales/H.pbe-rrkjus.UPF
     MD5 check sum: 7cc9d459525c9a0585f487a71c3c9563
     Pseudo is Ultrasoft, Zval =  1.0
     Generated by new atomic code, or converted to UPF format
     Using radial grid of 1061 points,  2 beta functions with:
                l(1) =   0
                l(2) =   0
     Q(r) pseudized with 0 coefficients

     PseudoPot. # 2 for C  read from file:
     /home/cristian/Escritorio/Proyecto_Grafeno/pseudopotenciales/C.pbe-n-rrkjus_psl.1.0.0.UPF
     MD5 check sum: 1fdd950c42eb37d8afe3dd2f8d12311e
     Pseudo is Ultrasoft + core correction, Zval =  4.0
     Generated using "atomic" code by A. Dal Corso v.6.3MaX
     Using radial grid of 1073 points,  4 beta functions with:
                l(1) =   0
                l(2) =   0
                l(3) =   1
                l(4) =   1
     Q(r) pseudized with 0 coefficients

     PseudoPot. # 3 for Fe read from file:
     /home/cristian/Escritorio/Proyecto_Grafeno/pseudopotenciales/Fe.pbe-spn-rrkjus_psl.1.0.0.UPF
     MD5 check sum: 72ea77fed8e64ab3a2ccf2804dfc1862
     Pseudo is Ultrasoft + core correction, Zval = 16.0
     Generated using "atomic" code by A. Dal Corso v.6.3
     Using radial grid of 1191 points,  6 beta functions with:
                l(1) =   0
                l(2) =   0
                l(3) =   1
                l(4) =   1
                l(5) =   2
                l(6) =   2
     Q(r) pseudized with 0 coefficients

     vdW kernel table read from file rVV10_kernel_table
     MD5 check sum: b8e2538accc0c0b3206b45ba4daaba6c

     atomic species   valence    mass     pseudopotential
        H              1.00     1.00794     H ( 1.00)
        C              4.00    12.01070     C ( 1.00)
        Fe            16.00    55.84500     Fe( 1.00)

     Starting magnetic structure
     atomic species   magnetization
        H            0.500
        C            0.300
        Fe           0.800

      2 Sym. Ops. (no inversion) found

                                    s                        frac. trans.

      isym =  1     identity

 cryst.   s( 1) = (     1          0          0      )
                  (     0          1          0      )
                  (     0          0          1      )

 cart.    s( 1) = (  1.0000000  0.0000000  0.0000000 )
                  (  0.0000000  1.0000000  0.0000000 )
                  (  0.0000000  0.0000000  1.0000000 )

      isym =  2     inv. 180 deg rotation - cryst. axis [1,1,0]

 cryst.   s( 2) = (     0         -1          0      )
                  (    -1          0          0      )
                  (     0          0          1      )

 cart.    s( 2) = (  0.5000000 -0.8660254  0.0000000 )
                  ( -0.8660254 -0.5000000  0.0000000 )
                  (  0.0000000  0.0000000  1.0000000 )

     point group C_s (m)
     there are  2 classes
     the character table:

       E     s
A'     1.00  1.00
A''    1.00 -1.00

     the symmetry operations in each class and the name of the first element:

     E        1
          identity
     s        2
          inv. 180 deg rotation - cryst. axis [1,1,0]

   Cartesian axes

     site n.     atom                  positions (alat units)
         1           H   tau(   1) = (   0.2500000   0.4330127   0.2271531  )
         2           H   tau(   2) = (   0.2500000   0.4330127   0.2881658  )
         3           C   tau(   3) = (   0.0000000   0.0000000   0.0000000  )
         4           C   tau(   4) = (   0.0000000   0.1154701   0.0000000  )
         5           C   tau(   5) = (  -0.1000000   0.1732051   0.0000000  )
         6           C   tau(   6) = (  -0.1000000   0.2886751   0.0000000  )
         7           C   tau(   7) = (  -0.2000000   0.3464102   0.0000000  )
         8           C   tau(   8) = (  -0.2000000   0.4618802   0.0000000  )
         9           C   tau(   9) = (  -0.3000000   0.5196152   0.0000000  )
        10           C   tau(  10) = (  -0.3000000   0.6350853   0.0000000  )
        11           C   tau(  11) = (  -0.4000000   0.6928203   0.0000000  )
        12           C   tau(  12) = (  -0.4000000   0.8082904   0.0000000  )
        13           C   tau(  13) = (   0.2000000   0.0000000   0.0000000  )
        14           C   tau(  14) = (   0.2000000   0.1154701   0.0000000  )
        15           C   tau(  15) = (   0.1000000   0.1732051   0.0000000  )
        16           C   tau(  16) = (   0.1000000   0.2886751   0.0000000  )
        17           C   tau(  17) = (   0.0000000   0.3464102   0.0000000  )
        18           C   tau(  18) = (   0.0000000   0.4618802   0.0000000  )
        19           C   tau(  19) = (  -0.1000000   0.5196152   0.0000000  )
        20           C   tau(  20) = (  -0.1000000   0.6350853   0.0000000  )
        21           C   tau(  21) = (  -0.2000000   0.6928203   0.0000000  )
        22           C   tau(  22) = (  -0.2000000   0.8082904   0.0000000  )
        23           C   tau(  23) = (   0.4000000   0.0000000   0.0000000  )
        24           C   tau(  24) = (   0.4000000   0.1154701   0.0000000  )
        25           C   tau(  25) = (   0.3000000   0.1732051   0.0000000  )
        26           C   tau(  26) = (   0.3000000   0.2886751   0.0000000  )
        27           C   tau(  27) = (   0.2000000   0.3464102   0.0000000  )
        28           Fe  tau(  28) = (   0.2000000   0.4618802   0.0000000  )
        29           C   tau(  29) = (   0.1000000   0.5196152   0.0000000  )
        30           C   tau(  30) = (   0.1000000   0.6350853   0.0000000  )
        31           C   tau(  31) = (   0.0000000   0.6928203   0.0000000  )
        32           C   tau(  32) = (   0.0000000   0.8082904   0.0000000  )
        33           C   tau(  33) = (   0.6000000   0.0000000   0.0000000  )
        34           C   tau(  34) = (   0.6000000   0.1154701   0.0000000  )
        35           C   tau(  35) = (   0.5000000   0.1732051   0.0000000  )
        36           C   tau(  36) = (   0.5000000   0.2886751   0.0000000  )
        37           C   tau(  37) = (   0.4000000   0.3464102   0.0000000  )
        38           C   tau(  38) = (   0.4000000   0.4618802   0.0000000  )
        39           C   tau(  39) = (   0.3000000   0.5196152   0.0000000  )
        40           C   tau(  40) = (   0.3000000   0.6350853   0.0000000  )
        41           C   tau(  41) = (   0.2000000   0.6928203   0.0000000  )
        42           C   tau(  42) = (   0.2000000   0.8082904   0.0000000  )
        43           C   tau(  43) = (   0.8000000   0.0000000   0.0000000  )
        44           C   tau(  44) = (   0.8000000   0.1154701   0.0000000  )
        45           C   tau(  45) = (   0.7000000   0.1732051   0.0000000  )
        46           C   tau(  46) = (   0.7000000   0.2886751   0.0000000  )
        47           C   tau(  47) = (   0.6000000   0.3464102   0.0000000  )
        48           C   tau(  48) = (   0.6000000   0.4618802   0.0000000  )
        49           C   tau(  49) = (   0.5000000   0.5196152   0.0000000  )
        50           C   tau(  50) = (   0.5000000   0.6350853   0.0000000  )
        51           C   tau(  51) = (   0.4000000   0.6928203   0.0000000  )
        52           C   tau(  52) = (   0.4000000   0.8082904   0.0000000  )

   Crystallographic axes

     site n.     atom                  positions (cryst. coord.)
         1           H   tau(   1) = (  0.5000000  0.5000000  0.2800000  )
         2           H   tau(   2) = (  0.5000000  0.5000000  0.3552072  )
         3           C   tau(   3) = (  0.0000000  0.0000000  0.0000000  )
         4           C   tau(   4) = (  0.0666667  0.1333333  0.0000000  )
         5           C   tau(   5) = (  0.0000000  0.2000000  0.0000000  )
         6           C   tau(   6) = (  0.0666667  0.3333333  0.0000000  )
         7           C   tau(   7) = (  0.0000000  0.4000000  0.0000000  )
         8           C   tau(   8) = (  0.0666667  0.5333333  0.0000000  )
         9           C   tau(   9) = (  0.0000000  0.6000000  0.0000000  )
        10           C   tau(  10) = (  0.0666667  0.7333333  0.0000000  )
        11           C   tau(  11) = (  0.0000000  0.8000000  0.0000000  )
        12           C   tau(  12) = (  0.0666667  0.9333333  0.0000000  )
        13           C   tau(  13) = (  0.2000000  0.0000000  0.0000000  )
        14           C   tau(  14) = (  0.2666667  0.1333333  0.0000000  )
        15           C   tau(  15) = (  0.2000000  0.2000000  0.0000000  )
        16           C   tau(  16) = (  0.2666667  0.3333333  0.0000000  )
        17           C   tau(  17) = (  0.2000000  0.4000000  0.0000000  )
        18           C   tau(  18) = (  0.2666667  0.5333333  0.0000000  )
        19           C   tau(  19) = (  0.2000000  0.6000000  0.0000000  )
        20           C   tau(  20) = (  0.2666667  0.7333333  0.0000000  )
        21           C   tau(  21) = (  0.2000000  0.8000000  0.0000000  )
        22           C   tau(  22) = (  0.2666667  0.9333333  0.0000000  )
        23           C   tau(  23) = (  0.4000000  0.0000000  0.0000000  )
        24           C   tau(  24) = (  0.4666667  0.1333333  0.0000000  )
        25           C   tau(  25) = (  0.4000000  0.2000000  0.0000000  )
        26           C   tau(  26) = (  0.4666667  0.3333333  0.0000000  )
        27           C   tau(  27) = (  0.4000000  0.4000000  0.0000000  )
        28           Fe  tau(  28) = (  0.4666667  0.5333333  0.0000000  )
        29           C   tau(  29) = (  0.4000000  0.6000000  0.0000000  )
        30           C   tau(  30) = (  0.4666667  0.7333333  0.0000000  )
        31           C   tau(  31) = (  0.4000000  0.8000000  0.0000000  )
        32           C   tau(  32) = (  0.4666667  0.9333333  0.0000000  )
        33           C   tau(  33) = (  0.6000000  0.0000000  0.0000000  )
        34           C   tau(  34) = (  0.6666667  0.1333333  0.0000000  )
        35           C   tau(  35) = (  0.6000000  0.2000000  0.0000000  )
        36           C   tau(  36) = (  0.6666667  0.3333333  0.0000000  )
        37           C   tau(  37) = (  0.6000000  0.4000000  0.0000000  )
        38           C   tau(  38) = (  0.6666667  0.5333333  0.0000000  )
        39           C   tau(  39) = (  0.6000000  0.6000000  0.0000000  )
        40           C   tau(  40) = (  0.6666667  0.7333333  0.0000000  )
        41           C   tau(  41) = (  0.6000000  0.8000000  0.0000000  )
        42           C   tau(  42) = (  0.6666667  0.9333333  0.0000000  )
        43           C   tau(  43) = (  0.8000000  0.0000000  0.0000000  )
        44           C   tau(  44) = (  0.8666667  0.1333333  0.0000000  )
        45           C   tau(  45) = (  0.8000000  0.2000000  0.0000000  )
        46           C   tau(  46) = (  0.8666667  0.3333333  0.0000000  )
        47           C   tau(  47) = (  0.8000000  0.4000000  0.0000000  )
        48           C   tau(  48) = (  0.8666667  0.5333333  0.0000000  )
        49           C   tau(  49) = (  0.8000000  0.6000000  0.0000000  )
        50           C   tau(  50) = (  0.8666667  0.7333333  0.0000000  )
        51           C   tau(  51) = (  0.8000000  0.8000000  0.0000000  )
        52           C   tau(  52) = (  0.8666667  0.9333333  0.0000000  )

     number of k points=     1  Marzari-Vanderbilt smearing, width (Ry)=  0.0010
                       cart. coord. in units 2pi/alat
        k(    1) = (   0.0000000   0.0000000   0.0000000), wk =   1.0000000

                       cryst. coord.
        k(    1) = (   0.0000000   0.0000000   0.0000000), wk =   1.0000000

     Check: negative core charge=   -0.000002

     Initial potential from superposition of free atoms

     starting charge  213.80512, renormalised to  214.00000

     negative rho (up, down):  5.898E-05 1.064E-02

Carrying out rVV10 run using the following parameters:
Nqs =      20    Nr_points =    1024   r_max =   100.000
b_value =  6.30000    beta =  0.00901
     q_mesh =  0.00010000  0.00030000  0.00058939  0.00100810
               0.00161396  0.00249058  0.00375900  0.00559430
               0.00824984  0.01209221  0.01765183  0.02569619
               0.03733578  0.05417739  0.07854596  0.11380545
               0.16482331  0.23864234  0.34545298  0.50000000

Gradients computed in Reciprocal space

     Starting wfcs are  208 randomized atomic wfcs

     Self-consistent Calculation

     iteration #  1     ecut=    70.00 Ry     beta= 0.30
     Davidson diagonalization with overlap
     ethr =  1.00E-02,  avg # of iterations =  2.5

[...]

     total energy              =    -858.04606205 Ry
     Harris-Foulkes estimate   =    -858.62830141 Ry
     estimated scf accuracy    <      10.20003586 Ry

     total magnetization       =     6.00 Bohr mag/cell
     absolute magnetization    =     6.65 Bohr mag/cell

[...]

     total energy              =    -860.05611653 Ry
     Harris-Foulkes estimate   =    -860.05611570 Ry
     estimated scf accuracy    <       0.00000173 Ry

[...]

     iteration # 76     ecut=    70.00 Ry     beta= 0.30
     Davidson diagonalization with overlap
     ethr =  8.11E-10,  avg # of iterations =  2.0

     negative rho (up, down):  5.944E-04 1.142E-02

     Magnetic moment per site:
     atom:    1    charge:    0.2100    magn:    0.0000    constr:    0.0000
     atom:    2    charge:    0.2126    magn:    0.0004    constr:    0.0000
     atom:    3    charge:    1.7167    magn:   -0.0102    constr:    0.0000
     atom:    4    charge:    1.7155    magn:    0.0146    constr:    0.0000
     atom:    5    charge:    1.7175    magn:   -0.0063    constr:    0.0000
     atom:    6    charge:    1.7142    magn:    0.0047    constr:    0.0000
     atom:    7    charge:    1.7176    magn:   -0.0067    constr:    0.0000
     atom:    8    charge:    1.7151    magn:    0.0169    constr:    0.0000
     atom:    9    charge:    1.7171    magn:   -0.0108    constr:    0.0000
     atom:   10    charge:    1.7149    magn:    0.0560    constr:    0.0000
     atom:   11    charge:    1.7172    magn:   -0.0150    constr:    0.0000
     atom:   12    charge:    1.7160    magn:    0.0477    constr:    0.0000
     atom:   13    charge:    1.7172    magn:   -0.0150    constr:    0.0000
     atom:   14    charge:    1.7156    magn:    0.0433    constr:    0.0000
     atom:   15    charge:    1.7137    magn:   -0.0115    constr:    0.0000
     atom:   16    charge:    1.7117    magn:    0.0474    constr:    0.0000
     atom:   17    charge:    1.7224    magn:   -0.0075    constr:    0.0000
     atom:   18    charge:    1.7117    magn:    0.0463    constr:    0.0000
     atom:   19    charge:    1.7135    magn:   -0.0109    constr:    0.0000
     atom:   20    charge:    1.7163    magn:    0.0374    constr:    0.0000
     atom:   21    charge:    1.7174    magn:   -0.0152    constr:    0.0000
     atom:   22    charge:    1.7149    magn:    0.0560    constr:    0.0000
     atom:   23    charge:    1.7171    magn:   -0.0108    constr:    0.0000
     atom:   24    charge:    1.7154    magn:    0.0157    constr:    0.0000
     atom:   25    charge:    1.7138    magn:   -0.0115    constr:    0.0000
     atom:   26    charge:    1.7110    magn:    0.0541    constr:    0.0000
     atom:   27    charge:    1.8523    magn:   -0.0150    constr:    0.0000
     atom:   28    charge:   11.1469    magn:    0.4826    constr:    0.0000
     atom:   29    charge:    1.8517    magn:   -0.0159    constr:    0.0000
     atom:   30    charge:    1.7117    magn:    0.0463    constr:    0.0000
     atom:   31    charge:    1.7135    magn:   -0.0109    constr:    0.0000
     atom:   32    charge:    1.7151    magn:    0.0169    constr:    0.0000
     atom:   33    charge:    1.7176    magn:   -0.0067    constr:    0.0000
     atom:   34    charge:    1.7140    magn:    0.0113    constr:    0.0000
     atom:   35    charge:    1.7175    magn:   -0.0065    constr:    0.0000
     atom:   36    charge:    1.7143    magn:    0.0047    constr:    0.0000
     atom:   37    charge:    1.7227    magn:   -0.0085    constr:    0.0000
     atom:   38    charge:    1.7110    magn:    0.0541    constr:    0.0000
     atom:   39    charge:    1.8523    magn:   -0.0150    constr:    0.0000
     atom:   40    charge:    1.7117    magn:    0.0474    constr:    0.0000
     atom:   41    charge:    1.7224    magn:   -0.0075    constr:    0.0000
     atom:   42    charge:    1.7142    magn:    0.0047    constr:    0.0000
     atom:   43    charge:    1.7175    magn:   -0.0063    constr:    0.0000
     atom:   44    charge:    1.7142    magn:    0.0098    constr:    0.0000
     atom:   45    charge:    1.7233    magn:   -0.0003    constr:    0.0000
     atom:   46    charge:    1.7140    magn:    0.0113    constr:    0.0000
     atom:   47    charge:    1.7175    magn:   -0.0065    constr:    0.0000
     atom:   48    charge:    1.7154    magn:    0.0157    constr:    0.0000
     atom:   49    charge:    1.7138    magn:   -0.0115    constr:    0.0000
     atom:   50    charge:    1.7156    magn:    0.0433    constr:    0.0000
     atom:   51    charge:    1.7137    magn:   -0.0115    constr:    0.0000
     atom:   52    charge:    1.7155    magn:    0.0146    constr:    0.0000

     End of self-consistent calculation

 ------ SPIN UP ------------

          k = 0.0000 0.0000 0.0000 ( 87777 PWs)   bands (ev):

   -88.8704 -55.7621 -55.7028 -54.1027 -19.8647 -19.0379 -19.0212 -18.9393
   -18.9155 -18.9099 -18.5821 -17.1677 -17.1555 -17.1552 -17.0907 -17.0853
   -16.7808 -16.3151 -16.3115 -16.2097 -16.1656 -16.1644 -15.4850 -14.2309
   -14.2112 -14.1321 -14.0802 -14.0769 -13.4269 -13.1497 -13.1459 -13.1206
   -12.8477 -12.8465 -12.4330 -11.9341 -11.9318 -11.7387 -11.4969 -11.4946
   -10.6252  -9.8051  -9.8012  -9.5210  -9.4017  -9.4004  -9.3141  -9.2841
    -9.2834  -9.2715  -8.8148  -8.8138  -8.2865  -8.2825  -8.1838  -8.0171
    -7.9194  -7.5291  -7.5253  -7.3425  -7.2410  -7.2359  -7.0785  -7.0780
    -6.9240  -6.9071  -6.9001  -6.8001  -6.6572  -6.6515  -6.6428  -6.6188
    -6.6085  -6.6046  -6.5615  -6.2017  -5.7480  -5.7416  -5.7318  -5.7054
    -5.4744  -5.4712  -5.3556  -5.0720  -4.9647  -4.8246  -4.7998  -4.7947
    -4.5548  -4.5497  -4.4829  -4.3324  -4.3190  -3.9563  -3.9552  -3.8714
    -3.7678  -3.7657  -3.2148  -2.9194  -2.9093  -1.9556  -1.8872  -1.8844
    -1.3848  -1.3227  -1.2231  -0.9243   0.8386   0.8851   0.8886   1.3923
     1.4091   1.5167   2.2962   2.2983   2.5326   2.6845   2.6874   2.7780
     3.2883   3.3000   3.4327   3.6609   3.6909   3.7382   3.7415   3.7575

     occupation numbers
     1.0000   1.0000   1.0000   1.0000   1.0000   1.0000   1.0000   1.0000
     1.0000   1.0000   1.0000   1.0000   1.0000   1.0000   1.0000   1.0000
     1.0000   1.0000   1.0000   1.0000   1.0000   1.0000   1.0000   1.0000
     1.0000   1.0000   1.0000   1.0000   1.0000   1.0000   1.0000   1.0000
     1.0000   1.0000   1.0000   1.0000   1.0000   1.0000   1.0000   1.0000
     1.0000   1.0000   1.0000   1.0000   1.0000   1.0000   1.0000   1.0000
     1.0000   1.0000   1.0000   1.0000   1.0000   1.0000   1.0000   1.0000
     1.0000   1.0000   1.0000   1.0000   1.0000   1.0000   1.0000   1.0000
     1.0000   1.0000   1.0000   1.0000   1.0000   1.0000   1.0000   1.0000
     1.0000   1.0000   1.0000   1.0000   1.0000   1.0000   1.0000   1.0000
     1.0000   1.0000   1.0000   1.0000   1.0000   1.0000   1.0000   1.0000
     1.0000   1.0000   1.0000   1.0000   1.0000   1.0000   1.0000   1.0000
     1.0000   1.0000   1.0000   1.0000   1.0000   1.0000   1.0000   1.0000
     1.0000   1.0000   1.0000   1.0325   0.0000   0.0000   0.0000   0.0000
     0.0000   0.0000   0.0000   0.0000   0.0000   0.0000   0.0000   0.0000
     0.0000   0.0000   0.0000   0.0000   0.0000   0.0000   0.0000   0.0000

 ------ SPIN DOWN ----------

          k = 0.0000 0.0000 0.0000 ( 87777 PWs)   bands (ev):

   -88.1014 -55.1176 -55.1006 -53.1384 -19.8251 -18.9921 -18.9781 -18.9013
   -18.8906 -18.8846 -18.5249 -17.1326 -17.1266 -17.1221 -17.0393 -17.0355
   -16.7507 -16.2713 -16.2701 -16.1758 -16.1234 -16.1233 -15.4588 -14.1598
   -14.1483 -14.0758 -14.0696 -14.0653 -13.4254 -13.1243 -13.1219 -13.0904
   -12.8277 -12.8273 -12.4027 -11.8977 -11.8945 -11.7151 -11.4737 -11.4734
   -10.5987  -9.7513  -9.7487  -9.4912  -9.3702  -9.3702  -9.2977  -9.2618
    -9.2611  -9.2537  -8.8012  -8.8002  -8.2483  -8.2445  -8.1605  -7.9253
    -7.9027  -7.5151  -7.5107  -7.3063  -7.0777  -7.0729  -7.0277  -7.0271
    -6.8480  -6.8469  -6.8246  -6.7856  -6.6344  -6.6269  -6.6084  -6.5956
    -6.5919  -6.5590  -6.5430  -6.1645  -5.6904  -5.6866  -5.4884  -5.4809
    -5.4307  -5.4286  -5.2319  -5.0582  -4.9553  -4.7542  -4.7103  -4.7097
    -4.4708  -4.4654  -4.4090  -4.2058  -4.2041  -3.8334  -3.8309  -3.7779
    -3.7526  -3.7507  -3.1613  -2.6893  -2.6841  -1.8592  -1.8565  -1.8097
    -0.9445  -0.9071  -0.8398  -0.8118   0.9309   0.9350   0.9817   1.5495
     1.5505   1.6372   2.4622   2.4652   2.5458   2.8139   2.8185   2.8533
     3.4437   3.4466   3.5304   3.6783   3.7058   3.7467   3.7492   3.7619

     occupation numbers
     1.0000   1.0000   1.0000   1.0000   1.0000   1.0000   1.0000   1.0000
     1.0000   1.0000   1.0000   1.0000   1.0000   1.0000   1.0000   1.0000
     1.0000   1.0000   1.0000   1.0000   1.0000   1.0000   1.0000   1.0000
     1.0000   1.0000   1.0000   1.0000   1.0000   1.0000   1.0000   1.0000
     1.0000   1.0000   1.0000   1.0000   1.0000   1.0000   1.0000   1.0000
     1.0000   1.0000   1.0000   1.0000   1.0000   1.0000   1.0000   1.0000
     1.0000   1.0000   1.0000   1.0000   1.0000   1.0000   1.0000   1.0000
     1.0000   1.0000   1.0000   1.0000   1.0000   1.0000   1.0000   1.0000
     1.0000   1.0000   1.0000   1.0000   1.0000   1.0000   1.0000   1.0000
     1.0000   1.0000   1.0000   1.0000   1.0000   1.0000   1.0000   1.0000
     1.0000   1.0000   1.0000   1.0000   1.0000   1.0000   1.0000   1.0000
     1.0000   1.0000   1.0000   1.0000   1.0000   1.0000   1.0000   1.0000
     1.0000   1.0000   1.0000   1.0000   1.0000   1.0000   1.0000   1.0000
     1.0001   0.9674   0.0000   0.0000   0.0000   0.0000   0.0000   0.0000
     0.0000   0.0000   0.0000   0.0000   0.0000   0.0000   0.0000   0.0000
     0.0000   0.0000   0.0000   0.0000   0.0000   0.0000   0.0000   0.0000

     the Fermi energy is    -0.8956 ev

!    total energy              =    -860.05611799 Ry
     Harris-Foulkes estimate   =    -860.05611685 Ry
     estimated scf accuracy    <       0.00000098 Ry

     The total energy is the sum of the following terms:

     one-electron contribution =   -2795.02970250 Ry
     hartree contribution      =    1441.34502587 Ry
     xc contribution           =    -259.32676490 Ry
     ewald contribution        =     752.95519131 Ry
     smearing contrib. (-TS)   =       0.00013223 Ry

     total magnetization       =     2.07 Bohr mag/cell
     absolute magnetization    =     2.98 Bohr mag/cell

     convergence has been achieved in  76 iterations

     Writing output data file distance-2.8.save/

     General routines

     Parallel routines

   This run was terminated on:   5:35: 5  16Nov2022

   JOB DONE.