     Program PWSCF v.6.4.1 starts on 16Nov2022 at 13:36:23

     R & G space division:  proc/nbgrp/npool/nimage =       6
     Reading input from distance-2.0.in

     Current dimensions of program PWSCF are:
     Max number of different atomic species (ntypx) = 10
     Max number of k-points (npk) =  40000
     Max angular momentum in pseudopotentials (lmaxx) =  3

     IMPORTANT: XC functional enforced from input :
     Exchange-correlation      = RVV10 ( 1  4 13  4 3 0)
     Any further DFT definition will be discarded
     Please, verify this is what you really want

               file H.pbe-rrkjus.UPF: wavefunction(s)  1S renormalized

     Subspace diagonalization in iterative solution of the eigenvalue problem:
     a serial algorithm will be used

     bravais-lattice index     =            4
     lattice parameter (alat)  =      23.2937  a.u.
     unit-cell volume          =    8879.8548 (a.u.)^3
     number of atoms/cell      =           52
     number of atomic types    =            3
     number of electrons       =       214.00
     number of Kohn-Sham states=          128
     kinetic-energy cutoff     =      70.0000  Ry
     charge density cutoff     =     490.0000  Ry
     convergence threshold     =      1.0E-06
     mixing beta               =       0.3000
     number of iterations used =            4  plain     mixing
     Exchange-correlation      = RVV10 ( 1  4 13  4 3 0)

     celldm(1)=  23.293684  celldm(2)=   0.000000  celldm(3)=   0.811261
     celldm(4)=   0.000000  celldm(5)=   0.000000  celldm(6)=   0.000000

     crystal axes: (cart. coord. in units of alat)
               a(1) = (   1.000000   0.000000   0.000000 )
               a(2) = (  -0.500000   0.866025   0.000000 )
               a(3) = (   0.000000   0.000000   0.811261 )

     reciprocal axes: (cart. coord. in units 2 pi/alat)
               b(1) = (  1.000000  0.577350 -0.000000 )
               b(2) = (  0.000000  1.154701  0.000000 )
               b(3) = (  0.000000 -0.000000  1.232649 )

     PseudoPot. # 1 for H  read from file:
     /home/cristian/Escritorio/Proyecto_Grafeno/pseudopotenciales/H.pbe-rrkjus.UPF
     MD5 check sum: 7cc9d459525c9a0585f487a71c3c9563
     Pseudo is Ultrasoft, Zval =  1.0
     Generated by new atomic code, or converted to UPF format
     Using radial grid of 1061 points,  2 beta functions with:
                l(1) =   0
                l(2) =   0
     Q(r) pseudized with 0 coefficients

     PseudoPot. # 2 for C  read from file:
     /home/cristian/Escritorio/Proyecto_Grafeno/pseudopotenciales/C.pbe-n-rrkjus_psl.1.0.0.UPF
     MD5 check sum: 1fdd950c42eb37d8afe3dd2f8d12311e
     Pseudo is Ultrasoft + core correction, Zval =  4.0
     Generated using "atomic" code by A. Dal Corso v.6.3MaX
     Using radial grid of 1073 points,  4 beta functions with:
                l(1) =   0
                l(2) =   0
                l(3) =   1
                l(4) =   1
     Q(r) pseudized with 0 coefficients

     PseudoPot. # 3 for Fe read from file:
     /home/cristian/Escritorio/Proyecto_Grafeno/pseudopotenciales/Fe.pbe-spn-rrkjus_psl.1.0.0.UPF
     MD5 check sum: 72ea77fed8e64ab3a2ccf2804dfc1862
     Pseudo is Ultrasoft + core correction, Zval = 16.0
     Generated using "atomic" code by A. Dal Corso v.6.3
     Using radial grid of 1191 points,  6 beta functions with:
                l(1) =   0
                l(2) =   0
                l(3) =   1
                l(4) =   1
                l(5) =   2
                l(6) =   2
     Q(r) pseudized with 0 coefficients

     vdW kernel table read from file rVV10_kernel_table
     MD5 check sum: b8e2538accc0c0b3206b45ba4daaba6c

     atomic species   valence    mass     pseudopotential
        H              1.00     1.00794     H ( 1.00)
        C              4.00    12.01070     C ( 1.00)
        Fe            16.00    55.84500     Fe( 1.00)

     Starting magnetic structure
     atomic species   magnetization
        H            0.500
        C            0.300
        Fe           0.800

      2 Sym. Ops. (no inversion) found

                                    s                        frac. trans.

      isym =  1     identity

 cryst.   s( 1) = (     1          0          0      )
                  (     0          1          0      )
                  (     0          0          1      )

 cart.    s( 1) = (  1.0000000  0.0000000  0.0000000 )
                  (  0.0000000  1.0000000  0.0000000 )
                  (  0.0000000  0.0000000  1.0000000 )

      isym =  2     inv. 180 deg rotation - cryst. axis [1,1,0]

 cryst.   s( 2) = (     0         -1          0      )
                  (    -1          0          0      )
                  (     0          0          1      )

 cart.    s( 2) = (  0.5000000 -0.8660254  0.0000000 )
                  ( -0.8660254 -0.5000000  0.0000000 )
                  (  0.0000000  0.0000000  1.0000000 )

     point group C_s (m)
     there are  2 classes
     the character table:

       E     s
A'     1.00  1.00
A''    1.00 -1.00

     the symmetry operations in each class and the name of the first element:

     E        1
          identity
     s        2
          inv. 180 deg rotation - cryst. axis [1,1,0]

   Cartesian axes

     site n.     atom                  positions (alat units)
         1           H   tau(   1) = (   0.2500000   0.4330127   0.1622522  )
         2           H   tau(   2) = (   0.2500000   0.4330127   0.2232649  )
         3           C   tau(   3) = (   0.0000000   0.0000000   0.0000000  )
         4           C   tau(   4) = (   0.0000000   0.1154701   0.0000000  )
         5           C   tau(   5) = (  -0.1000000   0.1732051   0.0000000  )
         6           C   tau(   6) = (  -0.1000000   0.2886751   0.0000000  )
         7           C   tau(   7) = (  -0.2000000   0.3464102   0.0000000  )
         8           C   tau(   8) = (  -0.2000000   0.4618802   0.0000000  )
         9           C   tau(   9) = (  -0.3000000   0.5196152   0.0000000  )
        10           C   tau(  10) = (  -0.3000000   0.6350853   0.0000000  )
        11           C   tau(  11) = (  -0.4000000   0.6928203   0.0000000  )
        12           C   tau(  12) = (  -0.4000000   0.8082904   0.0000000  )
        13           C   tau(  13) = (   0.2000000   0.0000000   0.0000000  )
        14           C   tau(  14) = (   0.2000000   0.1154701   0.0000000  )
        15           C   tau(  15) = (   0.1000000   0.1732051   0.0000000  )
        16           C   tau(  16) = (   0.1000000   0.2886751   0.0000000  )
        17           C   tau(  17) = (   0.0000000   0.3464102   0.0000000  )
        18           C   tau(  18) = (   0.0000000   0.4618802   0.0000000  )
        19           C   tau(  19) = (  -0.1000000   0.5196152   0.0000000  )
        20           C   tau(  20) = (  -0.1000000   0.6350853   0.0000000  )
        21           C   tau(  21) = (  -0.2000000   0.6928203   0.0000000  )
        22           C   tau(  22) = (  -0.2000000   0.8082904   0.0000000  )
        23           C   tau(  23) = (   0.4000000   0.0000000   0.0000000  )
        24           C   tau(  24) = (   0.4000000   0.1154701   0.0000000  )
        25           C   tau(  25) = (   0.3000000   0.1732051   0.0000000  )
        26           C   tau(  26) = (   0.3000000   0.2886751   0.0000000  )
        27           C   tau(  27) = (   0.2000000   0.3464102   0.0000000  )
        28           Fe  tau(  28) = (   0.2000000   0.4618802   0.0000000  )
        29           C   tau(  29) = (   0.1000000   0.5196152   0.0000000  )
        30           C   tau(  30) = (   0.1000000   0.6350853   0.0000000  )
        31           C   tau(  31) = (   0.0000000   0.6928203   0.0000000  )
        32           C   tau(  32) = (   0.0000000   0.8082904   0.0000000  )
        33           C   tau(  33) = (   0.6000000   0.0000000   0.0000000  )
        34           C   tau(  34) = (   0.6000000   0.1154701   0.0000000  )
        35           C   tau(  35) = (   0.5000000   0.1732051   0.0000000  )
        36           C   tau(  36) = (   0.5000000   0.2886751   0.0000000  )
        37           C   tau(  37) = (   0.4000000   0.3464102   0.0000000  )
        38           C   tau(  38) = (   0.4000000   0.4618802   0.0000000  )
        39           C   tau(  39) = (   0.3000000   0.5196152   0.0000000  )
        40           C   tau(  40) = (   0.3000000   0.6350853   0.0000000  )
        41           C   tau(  41) = (   0.2000000   0.6928203   0.0000000  )
        42           C   tau(  42) = (   0.2000000   0.8082904   0.0000000  )
        43           C   tau(  43) = (   0.8000000   0.0000000   0.0000000  )
        44           C   tau(  44) = (   0.8000000   0.1154701   0.0000000  )
        45           C   tau(  45) = (   0.7000000   0.1732051   0.0000000  )
        46           C   tau(  46) = (   0.7000000   0.2886751   0.0000000  )
        47           C   tau(  47) = (   0.6000000   0.3464102   0.0000000  )
        48           C   tau(  48) = (   0.6000000   0.4618802   0.0000000  )
        49           C   tau(  49) = (   0.5000000   0.5196152   0.0000000  )
        50           C   tau(  50) = (   0.5000000   0.6350853   0.0000000  )
        51           C   tau(  51) = (   0.4000000   0.6928203   0.0000000  )
        52           C   tau(  52) = (   0.4000000   0.8082904   0.0000000  )

   Crystallographic axes

     site n.     atom                  positions (cryst. coord.)
         1           H   tau(   1) = (  0.5000000  0.5000000  0.2000000  )
         2           H   tau(   2) = (  0.5000000  0.5000000  0.2752072  )
         3           C   tau(   3) = (  0.0000000  0.0000000  0.0000000  )
         4           C   tau(   4) = (  0.0666667  0.1333333  0.0000000  )
         5           C   tau(   5) = (  0.0000000  0.2000000  0.0000000  )
         6           C   tau(   6) = (  0.0666667  0.3333333  0.0000000  )
         7           C   tau(   7) = (  0.0000000  0.4000000  0.0000000  )
         8           C   tau(   8) = (  0.0666667  0.5333333  0.0000000  )
         9           C   tau(   9) = (  0.0000000  0.6000000  0.0000000  )
        10           C   tau(  10) = (  0.0666667  0.7333333  0.0000000  )
        11           C   tau(  11) = (  0.0000000  0.8000000  0.0000000  )
        12           C   tau(  12) = (  0.0666667  0.9333333  0.0000000  )
        13           C   tau(  13) = (  0.2000000  0.0000000  0.0000000  )
        14           C   tau(  14) = (  0.2666667  0.1333333  0.0000000  )
        15           C   tau(  15) = (  0.2000000  0.2000000  0.0000000  )
        16           C   tau(  16) = (  0.2666667  0.3333333  0.0000000  )
        17           C   tau(  17) = (  0.2000000  0.4000000  0.0000000  )
        18           C   tau(  18) = (  0.2666667  0.5333333  0.0000000  )
        19           C   tau(  19) = (  0.2000000  0.6000000  0.0000000  )
        20           C   tau(  20) = (  0.2666667  0.7333333  0.0000000  )
        21           C   tau(  21) = (  0.2000000  0.8000000  0.0000000  )
        22           C   tau(  22) = (  0.2666667  0.9333333  0.0000000  )
        23           C   tau(  23) = (  0.4000000  0.0000000  0.0000000  )
[...]
        42           C   tau(  42) = (  0.6666667  0.9333333  0.0000000  )
        43           C   tau(  43) = (  0.8000000  0.0000000  0.0000000  )
        44           C   tau(  44) = (  0.8666667  0.1333333  0.0000000  )
        45           C   tau(  45) = (  0.8000000  0.2000000  0.0000000  )
        46           C   tau(  46) = (  0.8666667  0.3333333  0.0000000  )
        47           C   tau(  47) = (  0.8000000  0.4000000  0.0000000  )
        48           C   tau(  48) = (  0.8666667  0.5333333  0.0000000  )
        49           C   tau(  49) = (  0.8000000  0.6000000  0.0000000  )
        50           C   tau(  50) = (  0.8666667  0.7333333  0.0000000  )
        51           C   tau(  51) = (  0.8000000  0.8000000  0.0000000  )
        52           C   tau(  52) = (  0.8666667  0.9333333  0.0000000  )

     number of k points=     1  Marzari-Vanderbilt smearing, width (Ry)=  0.0010
                       cart. coord. in units 2pi/alat
        k(    1) = (   0.0000000   0.0000000   0.0000000), wk =   1.0000000

                       cryst. coord.
        k(    1) = (   0.0000000   0.0000000   0.0000000), wk =   1.0000000

     Check: negative core charge=   -0.000002

     Initial potential from superposition of free atoms

     starting charge  213.80512, renormalised to  214.00000

     negative rho (up, down):  6.604E-05 1.287E-02

Carrying out rVV10 run using the following parameters:
Nqs =      20    Nr_points =    1024   r_max =   100.000
b_value =  6.30000    beta =  0.00901
     q_mesh =  0.00010000  0.00030000  0.00058939  0.00100810
               0.00161396  0.00249058  0.00375900  0.00559430
               0.00824984  0.01209221  0.01765183  0.02569619
               0.03733578  0.05417739  0.07854596  0.11380545
               0.16482331  0.23864234  0.34545298  0.50000000

Gradients computed in Reciprocal space

     Starting wfcs are  208 randomized atomic wfcs

     Self-consistent Calculation

     iteration #  1     ecut=    70.00 Ry     beta= 0.30
     Davidson diagonalization with overlap
     ethr =  1.00E-02,  avg # of iterations =  2.5

[...]

     total energy              =    -857.87633629 Ry
     Harris-Foulkes estimate   =    -858.69472715 Ry
     estimated scf accuracy    <      10.73930661 Ry

     total magnetization       =     6.00 Bohr mag/cell
     absolute magnetization    =     6.61 Bohr mag/cell

[...]

     Magnetic moment per site:
     atom:    1    charge:    0.2129    magn:   -0.0008    constr:    0.0000
     atom:    2    charge:    0.2121    magn:    0.0138    constr:    0.0000
     atom:    3    charge:    1.7153    magn:    0.0016    constr:    0.0000
     atom:    4    charge:    1.7163    magn:    0.0045    constr:    0.0000
     atom:    5    charge:    1.7165    magn:    0.0049    constr:    0.0000
     atom:    6    charge:    1.7151    magn:   -0.0014    constr:    0.0000
     atom:    7    charge:    1.7163    magn:    0.0071    constr:    0.0000
     atom:    8    charge:    1.7162    magn:    0.0047    constr:    0.0000
     atom:    9    charge:    1.7154    magn:    0.0008    constr:    0.0000
     atom:   10    charge:    1.7183    magn:    0.0226    constr:    0.0000
     atom:   11    charge:    1.7154    magn:   -0.0058    constr:    0.0000
     atom:   12    charge:    1.7180    magn:    0.0250    constr:    0.0000
     atom:   13    charge:    1.7154    magn:   -0.0058    constr:    0.0000
     atom:   14    charge:    1.7176    magn:    0.0209    constr:    0.0000
     atom:   15    charge:    1.7128    magn:   -0.0036    constr:    0.0000
     atom:   16    charge:    1.7152    magn:    0.0232    constr:    0.0000
     atom:   17    charge:    1.7186    magn:    0.0200    constr:    0.0000
     atom:   18    charge:    1.7163    magn:    0.0153    constr:    0.0000
     atom:   19    charge:    1.7124    magn:   -0.0017    constr:    0.0000
     atom:   20    charge:    1.7183    magn:    0.0138    constr:    0.0000
     atom:   21    charge:    1.7151    magn:   -0.0040    constr:    0.0000
     atom:   22    charge:    1.7183    magn:    0.0226    constr:    0.0000
     atom:   23    charge:    1.7154    magn:    0.0008    constr:    0.0000
     atom:   24    charge:    1.7162    magn:    0.0048    constr:    0.0000
     atom:   25    charge:    1.7126    magn:   -0.0029    constr:    0.0000
     atom:   26    charge:    1.7162    magn:    0.0198    constr:    0.0000
     atom:   27    charge:    1.8503    magn:    0.0073    constr:    0.0000
     atom:   28    charge:   11.1683    magn:    0.4547    constr:    0.0000
     atom:   29    charge:    1.8484    magn:    0.0134    constr:    0.0000
     atom:   30    charge:    1.7163    magn:    0.0153    constr:    0.0000
     atom:   31    charge:    1.7124    magn:   -0.0017    constr:    0.0000
     atom:   32    charge:    1.7162    magn:    0.0047    constr:    0.0000
     atom:   33    charge:    1.7163    magn:    0.0071    constr:    0.0000
     atom:   34    charge:    1.7162    magn:   -0.0003    constr:    0.0000
     atom:   35    charge:    1.7166    magn:    0.0044    constr:    0.0000
     atom:   36    charge:    1.7147    magn:    0.0007    constr:    0.0000
     atom:   37    charge:    1.7194    magn:    0.0120    constr:    0.0000
     atom:   38    charge:    1.7162    magn:    0.0198    constr:    0.0000
     atom:   39    charge:    1.8503    magn:    0.0073    constr:    0.0000
     atom:   40    charge:    1.7152    magn:    0.0232    constr:    0.0000
     atom:   41    charge:    1.7186    magn:    0.0200    constr:    0.0000
     atom:   42    charge:    1.7151    magn:   -0.0014    constr:    0.0000
     atom:   43    charge:    1.7165    magn:    0.0049    constr:    0.0000
     atom:   44    charge:    1.7161    magn:    0.0010    constr:    0.0000
     atom:   45    charge:    1.7184    magn:    0.0334    constr:    0.0000
     atom:   46    charge:    1.7162    magn:   -0.0003    constr:    0.0000
     atom:   47    charge:    1.7166    magn:    0.0044    constr:    0.0000
     atom:   48    charge:    1.7162    magn:    0.0048    constr:    0.0000
     atom:   49    charge:    1.7126    magn:   -0.0029    constr:    0.0000
     atom:   50    charge:    1.7176    magn:    0.0209    constr:    0.0000
     atom:   51    charge:    1.7128    magn:   -0.0036    constr:    0.0000
     atom:   52    charge:    1.7163    magn:    0.0045    constr:    0.0000

[...]

     total energy              =    -860.03719043 Ry
     Harris-Foulkes estimate   =    -860.03719047 Ry
     estimated scf accuracy    <       0.00000161 Ry

[...]

     iteration #112     ecut=    70.00 Ry     beta= 0.30
     Davidson diagonalization with overlap
     ethr =  6.36E-10,  avg # of iterations =  2.0

     negative rho (up, down):  6.417E-04 1.901E-02

     Magnetic moment per site:
     atom:    1    charge:    0.2129    magn:   -0.0008    constr:    0.0000
     atom:    2    charge:    0.2120    magn:    0.0139    constr:    0.0000
     atom:    3    charge:    1.7153    magn:    0.0020    constr:    0.0000
     atom:    4    charge:    1.7163    magn:    0.0043    constr:    0.0000
     atom:    5    charge:    1.7165    magn:    0.0051    constr:    0.0000
     atom:    6    charge:    1.7151    magn:   -0.0016    constr:    0.0000
     atom:    7    charge:    1.7163    magn:    0.0075    constr:    0.0000
     atom:    8    charge:    1.7162    magn:    0.0042    constr:    0.0000
     atom:    9    charge:    1.7154    magn:    0.0013    constr:    0.0000
     atom:   10    charge:    1.7184    magn:    0.0216    constr:    0.0000
     atom:   11    charge:    1.7154    magn:   -0.0054    constr:    0.0000
     atom:   12    charge:    1.7180    magn:    0.0248    constr:    0.0000
     atom:   13    charge:    1.7154    magn:   -0.0054    constr:    0.0000
     atom:   14    charge:    1.7176    magn:    0.0203    constr:    0.0000
     atom:   15    charge:    1.7128    magn:   -0.0034    constr:    0.0000
     atom:   16    charge:    1.7152    magn:    0.0230    constr:    0.0000
     atom:   17    charge:    1.7186    magn:    0.0206    constr:    0.0000
     atom:   18    charge:    1.7163    magn:    0.0147    constr:    0.0000
     atom:   19    charge:    1.7124    magn:   -0.0014    constr:    0.0000
     atom:   20    charge:    1.7183    magn:    0.0132    constr:    0.0000
     atom:   21    charge:    1.7151    magn:   -0.0035    constr:    0.0000
     atom:   22    charge:    1.7184    magn:    0.0216    constr:    0.0000
     atom:   23    charge:    1.7154    magn:    0.0013    constr:    0.0000
     atom:   24    charge:    1.7162    magn:    0.0044    constr:    0.0000
     atom:   25    charge:    1.7126    magn:   -0.0026    constr:    0.0000
     atom:   26    charge:    1.7163    magn:    0.0189    constr:    0.0000
     atom:   27    charge:    1.8503    magn:    0.0072    constr:    0.0000
     atom:   28    charge:   11.1681    magn:    0.4562    constr:    0.0000
     atom:   29    charge:    1.8483    magn:    0.0138    constr:    0.0000
     atom:   30    charge:    1.7163    magn:    0.0147    constr:    0.0000
     atom:   31    charge:    1.7124    magn:   -0.0014    constr:    0.0000
     atom:   32    charge:    1.7162    magn:    0.0042    constr:    0.0000
     atom:   33    charge:    1.7163    magn:    0.0075    constr:    0.0000
     atom:   34    charge:    1.7163    magn:   -0.0006    constr:    0.0000
     atom:   35    charge:    1.7166    magn:    0.0047    constr:    0.0000
     atom:   36    charge:    1.7147    magn:    0.0006    constr:    0.0000
     atom:   37    charge:    1.7194    magn:    0.0125    constr:    0.0000
     atom:   38    charge:    1.7163    magn:    0.0189    constr:    0.0000
     atom:   39    charge:    1.8503    magn:    0.0072    constr:    0.0000
     atom:   40    charge:    1.7152    magn:    0.0230    constr:    0.0000
     atom:   41    charge:    1.7186    magn:    0.0206    constr:    0.0000
     atom:   42    charge:    1.7151    magn:   -0.0016    constr:    0.0000
     atom:   43    charge:    1.7165    magn:    0.0051    constr:    0.0000
     atom:   44    charge:    1.7161    magn:    0.0008    constr:    0.0000
     atom:   45    charge:    1.7184    magn:    0.0341    constr:    0.0000
     atom:   46    charge:    1.7163    magn:   -0.0006    constr:    0.0000
     atom:   47    charge:    1.7166    magn:    0.0047    constr:    0.0000
     atom:   48    charge:    1.7162    magn:    0.0044    constr:    0.0000
     atom:   49    charge:    1.7126    magn:   -0.0026    constr:    0.0000
     atom:   50    charge:    1.7176    magn:    0.0203    constr:    0.0000
     atom:   51    charge:    1.7128    magn:   -0.0034    constr:    0.0000
     atom:   52    charge:    1.7163    magn:    0.0043    constr:    0.0000

     End of self-consistent calculation

 ------ SPIN UP ------------

          k = 0.0000 0.0000 0.0000 ( 87777 PWs)   bands (ev):

   -89.0210 -55.8518 -55.8391 -54.3889 -19.7801 -18.9213 -18.9075 -18.8812
   -18.8789 -18.8521 -18.5697 -17.0983 -17.0979 -17.0708 -17.0225 -17.0182
   -16.7190 -16.2386 -16.2348 -16.1640 -16.1150 -16.1100 -15.4648 -14.1377
   -14.1353 -14.0773 -14.0021 -13.9992 -13.4789 -13.0763 -13.0724 -13.0462
   -12.8077 -12.8048 -12.3292 -11.8823 -11.8785 -11.6915 -11.4491 -11.4458
   -10.5999  -9.8057  -9.8043  -9.4522  -9.3145  -9.3126  -9.2184  -9.2069
    -9.2061  -9.1986  -8.7624  -8.7552  -8.2823  -8.2804  -8.1068  -8.0328
    -7.8482  -7.6226  -7.4488  -7.4375  -7.3501  -7.2398  -7.0859  -7.0454
    -7.0447  -6.8364  -6.8349  -6.8219  -6.7406  -6.5565  -6.5500  -6.5499
    -6.5453  -6.5416  -6.5103  -6.3183  -5.7923  -5.7527  -5.7306  -5.7197
    -5.4660  -5.4243  -5.4239  -4.9728  -4.9228  -4.7360  -4.7266  -4.7250
    -4.5402  -4.5335  -4.4010  -4.2662  -4.2625  -3.8426  -3.8345  -3.8256
    -3.7070  -3.7029  -3.1945  -2.8942  -2.8905  -1.8778  -1.8131  -1.8121
    -1.7411  -1.1508  -1.1499  -1.0709   0.9080   0.9583   0.9585   1.4605
     1.4625   1.5730   2.1180   2.1546   2.5398   2.7822   2.7902   2.8027
     3.3199   3.3280   3.4408   3.6767   3.6915   3.7753   3.7763   3.7817

     occupation numbers
     1.0000   1.0000   1.0000   1.0000   1.0000   1.0000   1.0000   1.0000
     1.0000   1.0000   1.0000   1.0000   1.0000   1.0000   1.0000   1.0000
     1.0000   1.0000   1.0000   1.0000   1.0000   1.0000   1.0000   1.0000
     1.0000   1.0000   1.0000   1.0000   1.0000   1.0000   1.0000   1.0000
     1.0000   1.0000   1.0000   1.0000   1.0000   1.0000   1.0000   1.0000
     1.0000   1.0000   1.0000   1.0000   1.0000   1.0000   1.0000   1.0000
     1.0000   1.0000   1.0000   1.0000   1.0000   1.0000   1.0000   1.0000
     1.0000   1.0000   1.0000   1.0000   1.0000   1.0000   1.0000   1.0000
     1.0000   1.0000   1.0000   1.0000   1.0000   1.0000   1.0000   1.0000
     1.0000   1.0000   1.0000   1.0000   1.0000   1.0000   1.0000   1.0000
     1.0000   1.0000   1.0000   1.0000   1.0000   1.0000   1.0000   1.0000
     1.0000   1.0000   1.0000   1.0000   1.0000   1.0000   1.0000   1.0000
     1.0000   1.0000   1.0000   1.0000   1.0000   1.0000   1.0000   1.0000
     1.0000   1.0000   1.0000   1.0000   0.0000   0.0000   0.0000   0.0000
     0.0000   0.0000   0.0000   0.0000   0.0000   0.0000   0.0000   0.0000
     0.0000   0.0000   0.0000   0.0000   0.0000   0.0000   0.0000   0.0000

 ------ SPIN DOWN ----------

          k = 0.0000 0.0000 0.0000 ( 87777 PWs)   bands (ev):

   -88.2909 -55.2748 -55.2732 -53.4208 -19.7523 -18.8872 -18.8779 -18.8626
   -18.8603 -18.8231 -18.5176 -17.0696 -17.0680 -17.0558 -16.9863 -16.9840
   -16.6869 -16.2091 -16.2082 -16.1287 -16.0827 -16.0804 -15.4322 -14.0917
   -14.0906 -14.0461 -13.9889 -13.9868 -13.4274 -13.0565 -13.0552 -13.0255
   -12.7880 -12.7873 -12.3055 -11.8513 -11.8475 -11.6632 -11.4280 -11.4259
   -10.5607  -9.7490  -9.7465  -9.4364  -9.2895  -9.2889  -9.2075  -9.1905
    -9.1901  -9.1806  -8.7453  -8.7403  -8.2434  -8.2425  -8.0636  -7.9504
    -7.8358  -7.5121  -7.4359  -7.4123  -7.2950  -7.0941  -6.9928  -6.9928
    -6.9410  -6.7934  -6.7918  -6.7519  -6.7311  -6.5422  -6.5402  -6.5389
    -6.5353  -6.5335  -6.4914  -6.1891  -5.6708  -5.6642  -5.5890  -5.5118
    -5.3874  -5.3869  -5.2531  -4.9609  -4.9166  -4.6907  -4.6601  -4.6562
    -4.4660  -4.4612  -4.3207  -4.1848  -4.1843  -3.7662  -3.7645  -3.7336
    -3.6914  -3.6884  -3.0973  -2.7239  -2.7204  -1.7990  -1.7875  -1.7859
    -0.9573  -0.9119  -0.9083  -0.8024   0.9905   0.9949   0.9971   1.5681
     1.5738   1.6792   2.3141   2.3487   2.5526   2.8656   2.8660   2.8982
     3.4354   3.4363   3.5495   3.6876   3.7061   3.7771   3.7776   3.7873

     occupation numbers
     1.0000   1.0000   1.0000   1.0000   1.0000   1.0000   1.0000   1.0000
     1.0000   1.0000   1.0000   1.0000   1.0000   1.0000   1.0000   1.0000
     1.0000   1.0000   1.0000   1.0000   1.0000   1.0000   1.0000   1.0000
     1.0000   1.0000   1.0000   1.0000   1.0000   1.0000   1.0000   1.0000
     1.0000   1.0000   1.0000   1.0000   1.0000   1.0000   1.0000   1.0000
     1.0000   1.0000   1.0000   1.0000   1.0000   1.0000   1.0000   1.0000
     1.0000   1.0000   1.0000   1.0000   1.0000   1.0000   1.0000   1.0000
     1.0000   1.0000   1.0000   1.0000   1.0000   1.0000   1.0000   1.0000
     1.0000   1.0000   1.0000   1.0000   1.0000   1.0000   1.0000   1.0000
     1.0000   1.0000   1.0000   1.0000   1.0000   1.0000   1.0000   1.0000
     1.0000   1.0000   1.0000   1.0000   1.0000   1.0000   1.0000   1.0000
     1.0000   1.0000   1.0000   1.0000   1.0000   1.0000   1.0000   1.0000
     1.0000   1.0000   1.0000   1.0000   1.0000   1.0000   1.0000   1.0000
     1.0001   0.5968   0.4031   0.0000   0.0000   0.0000   0.0000   0.0000
     0.0000   0.0000   0.0000   0.0000   0.0000   0.0000   0.0000   0.0000
     0.0000   0.0000   0.0000   0.0000   0.0000   0.0000   0.0000   0.0000

     the Fermi energy is    -0.9082 ev

!    total energy              =    -860.03719042 Ry
     Harris-Foulkes estimate   =    -860.03719064 Ry
     estimated scf accuracy    <       0.00000060 Ry

     The total energy is the sum of the following terms:

     one-electron contribution =   -2814.24313420 Ry
     hartree contribution      =    1451.23578077 Ry
     xc contribution           =    -259.41682339 Ry
     ewald contribution        =     762.38730155 Ry
     smearing contrib. (-TS)   =      -0.00031516 Ry

     total magnetization       =     2.00 Bohr mag/cell
     absolute magnetization    =     2.21 Bohr mag/cell

     convergence has been achieved in 112 iterations

     Writing output data file distance-2.0.save/

     General routines

     Parallel routines

   This run was terminated on:  16:42:47  16Nov2022

   JOB DONE.