     Program PWSCF v.6.4.1 starts on 15Nov2022 at 23:53:19

     R & G space division:  proc/nbgrp/npool/nimage =       6
     Reading input from distance-3.0.in

     Current dimensions of program PWSCF are:
     Max number of different atomic species (ntypx) = 10
     Max number of k-points (npk) =  40000
     Max angular momentum in pseudopotentials (lmaxx) =  3

     IMPORTANT: XC functional enforced from input :
     Exchange-correlation      = RVV10 ( 1  4 13  4 3 0)
     Any further DFT definition will be discarded
     Please, verify this is what you really want

               file H.pbe-rrkjus.UPF: wavefunction(s)  1S renormalized

     Subspace diagonalization in iterative solution of the eigenvalue problem:
     a serial algorithm will be used

     bravais-lattice index     =            4
     lattice parameter (alat)  =      23.2937  a.u.
     unit-cell volume          =    8879.8548 (a.u.)^3
     number of atoms/cell      =           52
     number of atomic types    =            3
     number of electrons       =       214.00
     number of Kohn-Sham states=          128
     kinetic-energy cutoff     =      70.0000  Ry
     charge density cutoff     =     490.0000  Ry
     convergence threshold     =      1.0E-06
     mixing beta               =       0.3000
     number of iterations used =            4  plain     mixing
     Exchange-correlation      = RVV10 ( 1  4 13  4 3 0)

     celldm(1)=  23.293684  celldm(2)=   0.000000  celldm(3)=   0.811261
     celldm(4)=   0.000000  celldm(5)=   0.000000  celldm(6)=   0.000000

     crystal axes: (cart. coord. in units of alat)
               a(1) = (   1.000000   0.000000   0.000000 )
               a(2) = (  -0.500000   0.866025   0.000000 )
               a(3) = (   0.000000   0.000000   0.811261 )

     reciprocal axes: (cart. coord. in units 2 pi/alat)
               b(1) = (  1.000000  0.577350 -0.000000 )
               b(2) = (  0.000000  1.154701  0.000000 )
               b(3) = (  0.000000 -0.000000  1.232649 )

     PseudoPot. # 1 for H  read from file:
     /home/cristian/Escritorio/Proyecto_Grafeno/pseudopotenciales/H.pbe-rrkjus.UPF
     MD5 check sum: 7cc9d459525c9a0585f487a71c3c9563
     Pseudo is Ultrasoft, Zval =  1.0
     Generated by new atomic code, or converted to UPF format
     Using radial grid of 1061 points,  2 beta functions with:
                l(1) =   0
                l(2) =   0
     Q(r) pseudized with 0 coefficients

     PseudoPot. # 2 for C  read from file:
     /home/cristian/Escritorio/Proyecto_Grafeno/pseudopotenciales/C.pbe-n-rrkjus_psl.1.0.0.UPF
     MD5 check sum: 1fdd950c42eb37d8afe3dd2f8d12311e
     Pseudo is Ultrasoft + core correction, Zval =  4.0
     Generated using "atomic" code by A. Dal Corso v.6.3MaX
     Using radial grid of 1073 points,  4 beta functions with:
                l(1) =   0
                l(2) =   0
                l(3) =   1
                l(4) =   1
     Q(r) pseudized with 0 coefficients

     PseudoPot. # 3 for Fe read from file:
     /home/cristian/Escritorio/Proyecto_Grafeno/pseudopotenciales/Fe.pbe-spn-rrkjus_psl.1.0.0.UPF
     MD5 check sum: 72ea77fed8e64ab3a2ccf2804dfc1862
     Pseudo is Ultrasoft + core correction, Zval = 16.0
     Generated using "atomic" code by A. Dal Corso v.6.3
     Using radial grid of 1191 points,  6 beta functions with:
                l(1) =   0
                l(2) =   0
                l(3) =   1
                l(4) =   1
                l(5) =   2
                l(6) =   2
     Q(r) pseudized with 0 coefficients

     vdW kernel table read from file rVV10_kernel_table
     MD5 check sum: b8e2538accc0c0b3206b45ba4daaba6c

     atomic species   valence    mass     pseudopotential
        H              1.00     1.00794     H ( 1.00)
        C              4.00    12.01070     C ( 1.00)
        Fe            16.00    55.84500     Fe( 1.00)

     Starting magnetic structure
     atomic species   magnetization
        H            0.500
        C            0.300
        Fe           0.800

      2 Sym. Ops. (no inversion) found

                                    s                        frac. trans.

      isym =  1     identity

 cryst.   s( 1) = (     1          0          0      )
                  (     0          1          0      )
                  (     0          0          1      )

 cart.    s( 1) = (  1.0000000  0.0000000  0.0000000 )
                  (  0.0000000  1.0000000  0.0000000 )
                  (  0.0000000  0.0000000  1.0000000 )

      isym =  2     inv. 180 deg rotation - cryst. axis [1,1,0]

 cryst.   s( 2) = (     0         -1          0      )
                  (    -1          0          0      )
                  (     0          0          1      )

 cart.    s( 2) = (  0.5000000 -0.8660254  0.0000000 )
                  ( -0.8660254 -0.5000000  0.0000000 )
                  (  0.0000000  0.0000000  1.0000000 )

     point group C_s (m)
     there are  2 classes
     the character table:

       E     s
A'     1.00  1.00
A''    1.00 -1.00

     the symmetry operations in each class and the name of the first element:

     E        1
          identity
     s        2
          inv. 180 deg rotation - cryst. axis [1,1,0]

   Cartesian axes

     site n.     atom                  positions (alat units)
         1           H   tau(   1) = (   0.2500000   0.4330127   0.2433783  )
         2           H   tau(   2) = (   0.2500000   0.4330127   0.3043910  )
         3           C   tau(   3) = (   0.0000000   0.0000000   0.0000000  )
         4           C   tau(   4) = (   0.0000000   0.1154701   0.0000000  )
         5           C   tau(   5) = (  -0.1000000   0.1732051   0.0000000  )
         6           C   tau(   6) = (  -0.1000000   0.2886751   0.0000000  )
         7           C   tau(   7) = (  -0.2000000   0.3464102   0.0000000  )
         8           C   tau(   8) = (  -0.2000000   0.4618802   0.0000000  )
         9           C   tau(   9) = (  -0.3000000   0.5196152   0.0000000  )
        10           C   tau(  10) = (  -0.3000000   0.6350853   0.0000000  )
        11           C   tau(  11) = (  -0.4000000   0.6928203   0.0000000  )
        12           C   tau(  12) = (  -0.4000000   0.8082904   0.0000000  )
        13           C   tau(  13) = (   0.2000000   0.0000000   0.0000000  )
        14           C   tau(  14) = (   0.2000000   0.1154701   0.0000000  )
        15           C   tau(  15) = (   0.1000000   0.1732051   0.0000000  )
        16           C   tau(  16) = (   0.1000000   0.2886751   0.0000000  )
        17           C   tau(  17) = (   0.0000000   0.3464102   0.0000000  )
        18           C   tau(  18) = (   0.0000000   0.4618802   0.0000000  )
        19           C   tau(  19) = (  -0.1000000   0.5196152   0.0000000  )
        20           C   tau(  20) = (  -0.1000000   0.6350853   0.0000000  )
        21           C   tau(  21) = (  -0.2000000   0.6928203   0.0000000  )
        22           C   tau(  22) = (  -0.2000000   0.8082904   0.0000000  )
        23           C   tau(  23) = (   0.4000000   0.0000000   0.0000000  )
        24           C   tau(  24) = (   0.4000000   0.1154701   0.0000000  )
        25           C   tau(  25) = (   0.3000000   0.1732051   0.0000000  )
        26           C   tau(  26) = (   0.3000000   0.2886751   0.0000000  )
        27           C   tau(  27) = (   0.2000000   0.3464102   0.0000000  )
        28           Fe  tau(  28) = (   0.2000000   0.4618802   0.0000000  )
        29           C   tau(  29) = (   0.1000000   0.5196152   0.0000000  )
        30           C   tau(  30) = (   0.1000000   0.6350853   0.0000000  )
        31           C   tau(  31) = (   0.0000000   0.6928203   0.0000000  )
        32           C   tau(  32) = (   0.0000000   0.8082904   0.0000000  )
        33           C   tau(  33) = (   0.6000000   0.0000000   0.0000000  )
        34           C   tau(  34) = (   0.6000000   0.1154701   0.0000000  )
        35           C   tau(  35) = (   0.5000000   0.1732051   0.0000000  )
        36           C   tau(  36) = (   0.5000000   0.2886751   0.0000000  )
        37           C   tau(  37) = (   0.4000000   0.3464102   0.0000000  )
        38           C   tau(  38) = (   0.4000000   0.4618802   0.0000000  )
        39           C   tau(  39) = (   0.3000000   0.5196152   0.0000000  )
        40           C   tau(  40) = (   0.3000000   0.6350853   0.0000000  )
        41           C   tau(  41) = (   0.2000000   0.6928203   0.0000000  )
        42           C   tau(  42) = (   0.2000000   0.8082904   0.0000000  )
        43           C   tau(  43) = (   0.8000000   0.0000000   0.0000000  )
        44           C   tau(  44) = (   0.8000000   0.1154701   0.0000000  )
        45           C   tau(  45) = (   0.7000000   0.1732051   0.0000000  )
        46           C   tau(  46) = (   0.7000000   0.2886751   0.0000000  )
        47           C   tau(  47) = (   0.6000000   0.3464102   0.0000000  )
        48           C   tau(  48) = (   0.6000000   0.4618802   0.0000000  )
        49           C   tau(  49) = (   0.5000000   0.5196152   0.0000000  )
        50           C   tau(  50) = (   0.5000000   0.6350853   0.0000000  )
        51           C   tau(  51) = (   0.4000000   0.6928203   0.0000000  )
        52           C   tau(  52) = (   0.4000000   0.8082904   0.0000000  )

   Crystallographic axes

     site n.     atom                  positions (cryst. coord.)
         1           H   tau(   1) = (  0.5000000  0.5000000  0.3000000  )
         2           H   tau(   2) = (  0.5000000  0.5000000  0.3752072  )
         3           C   tau(   3) = (  0.0000000  0.0000000  0.0000000  )
         4           C   tau(   4) = (  0.0666667  0.1333333  0.0000000  )
         5           C   tau(   5) = (  0.0000000  0.2000000  0.0000000  )
         6           C   tau(   6) = (  0.0666667  0.3333333  0.0000000  )
         7           C   tau(   7) = (  0.0000000  0.4000000  0.0000000  )
         8           C   tau(   8) = (  0.0666667  0.5333333  0.0000000  )
         9           C   tau(   9) = (  0.0000000  0.6000000  0.0000000  )
        10           C   tau(  10) = (  0.0666667  0.7333333  0.0000000  )
        11           C   tau(  11) = (  0.0000000  0.8000000  0.0000000  )
        12           C   tau(  12) = (  0.0666667  0.9333333  0.0000000  )
        13           C   tau(  13) = (  0.2000000  0.0000000  0.0000000  )
        14           C   tau(  14) = (  0.2666667  0.1333333  0.0000000  )
        15           C   tau(  15) = (  0.2000000  0.2000000  0.0000000  )
        16           C   tau(  16) = (  0.2666667  0.3333333  0.0000000  )
        17           C   tau(  17) = (  0.2000000  0.4000000  0.0000000  )
        18           C   tau(  18) = (  0.2666667  0.5333333  0.0000000  )
        19           C   tau(  19) = (  0.2000000  0.6000000  0.0000000  )
        20           C   tau(  20) = (  0.2666667  0.7333333  0.0000000  )
        21           C   tau(  21) = (  0.2000000  0.8000000  0.0000000  )
        22           C   tau(  22) = (  0.2666667  0.9333333  0.0000000  )
        23           C   tau(  23) = (  0.4000000  0.0000000  0.0000000  )
[...]
        42           C   tau(  42) = (  0.6666667  0.9333333  0.0000000  )
        43           C   tau(  43) = (  0.8000000  0.0000000  0.0000000  )
        44           C   tau(  44) = (  0.8666667  0.1333333  0.0000000  )
        45           C   tau(  45) = (  0.8000000  0.2000000  0.0000000  )
        46           C   tau(  46) = (  0.8666667  0.3333333  0.0000000  )
        47           C   tau(  47) = (  0.8000000  0.4000000  0.0000000  )
        48           C   tau(  48) = (  0.8666667  0.5333333  0.0000000  )
        49           C   tau(  49) = (  0.8000000  0.6000000  0.0000000  )
        50           C   tau(  50) = (  0.8666667  0.7333333  0.0000000  )
        51           C   tau(  51) = (  0.8000000  0.8000000  0.0000000  )
        52           C   tau(  52) = (  0.8666667  0.9333333  0.0000000  )

     number of k points=     1  Marzari-Vanderbilt smearing, width (Ry)=  0.0010
                       cart. coord. in units 2pi/alat
        k(    1) = (   0.0000000   0.0000000   0.0000000), wk =   1.0000000

                       cryst. coord.
        k(    1) = (   0.0000000   0.0000000   0.0000000), wk =   1.0000000

     Check: negative core charge=   -0.000002

     Initial potential from superposition of free atoms

     starting charge  213.80512, renormalised to  214.00000

     negative rho (up, down):  6.038E-05 1.042E-02

Carrying out rVV10 run using the following parameters:
Nqs =      20    Nr_points =    1024   r_max =   100.000
b_value =  6.30000    beta =  0.00901
     q_mesh =  0.00010000  0.00030000  0.00058939  0.00100810
               0.00161396  0.00249058  0.00375900  0.00559430
               0.00824984  0.01209221  0.01765183  0.02569619
               0.03733578  0.05417739  0.07854596  0.11380545
               0.16482331  0.23864234  0.34545298  0.50000000

Gradients computed in Reciprocal space

     Starting wfcs are  208 randomized atomic wfcs

     Self-consistent Calculation

     iteration #  1     ecut=    70.00 Ry     beta= 0.30
     Davidson diagonalization with overlap
     ethr =  1.00E-02,  avg # of iterations =  2.5

[...]

     total energy              =    -858.06446965 Ry
     Harris-Foulkes estimate   =    -858.62473884 Ry
     estimated scf accuracy    <      10.14944515 Ry

     total magnetization       =     6.00 Bohr mag/cell
     absolute magnetization    =     6.65 Bohr mag/cell

[...]

     Magnetic moment per site:
     atom:    1    charge:    0.2102    magn:    0.0000    constr:    0.0000
     atom:    2    charge:    0.2124    magn:    0.0001    constr:    0.0000
     atom:    3    charge:    1.7167    magn:   -0.0112    constr:    0.0000
     atom:    4    charge:    1.7155    magn:    0.0159    constr:    0.0000
     atom:    5    charge:    1.7174    magn:   -0.0066    constr:    0.0000
     atom:    6    charge:    1.7142    magn:    0.0053    constr:    0.0000
     atom:    7    charge:    1.7176    magn:   -0.0069    constr:    0.0000
     atom:    8    charge:    1.7152    magn:    0.0174    constr:    0.0000
     atom:    9    charge:    1.7170    magn:   -0.0113    constr:    0.0000
     atom:   10    charge:    1.7150    magn:    0.0573    constr:    0.0000
     atom:   11    charge:    1.7172    magn:   -0.0164    constr:    0.0000
     atom:   12    charge:    1.7161    magn:    0.0519    constr:    0.0000
     atom:   13    charge:    1.7172    magn:   -0.0164    constr:    0.0000
     atom:   14    charge:    1.7156    magn:    0.0447    constr:    0.0000
     atom:   15    charge:    1.7138    magn:   -0.0129    constr:    0.0000
     atom:   16    charge:    1.7116    magn:    0.0505    constr:    0.0000
     atom:   17    charge:    1.7222    magn:   -0.0073    constr:    0.0000
     atom:   18    charge:    1.7116    magn:    0.0502    constr:    0.0000
     atom:   19    charge:    1.7137    magn:   -0.0128    constr:    0.0000
     atom:   20    charge:    1.7163    magn:    0.0412    constr:    0.0000
     atom:   21    charge:    1.7174    magn:   -0.0166    constr:    0.0000
     atom:   22    charge:    1.7150    magn:    0.0573    constr:    0.0000
     atom:   23    charge:    1.7170    magn:   -0.0113    constr:    0.0000
     atom:   24    charge:    1.7154    magn:    0.0166    constr:    0.0000
     atom:   25    charge:    1.7139    magn:   -0.0127    constr:    0.0000
     atom:   26    charge:    1.7109    magn:    0.0547    constr:    0.0000
     atom:   27    charge:    1.8518    magn:   -0.0150    constr:    0.0000
     atom:   28    charge:   11.1458    magn:    0.4661    constr:    0.0000
     atom:   29    charge:    1.8514    magn:   -0.0157    constr:    0.0000
     atom:   30    charge:    1.7116    magn:    0.0502    constr:    0.0000
     atom:   31    charge:    1.7137    magn:   -0.0128    constr:    0.0000
     atom:   32    charge:    1.7152    magn:    0.0174    constr:    0.0000
     atom:   33    charge:    1.7176    magn:   -0.0069    constr:    0.0000
     atom:   34    charge:    1.7141    magn:    0.0116    constr:    0.0000
     atom:   35    charge:    1.7175    magn:   -0.0067    constr:    0.0000
     atom:   36    charge:    1.7143    magn:    0.0050    constr:    0.0000
     atom:   37    charge:    1.7225    magn:   -0.0074    constr:    0.0000
     atom:   38    charge:    1.7109    magn:    0.0547    constr:    0.0000
     atom:   39    charge:    1.8518    magn:   -0.0150    constr:    0.0000
     atom:   40    charge:    1.7116    magn:    0.0505    constr:    0.0000
     atom:   41    charge:    1.7222    magn:   -0.0073    constr:    0.0000
     atom:   42    charge:    1.7142    magn:    0.0053    constr:    0.0000
     atom:   43    charge:    1.7174    magn:   -0.0066    constr:    0.0000
     atom:   44    charge:    1.7142    magn:    0.0106    constr:    0.0000
     atom:   45    charge:    1.7229    magn:    0.0020    constr:    0.0000
     atom:   46    charge:    1.7141    magn:    0.0116    constr:    0.0000
     atom:   47    charge:    1.7175    magn:   -0.0067    constr:    0.0000
     atom:   48    charge:    1.7154    magn:    0.0166    constr:    0.0000
     atom:   49    charge:    1.7139    magn:   -0.0127    constr:    0.0000
     atom:   50    charge:    1.7156    magn:    0.0447    constr:    0.0000
     atom:   51    charge:    1.7138    magn:   -0.0129    constr:    0.0000
     atom:   52    charge:    1.7155    magn:    0.0159    constr:    0.0000

[...]

     total energy              =    -860.05646261 Ry
     Harris-Foulkes estimate   =    -860.05646485 Ry
     estimated scf accuracy    <       0.00000244 Ry

[...]

     iteration #139     ecut=    70.00 Ry     beta= 0.30
     Davidson diagonalization with overlap
     ethr =  7.35E-10,  avg # of iterations =  3.0

     negative rho (up, down):  5.835E-04 1.096E-02

     Magnetic moment per site:
     atom:    1    charge:    0.2103    magn:    0.0000    constr:    0.0000
     atom:    2    charge:    0.2123    magn:    0.0002    constr:    0.0000
     atom:    3    charge:    1.7167    magn:   -0.0106    constr:    0.0000
     atom:    4    charge:    1.7155    magn:    0.0153    constr:    0.0000
     atom:    5    charge:    1.7175    magn:   -0.0067    constr:    0.0000
     atom:    6    charge:    1.7142    magn:    0.0050    constr:    0.0000
     atom:    7    charge:    1.7176    magn:   -0.0068    constr:    0.0000
     atom:    8    charge:    1.7152    magn:    0.0172    constr:    0.0000
     atom:    9    charge:    1.7171    magn:   -0.0112    constr:    0.0000
     atom:   10    charge:    1.7149    magn:    0.0566    constr:    0.0000
     atom:   11    charge:    1.7173    magn:   -0.0157    constr:    0.0000
     atom:   12    charge:    1.7158    magn:    0.0497    constr:    0.0000
     atom:   13    charge:    1.7173    magn:   -0.0157    constr:    0.0000
     atom:   14    charge:    1.7156    magn:    0.0442    constr:    0.0000
     atom:   15    charge:    1.7137    magn:   -0.0122    constr:    0.0000
     atom:   16    charge:    1.7115    magn:    0.0491    constr:    0.0000
     atom:   17    charge:    1.7224    magn:   -0.0075    constr:    0.0000
     atom:   18    charge:    1.7115    magn:    0.0476    constr:    0.0000
     atom:   19    charge:    1.7136    magn:   -0.0115    constr:    0.0000
     atom:   20    charge:    1.7162    magn:    0.0388    constr:    0.0000
     atom:   21    charge:    1.7174    magn:   -0.0157    constr:    0.0000
     atom:   22    charge:    1.7149    magn:    0.0566    constr:    0.0000
     atom:   23    charge:    1.7171    magn:   -0.0112    constr:    0.0000
     atom:   24    charge:    1.7154    magn:    0.0163    constr:    0.0000
     atom:   25    charge:    1.7138    magn:   -0.0122    constr:    0.0000
     atom:   26    charge:    1.7109    magn:    0.0546    constr:    0.0000
     atom:   27    charge:    1.8522    magn:   -0.0154    constr:    0.0000
     atom:   28    charge:   11.1464    magn:    0.4787    constr:    0.0000
     atom:   29    charge:    1.8516    magn:   -0.0158    constr:    0.0000
     atom:   30    charge:    1.7115    magn:    0.0476    constr:    0.0000
     atom:   31    charge:    1.7136    magn:   -0.0115    constr:    0.0000
     atom:   32    charge:    1.7152    magn:    0.0172    constr:    0.0000
     atom:   33    charge:    1.7176    magn:   -0.0068    constr:    0.0000
     atom:   34    charge:    1.7140    magn:    0.0114    constr:    0.0000
     atom:   35    charge:    1.7176    magn:   -0.0068    constr:    0.0000
     atom:   36    charge:    1.7142    magn:    0.0050    constr:    0.0000
     atom:   37    charge:    1.7228    magn:   -0.0087    constr:    0.0000
     atom:   38    charge:    1.7109    magn:    0.0546    constr:    0.0000
     atom:   39    charge:    1.8522    magn:   -0.0154    constr:    0.0000
     atom:   40    charge:    1.7115    magn:    0.0491    constr:    0.0000
     atom:   41    charge:    1.7224    magn:   -0.0075    constr:    0.0000
     atom:   42    charge:    1.7142    magn:    0.0050    constr:    0.0000
     atom:   43    charge:    1.7175    magn:   -0.0067    constr:    0.0000
     atom:   44    charge:    1.7141    magn:    0.0103    constr:    0.0000
     atom:   45    charge:    1.7233    magn:    0.0003    constr:    0.0000
     atom:   46    charge:    1.7140    magn:    0.0114    constr:    0.0000
     atom:   47    charge:    1.7176    magn:   -0.0068    constr:    0.0000
     atom:   48    charge:    1.7154    magn:    0.0163    constr:    0.0000
     atom:   49    charge:    1.7138    magn:   -0.0122    constr:    0.0000
     atom:   50    charge:    1.7156    magn:    0.0442    constr:    0.0000
     atom:   51    charge:    1.7137    magn:   -0.0122    constr:    0.0000
     atom:   52    charge:    1.7155    magn:    0.0153    constr:    0.0000

     End of self-consistent calculation

 ------ SPIN UP ------------

          k = 0.0000 0.0000 0.0000 ( 87777 PWs)   bands (ev):

   -88.8484 -55.7392 -55.6887 -54.0715 -19.8682 -19.0403 -19.0254 -18.9436
   -18.9178 -18.9129 -18.5830 -17.1694 -17.1588 -17.1586 -17.0934 -17.0885
   -16.7840 -16.3175 -16.3147 -16.2132 -16.1675 -16.1668 -15.4855 -14.2314
   -14.2149 -14.1348 -14.0832 -14.0805 -13.4285 -13.1523 -13.1487 -13.1236
   -12.8496 -12.8486 -12.4358 -11.9357 -11.9339 -11.7416 -11.4987 -11.4967
   -10.6256  -9.8039  -9.8005  -9.5224  -9.4049  -9.4036  -9.3177  -9.2876
    -9.2871  -9.2751  -8.8169  -8.8161  -8.2865  -8.2833  -8.1856  -8.0191
    -7.9221  -7.5319  -7.5287  -7.3423  -7.2391  -7.2318  -7.0791  -7.0788
    -6.9264  -6.9098  -6.9040  -6.8019  -6.6539  -6.6470  -6.6314  -6.6220
    -6.6114  -6.6079  -6.5645  -6.2215  -5.7462  -5.7410  -5.7240  -5.7039
    -5.4757  -5.4731  -5.3446  -5.0750  -4.9674  -4.8275  -4.8035  -4.7992
    -4.5529  -4.5478  -4.4884  -4.3333  -4.3223  -3.9601  -3.9600  -3.8763
    -3.7705  -3.7689  -3.2173  -2.9176  -2.9088  -1.9598  -1.8903  -1.8879
    -1.3631  -1.3216  -1.2182  -0.9225   0.8353   0.8825   0.8853   1.3928
     1.4063   1.5138   2.3094   2.3117   2.5319   2.6804   2.6833   2.7742
     3.2895   3.2988   3.4289   3.6579   3.6874   3.7359   3.7392   3.7561

     occupation numbers
     1.0000   1.0000   1.0000   1.0000   1.0000   1.0000   1.0000   1.0000
     1.0000   1.0000   1.0000   1.0000   1.0000   1.0000   1.0000   1.0000
     1.0000   1.0000   1.0000   1.0000   1.0000   1.0000   1.0000   1.0000
     1.0000   1.0000   1.0000   1.0000   1.0000   1.0000   1.0000   1.0000
     1.0000   1.0000   1.0000   1.0000   1.0000   1.0000   1.0000   1.0000
     1.0000   1.0000   1.0000   1.0000   1.0000   1.0000   1.0000   1.0000
     1.0000   1.0000   1.0000   1.0000   1.0000   1.0000   1.0000   1.0000
     1.0000   1.0000   1.0000   1.0000   1.0000   1.0000   1.0000   1.0000
     1.0000   1.0000   1.0000   1.0000   1.0000   1.0000   1.0000   1.0000
     1.0000   1.0000   1.0000   1.0000   1.0000   1.0000   1.0000   1.0000
     1.0000   1.0000   1.0000   1.0000   1.0000   1.0000   1.0000   1.0000
     1.0000   1.0000   1.0000   1.0000   1.0000   1.0000   1.0000   1.0000
     1.0000   1.0000   1.0000   1.0000   1.0000   1.0000   1.0000   1.0000
     1.0000   1.0000   1.0000   1.0364   0.0000   0.0000   0.0000   0.0000
     0.0000   0.0000   0.0000   0.0000   0.0000   0.0000   0.0000   0.0000
     0.0000   0.0000   0.0000   0.0000   0.0000   0.0000   0.0000   0.0000

 ------ SPIN DOWN ----------

          k = 0.0000 0.0000 0.0000 ( 87777 PWs)   bands (ev):

   -88.0832 -55.1003 -55.0857 -53.1142 -19.8280 -18.9942 -18.9819 -18.9048
   -18.8923 -18.8870 -18.5246 -17.1350 -17.1288 -17.1247 -17.0411 -17.0376
   -16.7533 -16.2733 -16.2724 -16.1784 -16.1249 -16.1247 -15.4590 -14.1599
   -14.1502 -14.0772 -14.0728 -14.0690 -13.4270 -13.1266 -13.1245 -13.0930
   -12.8299 -12.8293 -12.4051 -11.8988 -11.8962 -11.7175 -11.4756 -11.4752
   -10.5992  -9.7503  -9.7483  -9.4924  -9.3729  -9.3729  -9.3012  -9.2650
    -9.2644  -9.2570  -8.8034  -8.8026  -8.2487  -8.2455  -8.1630  -7.9256
    -7.9054  -7.5177  -7.5140  -7.3065  -7.0705  -7.0698  -7.0288  -7.0281
    -6.8499  -6.8487  -6.8268  -6.7874  -6.6369  -6.6308  -6.6115  -6.5984
    -6.5950  -6.5460  -6.5208  -6.1951  -5.6904  -5.6875  -5.4794  -5.4755
    -5.4319  -5.4301  -5.2275  -5.0612  -4.9579  -4.7565  -4.7119  -4.7114
    -4.4685  -4.4637  -4.4129  -4.2062  -4.2048  -3.8349  -3.8328  -3.7797
    -3.7553  -3.7538  -3.1634  -2.6849  -2.6805  -1.8624  -1.8600  -1.8101
    -0.9384  -0.9058  -0.8308  -0.8069   0.9289   0.9324   0.9818   1.5501
     1.5512   1.6369   2.4740   2.4767   2.5452   2.8134   2.8169   2.8519
     3.4461   3.4485   3.5287   3.6757   3.7026   3.7449   3.7475   3.7609

     occupation numbers
     1.0000   1.0000   1.0000   1.0000   1.0000   1.0000   1.0000   1.0000
     1.0000   1.0000   1.0000   1.0000   1.0000   1.0000   1.0000   1.0000
     1.0000   1.0000   1.0000   1.0000   1.0000   1.0000   1.0000   1.0000
     1.0000   1.0000   1.0000   1.0000   1.0000   1.0000   1.0000   1.0000
     1.0000   1.0000   1.0000   1.0000   1.0000   1.0000   1.0000   1.0000
     1.0000   1.0000   1.0000   1.0000   1.0000   1.0000   1.0000   1.0000
     1.0000   1.0000   1.0000   1.0000   1.0000   1.0000   1.0000   1.0000
     1.0000   1.0000   1.0000   1.0000   1.0000   1.0000   1.0000   1.0000
     1.0000   1.0000   1.0000   1.0000   1.0000   1.0000   1.0000   1.0000
     1.0000   1.0000   1.0000   1.0000   1.0000   1.0000   1.0000   1.0000
     1.0000   1.0000   1.0000   1.0000   1.0000   1.0000   1.0000   1.0000
     1.0000   1.0000   1.0000   1.0000   1.0000   1.0000   1.0000   1.0000
     1.0000   1.0000   1.0000   1.0000   1.0000   1.0000   1.0000   1.0000
     1.0005   0.9630   0.0000   0.0000   0.0000   0.0000   0.0000   0.0000
     0.0000   0.0000   0.0000   0.0000   0.0000   0.0000   0.0000   0.0000
     0.0000   0.0000   0.0000   0.0000   0.0000   0.0000   0.0000   0.0000

     the Fermi energy is    -0.8945 ev

!    total energy              =    -860.05646514 Ry
     Harris-Foulkes estimate   =    -860.05646469 Ry
     estimated scf accuracy    <       0.00000055 Ry

     The total energy is the sum of the following terms:

     one-electron contribution =   -2791.52136941 Ry
     hartree contribution      =    1439.58468753 Ry
     xc contribution           =    -259.31965215 Ry
     ewald contribution        =     751.19973070 Ry
     smearing contrib. (-TS)   =       0.00013819 Ry

     total magnetization       =     2.07 Bohr mag/cell
     absolute magnetization    =     3.02 Bohr mag/cell

     convergence has been achieved in 139 iterations

     Writing output data file distance-3.0.save/

     General routines

     Parallel routines

   This run was terminated on:   3:35: 1  16Nov2022

   JOB DONE.