     Program PWSCF v.6.4.1 starts on 26May2022 at 19:39:39

     R & G space division:  proc/nbgrp/npool/nimage =       6
     Reading input from c-3.57102.in

     Current dimensions of program PWSCF are:
     Max number of different atomic species (ntypx) = 10
     Max number of k-points (npk) =  40000
     Max angular momentum in pseudopotentials (lmaxx) =  3

     Subspace diagonalization in iterative solution of the eigenvalue problem:
     a serial algorithm will be used

     Message from routine setup:
     DEPRECATED: symmetry with ibrav=0, use correct ibrav instead

     bravais-lattice index     =            0
     lattice parameter (alat)  =       6.7482  a.u.
     unit-cell volume          =     307.3077 (a.u.)^3
     number of atoms/cell      =            8
     number of atomic types    =            1
     number of electrons       =        32.00
     number of Kohn-Sham states=           20
     kinetic-energy cutoff     =      80.0000  Ry
     charge density cutoff     =     560.0000  Ry
     convergence threshold     =      1.0E-06
     mixing beta               =       0.7000
     number of iterations used =            8  plain     mixing
     Exchange-correlation      = PBE ( 1  4  3  4 0 0)
     nstep                     =           50

     celldm(1)=   6.748250  celldm(2)=   0.000000  celldm(3)=   0.000000
     celldm(4)=   0.000000  celldm(5)=   0.000000  celldm(6)=   0.000000

     crystal axes: (cart. coord. in units of alat)
               a(1) = (   1.000000   0.000000   0.000000 )
               a(2) = (   0.000000   1.000000   0.000000 )
               a(3) = (   0.000000   0.000000   1.000000 )

     reciprocal axes: (cart. coord. in units 2 pi/alat)
               b(1) = (  1.000000  0.000000  0.000000 )
               b(2) = (  0.000000  1.000000  0.000000 )
               b(3) = (  0.000000  0.000000  1.000000 )

     PseudoPot. # 1 for C  read from file:
     /home/cristian/Escritorio/Proyecto_Grafeno/pseudopotenciales/C.pbe-n-rrkjus_psl.1.0.0.UPF
     MD5 check sum: 1fdd950c42eb37d8afe3dd2f8d12311e
     Pseudo is Ultrasoft + core correction, Zval =  4.0
     Generated using "atomic" code by A. Dal Corso v.6.3MaX
     Using radial grid of 1073 points,  4 beta functions with:
                l(1) =   0
                l(2) =   0
                l(3) =   1
                l(4) =   1
     Q(r) pseudized with 0 coefficients

     atomic species   valence    mass     pseudopotential
        C              4.00    12.01100     C ( 1.00)

      6 Sym. Ops. (no inversion) found

                                    s                        frac. trans.

      isym =  1     identity

 cryst.   s( 1) = (     1          0          0      )
                  (     0          1          0      )
                  (     0          0          1      )

 cart.    s( 1) = (  1.0000000  0.0000000  0.0000000 )
                  (  0.0000000  1.0000000  0.0000000 )
                  (  0.0000000  0.0000000  1.0000000 )

      isym =  2     120 deg rotation - cart. axis [-1,-1,-1]

[...]

      isym =  4     inv. 180 deg rotation - cart. axis [1,-1,0]

[...]

   Cartesian axes

     site n.     atom                  positions (alat units)
         1           C   tau(   1) = (   0.0000000   0.0000000   0.0000000  )
         2           C   tau(   2) = (   0.4999972   0.4999972   0.0000000  )
         3           C   tau(   3) = (   0.0000000   0.4999972   0.4999972  )
         4           C   tau(   4) = (   0.4999972   0.0000000   0.4999972  )
         5           C   tau(   5) = (   0.2499846   0.2499846   0.2499846  )
         6           C   tau(   6) = (   0.7499986   0.7499986   0.2499846  )
         7           C   tau(   7) = (   0.2499846   0.7499986   0.7499986  )
         8           C   tau(   8) = (   0.7499986   0.2499846   0.7499986  )

   Crystallographic axes

     site n.     atom                  positions (cryst. coord.)
         1           C   tau(   1) = (  0.0000000  0.0000000  0.0000000  )
         2           C   tau(   2) = (  0.4999972  0.4999972  0.0000000  )
         3           C   tau(   3) = (  0.0000000  0.4999972  0.4999972  )
         4           C   tau(   4) = (  0.4999972  0.0000000  0.4999972  )
         5           C   tau(   5) = (  0.2499846  0.2499846  0.2499846  )
         6           C   tau(   6) = (  0.7499986  0.7499986  0.2499846  )
         7           C   tau(   7) = (  0.2499846  0.7499986  0.7499986  )
         8           C   tau(   8) = (  0.7499986  0.2499846  0.7499986  )

     number of k points=    65  Marzari-Vanderbilt smearing, width (Ry)=  0.0200
                       cart. coord. in units 2pi/alat
        k(    1) = (   0.0000000   0.0000000   0.0000000), wk =   0.0039062
        k(    2) = (   0.0000000   0.0000000   0.1250000), wk =   0.0234375
        k(    3) = (   0.0000000   0.0000000   0.2500000), wk =   0.0234375
        k(    4) = (   0.0000000   0.0000000   0.3750000), wk =   0.0234375
        k(    5) = (   0.0000000   0.0000000  -0.5000000), wk =   0.0117188
        k(    6) = (   0.0000000   0.1250000   0.1250000), wk =   0.0234375
        k(    7) = (   0.0000000   0.1250000   0.2500000), wk =   0.0468750
        k(    8) = (   0.0000000   0.1250000   0.3750000), wk =   0.0468750
        k(    9) = (   0.0000000   0.1250000  -0.5000000), wk =   0.0468750
        k(   10) = (   0.0000000   0.2500000   0.2500000), wk =   0.0234375
        k(   11) = (   0.0000000   0.2500000   0.3750000), wk =   0.0468750
        k(   12) = (   0.0000000   0.2500000  -0.5000000), wk =   0.0468750
        k(   13) = (   0.0000000   0.3750000   0.3750000), wk =   0.0234375
        k(   14) = (   0.0000000   0.3750000  -0.5000000), wk =   0.0468750
        k(   15) = (   0.0000000  -0.5000000  -0.5000000), wk =   0.0117188
        k(   16) = (   0.1250000   0.1250000   0.1250000), wk =   0.0078125
        k(   17) = (   0.1250000   0.1250000   0.2500000), wk =   0.0234375
        k(   18) = (   0.1250000   0.1250000   0.3750000), wk =   0.0234375
        k(   19) = (   0.1250000   0.1250000  -0.5000000), wk =   0.0234375
        k(   20) = (   0.1250000   0.2500000   0.2500000), wk =   0.0234375
        k(   21) = (   0.1250000   0.2500000   0.3750000), wk =   0.0468750
        k(   22) = (   0.1250000   0.2500000  -0.5000000), wk =   0.0468750
        k(   23) = (   0.1250000   0.3750000   0.3750000), wk =   0.0234375
        k(   24) = (   0.1250000   0.3750000  -0.5000000), wk =   0.0468750
        k(   25) = (   0.1250000  -0.5000000  -0.5000000), wk =   0.0234375
        k(   26) = (   0.2500000   0.2500000   0.2500000), wk =   0.0078125
        k(   27) = (   0.2500000   0.2500000   0.3750000), wk =   0.0234375
        k(   28) = (   0.2500000   0.2500000  -0.5000000), wk =   0.0234375
        k(   29) = (   0.2500000   0.3750000   0.3750000), wk =   0.0234375
        k(   30) = (   0.2500000   0.3750000  -0.5000000), wk =   0.0468750
        k(   31) = (   0.2500000  -0.5000000  -0.5000000), wk =   0.0234375
        k(   32) = (   0.3750000   0.3750000   0.3750000), wk =   0.0078125
        k(   33) = (   0.3750000   0.3750000  -0.5000000), wk =   0.0234375
        k(   34) = (   0.3750000  -0.5000000  -0.5000000), wk =   0.0234375
        k(   35) = (  -0.5000000  -0.5000000  -0.5000000), wk =   0.0039062
        k(   36) = (  -0.1250000   0.0000000   0.1250000), wk =   0.0234375
        k(   37) = (  -0.1250000   0.0000000   0.2500000), wk =   0.0468750
        k(   38) = (  -0.1250000   0.0000000   0.3750000), wk =   0.0468750
        k(   39) = (  -0.2500000   0.0000000   0.2500000), wk =   0.0234375
        k(   40) = (  -0.2500000   0.0000000   0.3750000), wk =   0.0468750
        k(   41) = (  -0.3750000   0.0000000   0.3750000), wk =   0.0234375
        k(   42) = (   0.1250000  -0.1250000   0.1250000), wk =   0.0234375
        k(   43) = (   0.1250000  -0.1250000   0.2500000), wk =   0.0468750
        k(   44) = (  -0.2500000   0.1250000   0.1250000), wk =   0.0234375
        k(   45) = (   0.1250000  -0.1250000   0.3750000), wk =   0.0468750
        k(   46) = (  -0.3750000   0.1250000   0.1250000), wk =   0.0234375
        k(   47) = (   0.1250000  -0.1250000  -0.5000000), wk =   0.0234375
        k(   48) = (   0.2500000  -0.1250000   0.2500000), wk =   0.0234375
        k(   49) = (  -0.2500000   0.1250000   0.2500000), wk =   0.0468750
        k(   50) = (   0.2500000  -0.1250000   0.3750000), wk =   0.0468750
        k(   51) = (  -0.2500000   0.1250000   0.3750000), wk =   0.0468750
        k(   52) = (  -0.3750000   0.2500000   0.1250000), wk =   0.0468750
        k(   53) = (   0.2500000  -0.1250000  -0.5000000), wk =   0.0468750
        k(   54) = (   0.3750000  -0.1250000   0.3750000), wk =   0.0234375
        k(   55) = (  -0.3750000   0.1250000   0.3750000), wk =   0.0468750
        k(   56) = (   0.3750000  -0.1250000  -0.5000000), wk =   0.0468750
        k(   57) = (   0.2500000  -0.2500000   0.2500000), wk =   0.0234375
        k(   58) = (   0.2500000  -0.2500000   0.3750000), wk =   0.0468750
        k(   59) = (  -0.3750000   0.2500000   0.2500000), wk =   0.0234375
        k(   60) = (   0.2500000  -0.2500000  -0.5000000), wk =   0.0234375
        k(   61) = (   0.3750000  -0.2500000   0.3750000), wk =   0.0234375
        k(   62) = (  -0.3750000   0.2500000   0.3750000), wk =   0.0468750
        k(   63) = (   0.3750000  -0.2500000  -0.5000000), wk =   0.0468750
        k(   64) = (   0.3750000  -0.3750000   0.3750000), wk =   0.0234375
        k(   65) = (   0.3750000  -0.3750000  -0.5000000), wk =   0.0234375

                       cryst. coord.
        k(    1) = (   0.0000000   0.0000000   0.0000000), wk =   0.0039062
        k(    2) = (   0.0000000   0.0000000   0.1250000), wk =   0.0234375
        k(    3) = (   0.0000000   0.0000000   0.2500000), wk =   0.0234375
        k(    4) = (   0.0000000   0.0000000   0.3750000), wk =   0.0234375
        k(    5) = (   0.0000000   0.0000000  -0.5000000), wk =   0.0117188
        k(    6) = (   0.0000000   0.1250000   0.1250000), wk =   0.0234375
        k(    7) = (   0.0000000   0.1250000   0.2500000), wk =   0.0468750
        k(    8) = (   0.0000000   0.1250000   0.3750000), wk =   0.0468750
        k(    9) = (   0.0000000   0.1250000  -0.5000000), wk =   0.0468750
        k(   10) = (   0.0000000   0.2500000   0.2500000), wk =   0.0234375
        k(   11) = (   0.0000000   0.2500000   0.3750000), wk =   0.0468750
        k(   12) = (   0.0000000   0.2500000  -0.5000000), wk =   0.0468750
        k(   13) = (   0.0000000   0.3750000   0.3750000), wk =   0.0234375
        k(   14) = (   0.0000000   0.3750000  -0.5000000), wk =   0.0468750
        k(   15) = (   0.0000000  -0.5000000  -0.5000000), wk =   0.0117188
        k(   16) = (   0.1250000   0.1250000   0.1250000), wk =   0.0078125
        k(   17) = (   0.1250000   0.1250000   0.2500000), wk =   0.0234375
        k(   18) = (   0.1250000   0.1250000   0.3750000), wk =   0.0234375
        k(   19) = (   0.1250000   0.1250000  -0.5000000), wk =   0.0234375
        k(   20) = (   0.1250000   0.2500000   0.2500000), wk =   0.0234375
[...]
        k(   36) = (  -0.1250043   0.0000000   0.1250043), wk =   0.0234375
        k(   37) = (  -0.1250043  -0.0000001   0.2500085), wk =   0.0468750
        k(   38) = (  -0.1250044  -0.0000001   0.3750127), wk =   0.0468750
        k(   39) = (  -0.2500086   0.0000000   0.2500086), wk =   0.0234375
        k(   40) = (  -0.2500086  -0.0000001   0.3750128), wk =   0.0468750
        k(   41) = (  -0.3750128   0.0000000   0.3750128), wk =   0.0234375
        k(   42) = (   0.1250042  -0.1250043   0.1250042), wk =   0.0234375
        k(   43) = (   0.1250042  -0.1250044   0.2500085), wk =   0.0468750
        k(   44) = (  -0.2500086   0.1250043   0.1250043), wk =   0.0234375
        k(   45) = (   0.1250041  -0.1250044   0.3750127), wk =   0.0468750
        k(   46) = (  -0.3750128   0.1250043   0.1250043), wk =   0.0234375
        k(   47) = (   0.1250045  -0.1250041  -0.5000169), wk =   0.0234375
        k(   48) = (   0.2500084  -0.1250044   0.2500084), wk =   0.0234375
        k(   49) = (  -0.2500086   0.1250042   0.2500085), wk =   0.0468750
        k(   50) = (   0.2500083  -0.1250045   0.3750126), wk =   0.0468750
        k(   51) = (  -0.2500087   0.1250042   0.3750127), wk =   0.0468750
        k(   52) = (  -0.3750128   0.2500086   0.1250043), wk =   0.0468750
        k(   53) = (   0.2500087  -0.1250041  -0.5000170), wk =   0.0468750
        k(   54) = (   0.3750126  -0.1250045   0.3750126), wk =   0.0234375
        k(   55) = (  -0.3750129   0.1250042   0.3750128), wk =   0.0468750
        k(   56) = (   0.3750129  -0.1250042  -0.5000170), wk =   0.0468750
        k(   57) = (   0.2500085  -0.2500087   0.2500085), wk =   0.0234375
        k(   58) = (   0.2500084  -0.2500087   0.3750127), wk =   0.0468750
        k(   59) = (  -0.3750129   0.2500085   0.2500085), wk =   0.0234375
        k(   60) = (   0.2500088  -0.2500083  -0.5000169), wk =   0.0234375
        k(   61) = (   0.3750126  -0.2500088   0.3750126), wk =   0.0234375
        k(   62) = (  -0.3750129   0.2500085   0.3750127), wk =   0.0468750
        k(   63) = (   0.3750130  -0.2500084  -0.5000170), wk =   0.0468750
        k(   64) = (   0.3750127  -0.3750130   0.3750127), wk =   0.0234375
        k(   65) = (   0.3750130  -0.3750126  -0.5000169), wk =   0.0234375

                       cryst. coord.
        k(    1) = (   0.0000000   0.0000000   0.0000000), wk =   0.0039062
        k(    2) = (  -0.0000000  -0.0000000   0.1250000), wk =   0.0234375
        k(    3) = (  -0.0000000  -0.0000000   0.2500000), wk =   0.0234375
        k(    4) = (   0.0000000   0.0000000   0.3750000), wk =   0.0234375
        k(    5) = (   0.0000000   0.0000000  -0.5000000), wk =   0.0117188
        k(    6) = (   0.0000000   0.1250000   0.1250000), wk =   0.0234375
        k(    7) = (   0.0000000   0.1250000   0.2500000), wk =   0.0468750
        k(    8) = (  -0.0000000   0.1250000   0.3750000), wk =   0.0468750
        k(    9) = (  -0.0000000   0.1250000  -0.5000000), wk =   0.0468750
        k(   10) = (   0.0000000   0.2500000   0.2500000), wk =   0.0234375
        k(   11) = (   0.0000000   0.2500000   0.3750000), wk =   0.0468750
        k(   12) = (   0.0000000   0.2500000  -0.5000000), wk =   0.0468750
        k(   13) = (   0.0000000   0.3750000   0.3750000), wk =   0.0234375
        k(   14) = (   0.0000000   0.3750000  -0.5000000), wk =   0.0468750
        k(   15) = (   0.0000000  -0.5000000  -0.5000000), wk =   0.0117188
        k(   16) = (   0.1250000   0.1250000   0.1250000), wk =   0.0078125
        k(   17) = (   0.1250000   0.1250000   0.2500000), wk =   0.0234375
        k(   18) = (   0.1250000   0.1250000   0.3750000), wk =   0.0234375
        k(   19) = (   0.1250000   0.1250000  -0.5000000), wk =   0.0234375
        k(   20) = (   0.1250000   0.2500000   0.2500000), wk =   0.0234375
        k(   21) = (   0.1250000   0.2500000   0.3750000), wk =   0.0468750
        k(   22) = (   0.1250000   0.2500000  -0.5000000), wk =   0.0468750
        k(   23) = (   0.1250000   0.3750000   0.3750000), wk =   0.0234375
        k(   24) = (   0.1250000   0.3750000  -0.5000000), wk =   0.0468750
        k(   25) = (   0.1250000  -0.5000000  -0.5000000), wk =   0.0234375
        k(   26) = (   0.2500000   0.2500000   0.2500000), wk =   0.0078125
        k(   27) = (   0.2500000   0.2500000   0.3750000), wk =   0.0234375
        k(   28) = (   0.2500000   0.2500000  -0.5000000), wk =   0.0234375
        k(   29) = (   0.2500000   0.3750000   0.3750000), wk =   0.0234375
        k(   30) = (   0.2500000   0.3750000  -0.5000000), wk =   0.0468750
        k(   31) = (   0.2500000  -0.5000000  -0.5000000), wk =   0.0234375
        k(   32) = (   0.3750000   0.3750000   0.3750000), wk =   0.0078125
        k(   33) = (   0.3750000   0.3750000  -0.5000000), wk =   0.0234375
        k(   34) = (   0.3750000  -0.5000000  -0.5000000), wk =   0.0234375
        k(   35) = (  -0.5000000  -0.5000000  -0.5000000), wk =   0.0039062
        k(   36) = (  -0.1250000   0.0000000   0.1250000), wk =   0.0234375
        k(   37) = (  -0.1250000   0.0000000   0.2500000), wk =   0.0468750
        k(   38) = (  -0.1250000   0.0000000   0.3750000), wk =   0.0468750
        k(   39) = (  -0.2500000   0.0000000   0.2500000), wk =   0.0234375
        k(   40) = (  -0.2500000   0.0000000   0.3750000), wk =   0.0468750
        k(   41) = (  -0.3750000   0.0000000   0.3750000), wk =   0.0234375
        k(   42) = (   0.1250000  -0.1250000   0.1250000), wk =   0.0234375
        k(   43) = (   0.1250000  -0.1250000   0.2500000), wk =   0.0468750
        k(   44) = (  -0.2500000   0.1250000   0.1250000), wk =   0.0234375
        k(   45) = (   0.1250000  -0.1250000   0.3750000), wk =   0.0468750
        k(   46) = (  -0.3750000   0.1250000   0.1250000), wk =   0.0234375
        k(   47) = (   0.1250000  -0.1250000  -0.5000000), wk =   0.0234375
        k(   48) = (   0.2500000  -0.1250000   0.2500000), wk =   0.0234375
        k(   49) = (  -0.2500000   0.1250000   0.2500000), wk =   0.0468750
        k(   50) = (   0.2500000  -0.1250000   0.3750000), wk =   0.0468750
        k(   51) = (  -0.2500000   0.1250000   0.3750000), wk =   0.0468750
        k(   52) = (  -0.3750000   0.2500000   0.1250000), wk =   0.0468750
        k(   53) = (   0.2500000  -0.1250000  -0.5000000), wk =   0.0468750
        k(   54) = (   0.3750000  -0.1250000   0.3750000), wk =   0.0234375
        k(   55) = (  -0.3750000   0.1250000   0.3750000), wk =   0.0468750
        k(   56) = (   0.3750000  -0.1250000  -0.5000000), wk =   0.0468750
        k(   57) = (   0.2500000  -0.2500000   0.2500000), wk =   0.0234375
        k(   58) = (   0.2500000  -0.2500000   0.3750000), wk =   0.0468750
        k(   59) = (  -0.3750000   0.2500000   0.2500000), wk =   0.0234375
        k(   60) = (   0.2500000  -0.2500000  -0.5000000), wk =   0.0234375
        k(   61) = (   0.3750000  -0.2500000   0.3750000), wk =   0.0234375
        k(   62) = (  -0.3750000   0.2500000   0.3750000), wk =   0.0468750
        k(   63) = (   0.3750000  -0.2500000  -0.5000000), wk =   0.0468750
        k(   64) = (   0.3750000  -0.3750000   0.3750000), wk =   0.0234375
        k(   65) = (   0.3750000  -0.3750000  -0.5000000), wk =   0.0234375

     Check: negative core charge=   -0.000003

     Initial potential from superposition of free atoms

     starting charge   31.99967, renormalised to   32.00000
     Starting wfcs are   32 randomized atomic wfcs

     Self-consistent Calculation

     iteration #  1     ecut=    80.00 Ry     beta= 0.70
     Davidson diagonalization with overlap
     c_bands:  1 eigenvalues not converged
     c_bands:  1 eigenvalues not converged
     c_bands:  1 eigenvalues not converged
     ethr =  1.00E-06,  avg # of iterations = 13.3

[...]

     total energy              =     -99.35173349 Ry
     Harris-Foulkes estimate   =     -99.35173480 Ry
     estimated scf accuracy    <       0.00000472 Ry

     iteration #  5     ecut=    80.00 Ry     beta= 0.70
     Davidson diagonalization with overlap
     ethr =  1.47E-08,  avg # of iterations =  2.9

     End of self-consistent calculation

[...]

          k =-0.3750 0.2500 0.3750 (  3708 PWs)   bands (ev):

[...]

          k = 0.3750-0.3750-0.5000 (  3696 PWs)   bands (ev):

    -3.4777  -3.4774  -2.1368  -2.1366   0.2001   0.2004   1.5091   1.5094
     9.3091   9.3093   9.9798   9.9802  10.2468  10.2474  10.3588  10.3589
    21.3490  21.3494  21.5370  21.5377

     occupation numbers
     1.0000   1.0000   1.0000   1.0000   1.0000   1.0000   1.0000   1.0000
     1.0000   1.0000   1.0000   1.0000   1.0000   1.0000   1.0000   1.0000
     0.0000   0.0000   0.0000   0.0000

     the Fermi energy is    15.8841 ev

!    total energy              =     -99.35173530 Ry
     Harris-Foulkes estimate   =     -99.35173522 Ry
     estimated scf accuracy    <       0.00000015 Ry

     The total energy is the sum of the following terms:

     one-electron contribution =      32.52889180 Ry
     hartree contribution      =       7.78609139 Ry
     xc contribution           =     -37.48711875 Ry
     ewald contribution        =    -102.17959975 Ry
     smearing contrib. (-TS)   =      -0.00000000 Ry

     convergence has been achieved in   5 iterations

     Forces acting on atoms (cartesian axes, Ry/au):

     atom    1 type  1   force =    -0.00003357   -0.00003357   -0.00003357
     atom    2 type  1   force =    -0.00001377   -0.00001377   -0.00003367
     atom    3 type  1   force =    -0.00003367   -0.00001377   -0.00001377
     atom    4 type  1   force =    -0.00001377   -0.00003367   -0.00001377
     atom    5 type  1   force =     0.00006451    0.00006451    0.00006451
     atom    6 type  1   force =    -0.00001719   -0.00001719    0.00006465
     atom    7 type  1   force =     0.00006465   -0.00001719   -0.00001719
     atom    8 type  1   force =    -0.00001719    0.00006465   -0.00001719
     The non-local contrib.  to forces
     atom    1 type  1   force =    -0.00002253   -0.00002253   -0.00002253
     atom    2 type  1   force =    -0.00001370   -0.00001370   -0.00002358
     atom    3 type  1   force =    -0.00002358   -0.00001370   -0.00001370
     atom    4 type  1   force =    -0.00001370   -0.00002358   -0.00001370
     atom    5 type  1   force =     0.00004889    0.00004889    0.00004889
     atom    6 type  1   force =    -0.00001254   -0.00001254    0.00004997
     atom    7 type  1   force =     0.00004997   -0.00001254   -0.00001254
     atom    8 type  1   force =    -0.00001254    0.00004997   -0.00001254
     The ionic contribution  to forces
     atom    1 type  1   force =    -0.00009341   -0.00009341   -0.00009341
     atom    2 type  1   force =    -0.00000196   -0.00000196   -0.00009859
     atom    3 type  1   force =    -0.00009859   -0.00000196   -0.00000196
     atom    4 type  1   force =    -0.00000196   -0.00009859   -0.00000196
     atom    5 type  1   force =     0.00021716    0.00021716    0.00021716
     atom    6 type  1   force =    -0.00012171   -0.00012171    0.00022220
     atom    7 type  1   force =     0.00022220   -0.00012171   -0.00012171
     atom    8 type  1   force =    -0.00012171    0.00022220   -0.00012171
     The local contribution  to forces
     atom    1 type  1   force =     0.00009686    0.00009686    0.00009686
     atom    2 type  1   force =    -0.00001452   -0.00001452    0.00010498
     atom    3 type  1   force =     0.00010498   -0.00001452   -0.00001452
     atom    4 type  1   force =    -0.00001452    0.00010498   -0.00001452
     atom    5 type  1   force =    -0.00020788   -0.00020788   -0.00020788
     atom    6 type  1   force =     0.00012529    0.00012529   -0.00021585
     atom    7 type  1   force =    -0.00021585    0.00012529    0.00012529
     atom    8 type  1   force =     0.00012529   -0.00021585    0.00012529
     The core correction contribution to forces
     atom    1 type  1   force =     0.00000060    0.00000060    0.00000060
     atom    2 type  1   force =     0.00000026    0.00000026    0.00000065
     atom    3 type  1   force =     0.00000065    0.00000026    0.00000026
     atom    4 type  1   force =     0.00000026    0.00000065    0.00000026
     atom    5 type  1   force =    -0.00000110   -0.00000110   -0.00000110
     atom    6 type  1   force =     0.00000031    0.00000031   -0.00000115
     atom    7 type  1   force =    -0.00000115    0.00000031    0.00000031
     atom    8 type  1   force =     0.00000031   -0.00000115    0.00000031
     The Hubbard contrib.    to forces
     atom    1 type  1   force =     0.00000000    0.00000000    0.00000000
     atom    2 type  1   force =     0.00000000    0.00000000    0.00000000
     atom    3 type  1   force =     0.00000000    0.00000000    0.00000000
     atom    4 type  1   force =     0.00000000    0.00000000    0.00000000
     atom    5 type  1   force =     0.00000000    0.00000000    0.00000000
     atom    6 type  1   force =     0.00000000    0.00000000    0.00000000
     atom    7 type  1   force =     0.00000000    0.00000000    0.00000000
     atom    8 type  1   force =     0.00000000    0.00000000    0.00000000
     The SCF correction term to forces
     atom    1 type  1   force =    -0.00001506   -0.00001506   -0.00001506
     atom    2 type  1   force =     0.00001617    0.00001617   -0.00001712
     atom    3 type  1   force =    -0.00001712    0.00001617    0.00001617
     atom    4 type  1   force =     0.00001617   -0.00001712    0.00001617
     atom    5 type  1   force =     0.00000746    0.00000746    0.00000746
     atom    6 type  1   force =    -0.00000851   -0.00000851    0.00000951
     atom    7 type  1   force =     0.00000951   -0.00000851   -0.00000851
     atom    8 type  1   force =    -0.00000851    0.00000951   -0.00000851

     Total force =     0.000186     Total SCF correction =     0.000063
     SCF correction compared to forces is large: reduce conv_thr to get better values

     Computing stress (Cartesian axis) and pressure

          total   stress  (Ry/bohr**3)                   (kbar)     P=   -0.57
  -0.00000385   0.00000001   0.00000001         -0.57      0.00      0.00
   0.00000001  -0.00000385   0.00000001          0.00     -0.57      0.00
   0.00000001   0.00000001  -0.00000385          0.00      0.00     -0.57

     kinetic stress (kbar)  18964.39     -0.07     -0.07
                               -0.07  18964.39     -0.07
                               -0.07     -0.07  18964.39

     local   stress (kbar)  -2469.41     -0.42     -0.42
                               -0.42  -2469.41     -0.42
                               -0.42     -0.42  -2469.41

     nonloc. stress (kbar)   3294.95      0.01      0.01
                                0.01   3294.95      0.01
                                0.01      0.01   3294.95

     hartree stress (kbar)   1242.50      0.06      0.06
                                0.06   1242.50      0.06
                                0.06      0.06   1242.50

     exc-cor stress (kbar)   -441.34      0.00      0.00
                                0.00   -441.34      0.00
                                0.00      0.00   -441.34

     corecor stress (kbar)  -4285.90     -0.00     -0.00
                               -0.00  -4285.90     -0.00
                               -0.00     -0.00  -4285.90

     ewald   stress (kbar) -16305.76      0.41      0.41
                                0.41 -16305.76      0.41
                                0.41      0.41 -16305.76

     hubbard stress (kbar)      0.00      0.00      0.00
                                0.00      0.00      0.00
                                0.00      0.00      0.00

     london  stress (kbar)      0.00      0.00      0.00
                                0.00      0.00      0.00
                                0.00      0.00      0.00

     DFT-D3  stress (kbar)      0.00      0.00      0.00
                                0.00      0.00      0.00
                                0.00      0.00      0.00

     XDM     stress (kbar)      0.00      0.00      0.00
                                0.00      0.00      0.00
                                0.00      0.00      0.00

     dft-nl  stress (kbar)      0.00      0.00      0.00
                                0.00      0.00      0.00
                                0.00      0.00      0.00

     TS-vdW  stress (kbar)      0.00      0.00      0.00
                                0.00      0.00      0.00
                                0.00      0.00      0.00

     Writing output data file c-3.57102.save/

     General routines

     Parallel routines

   This run was terminated on:  19:40:52  26May2022

   JOB DONE.