     Program PWSCF v.6.4.1 starts on 23Aug2022 at  8:29:59

     R & G space division:  proc/nbgrp/npool/nimage =       6
     Reading input from distance-1.8.in

     Current dimensions of program PWSCF are:
     Max number of different atomic species (ntypx) = 10
     Max number of k-points (npk) =  40000
     Max angular momentum in pseudopotentials (lmaxx) =  3

     IMPORTANT: XC functional enforced from input :
     Exchange-correlation      = RVV10 ( 1  4 13  4 3 0)
     Any further DFT definition will be discarded
     Please, verify this is what you really want

               file H.pbe-rrkjus.UPF: wavefunction(s)  1S renormalized
               file V.pbe-spnl-rrkjus_psl.1.0.0.UPF: wavefunction(s)  3P 3D renormalized

     Subspace diagonalization in iterative solution of the eigenvalue problem:
     a serial algorithm will be used

     bravais-lattice index     =            4
     lattice parameter (alat)  =      23.2937  a.u.
     unit-cell volume          =    8879.8548 (a.u.)^3
     number of atoms/cell      =           52
     number of atomic types    =            3
     number of electrons       =       211.00
     number of Kohn-Sham states=          127
     kinetic-energy cutoff     =      70.0000  Ry
     charge density cutoff     =     490.0000  Ry
     convergence threshold     =      1.0E-06
     mixing beta               =       0.7000
     number of iterations used =            8  plain     mixing
     Exchange-correlation      = RVV10 ( 1  4 13  4 3 0)

     celldm(1)=  23.293684  celldm(2)=   0.000000  celldm(3)=   0.811261
     celldm(4)=   0.000000  celldm(5)=   0.000000  celldm(6)=   0.000000

     crystal axes: (cart. coord. in units of alat)
               a(1) = (   1.000000   0.000000   0.000000 )
               a(2) = (  -0.500000   0.866025   0.000000 )
               a(3) = (   0.000000   0.000000   0.811261 )

     reciprocal axes: (cart. coord. in units 2 pi/alat)
               b(1) = (  1.000000  0.577350 -0.000000 )
               b(2) = (  0.000000  1.154701  0.000000 )
               b(3) = (  0.000000 -0.000000  1.232649 )

     PseudoPot. # 1 for H  read from file:
     /home/cristian/Escritorio/Proyecto_Grafeno/pseudopotenciales/H.pbe-rrkjus.UPF
     MD5 check sum: 7cc9d459525c9a0585f487a71c3c9563
     Pseudo is Ultrasoft, Zval =  1.0
     Generated by new atomic code, or converted to UPF format
     Using radial grid of 1061 points,  2 beta functions with:
                l(1) =   0
                l(2) =   0
     Q(r) pseudized with 0 coefficients

     PseudoPot. # 2 for C  read from file:
     /home/cristian/Escritorio/Proyecto_Grafeno/pseudopotenciales/C.pbe-n-rrkjus_psl.1.0.0.UPF
     MD5 check sum: 1fdd950c42eb37d8afe3dd2f8d12311e
     Pseudo is Ultrasoft + core correction, Zval =  4.0
     Generated using "atomic" code by A. Dal Corso v.6.3MaX
     Using radial grid of 1073 points,  4 beta functions with:
                l(1) =   0
                l(2) =   0
                l(3) =   1
                l(4) =   1
     Q(r) pseudized with 0 coefficients

     PseudoPot. # 3 for V  read from file:
     /home/cristian/Escritorio/Proyecto_Grafeno/pseudopotenciales/V.pbe-spnl-rrkjus_psl.1.0.0.UPF
     MD5 check sum: 79b3eb63147daf0b665d9f1bcc691206
     Pseudo is Ultrasoft + core correction, Zval = 13.0
     Generated using "atomic" code by A. Dal Corso v.6.2.2
     Using radial grid of 1181 points,  6 beta functions with:
                l(1) =   0
                l(2) =   0
                l(3) =   1
                l(4) =   1
                l(5) =   2
                l(6) =   2
     Q(r) pseudized with 0 coefficients

     vdW kernel table read from file rVV10_kernel_table
     MD5 check sum: b8e2538accc0c0b3206b45ba4daaba6c

     atomic species   valence    mass     pseudopotential
        H              1.00     1.00794     H ( 1.00)
        C              4.00    12.01070     C ( 1.00)
        V             13.00    50.94150     V ( 1.00)

     Starting magnetic structure
     atomic species   magnetization
        H            0.500
        C            0.300
        V            0.800

      2 Sym. Ops. (no inversion) found

                                    s                        frac. trans.

      isym =  1     identity

 cryst.   s( 1) = (     1          0          0      )
                  (     0          1          0      )
                  (     0          0          1      )

 cart.    s( 1) = (  1.0000000  0.0000000  0.0000000 )
                  (  0.0000000  1.0000000  0.0000000 )
                  (  0.0000000  0.0000000  1.0000000 )

      isym =  2     inv. 180 deg rotation - cryst. axis [1,1,0]

 cryst.   s( 2) = (     0         -1          0      )
                  (    -1          0          0      )
                  (     0          0          1      )

 cart.    s( 2) = (  0.5000000 -0.8660254  0.0000000 )
                  ( -0.8660254 -0.5000000  0.0000000 )
                  (  0.0000000  0.0000000  1.0000000 )

     point group C_s (m)
     there are  2 classes
     the character table:

       E     s
A'     1.00  1.00
A''    1.00 -1.00

     the symmetry operations in each class and the name of the first element:

     E        1
          identity
     s        2
          inv. 180 deg rotation - cryst. axis [1,1,0]

   Cartesian axes

     site n.     atom                  positions (alat units)
         1           H   tau(   1) = (   0.3000000   0.4041452   0.1460270  )
         2           H   tau(   2) = (   0.3000000   0.4041452   0.2070397  )
         3           C   tau(   3) = (   0.0000000   0.0000000   0.0000000  )
         4           C   tau(   4) = (   0.0000000   0.1154701   0.0000000  )
         5           C   tau(   5) = (  -0.1000000   0.1732051   0.0000000  )
         6           C   tau(   6) = (  -0.1000000   0.2886751   0.0000000  )
         7           C   tau(   7) = (  -0.2000000   0.3464102   0.0000000  )
         8           C   tau(   8) = (  -0.2000000   0.4618802   0.0000000  )
         9           C   tau(   9) = (  -0.3000000   0.5196152   0.0000000  )
        10           C   tau(  10) = (  -0.3000000   0.6350853   0.0000000  )
        11           C   tau(  11) = (  -0.4000000   0.6928203   0.0000000  )
        12           C   tau(  12) = (  -0.4000000   0.8082904   0.0000000  )
        13           C   tau(  13) = (   0.2000000   0.0000000   0.0000000  )
        14           C   tau(  14) = (   0.2000000   0.1154701   0.0000000  )
        15           C   tau(  15) = (   0.1000000   0.1732051   0.0000000  )
        16           C   tau(  16) = (   0.1000000   0.2886751   0.0000000  )
        17           C   tau(  17) = (   0.0000000   0.3464102   0.0000000  )
        18           C   tau(  18) = (   0.0000000   0.4618802   0.0000000  )
        19           C   tau(  19) = (  -0.1000000   0.5196152   0.0000000  )
        20           C   tau(  20) = (  -0.1000000   0.6350853   0.0000000  )
        21           C   tau(  21) = (  -0.2000000   0.6928203   0.0000000  )
        22           C   tau(  22) = (  -0.2000000   0.8082904   0.0000000  )
        23           C   tau(  23) = (   0.4000000   0.0000000   0.0000000  )
        24           C   tau(  24) = (   0.4000000   0.1154701   0.0000000  )
        25           C   tau(  25) = (   0.3000000   0.1732051   0.0000000  )
        26           C   tau(  26) = (   0.3000000   0.2886751   0.0000000  )
        27           C   tau(  27) = (   0.2000000   0.3464102   0.0000000  )
        28           V   tau(  28) = (   0.2000000   0.4618802   0.0000000  )
        29           C   tau(  29) = (   0.1000000   0.5196152   0.0000000  )
        30           C   tau(  30) = (   0.1000000   0.6350853   0.0000000  )
        31           C   tau(  31) = (   0.0000000   0.6928203   0.0000000  )
        32           C   tau(  32) = (   0.0000000   0.8082904   0.0000000  )
        33           C   tau(  33) = (   0.6000000   0.0000000   0.0000000  )
        34           C   tau(  34) = (   0.6000000   0.1154701   0.0000000  )
        35           C   tau(  35) = (   0.5000000   0.1732051   0.0000000  )
        36           C   tau(  36) = (   0.5000000   0.2886751   0.0000000  )
        37           C   tau(  37) = (   0.4000000   0.3464102   0.0000000  )
        38           C   tau(  38) = (   0.4000000   0.4618802   0.0000000  )
        39           C   tau(  39) = (   0.3000000   0.5196152   0.0000000  )
        40           C   tau(  40) = (   0.3000000   0.6350853   0.0000000  )
        41           C   tau(  41) = (   0.2000000   0.6928203   0.0000000  )
        42           C   tau(  42) = (   0.2000000   0.8082904   0.0000000  )
        43           C   tau(  43) = (   0.8000000   0.0000000   0.0000000  )
        44           C   tau(  44) = (   0.8000000   0.1154701   0.0000000  )
        45           C   tau(  45) = (   0.7000000   0.1732051   0.0000000  )
        46           C   tau(  46) = (   0.7000000   0.2886751   0.0000000  )
        47           C   tau(  47) = (   0.6000000   0.3464102   0.0000000  )
        48           C   tau(  48) = (   0.6000000   0.4618802   0.0000000  )
        49           C   tau(  49) = (   0.5000000   0.5196152   0.0000000  )
        50           C   tau(  50) = (   0.5000000   0.6350853   0.0000000  )
        51           C   tau(  51) = (   0.4000000   0.6928203   0.0000000  )
        52           C   tau(  52) = (   0.4000000   0.8082904   0.0000000  )

   Crystallographic axes

     site n.     atom                  positions (cryst. coord.)
         1           H   tau(   1) = (  0.5333333  0.4666667  0.1800000  )
         2           H   tau(   2) = (  0.5333333  0.4666667  0.2552072  )
         3           C   tau(   3) = (  0.0000000  0.0000000  0.0000000  )
         4           C   tau(   4) = (  0.0666667  0.1333333  0.0000000  )
         5           C   tau(   5) = (  0.0000000  0.2000000  0.0000000  )
         6           C   tau(   6) = (  0.0666667  0.3333333  0.0000000  )
         7           C   tau(   7) = (  0.0000000  0.4000000  0.0000000  )
         8           C   tau(   8) = (  0.0666667  0.5333333  0.0000000  )
         9           C   tau(   9) = (  0.0000000  0.6000000  0.0000000  )
        10           C   tau(  10) = (  0.0666667  0.7333333  0.0000000  )
        11           C   tau(  11) = (  0.0000000  0.8000000  0.0000000  )
        12           C   tau(  12) = (  0.0666667  0.9333333  0.0000000  )
        13           C   tau(  13) = (  0.2000000  0.0000000  0.0000000  )
        14           C   tau(  14) = (  0.2666667  0.1333333  0.0000000  )
        15           C   tau(  15) = (  0.2000000  0.2000000  0.0000000  )
        16           C   tau(  16) = (  0.2666667  0.3333333  0.0000000  )
        17           C   tau(  17) = (  0.2000000  0.4000000  0.0000000  )
        18           C   tau(  18) = (  0.2666667  0.5333333  0.0000000  )
        19           C   tau(  19) = (  0.2000000  0.6000000  0.0000000  )
        20           C   tau(  20) = (  0.2666667  0.7333333  0.0000000  )
        21           C   tau(  21) = (  0.2000000  0.8000000  0.0000000  )
        22           C   tau(  22) = (  0.2666667  0.9333333  0.0000000  )
        23           C   tau(  23) = (  0.4000000  0.0000000  0.0000000  )
        24           C   tau(  24) = (  0.4666667  0.1333333  0.0000000  )
        25           C   tau(  25) = (  0.4000000  0.2000000  0.0000000  )
        26           C   tau(  26) = (  0.4666667  0.3333333  0.0000000  )
        27           C   tau(  27) = (  0.4000000  0.4000000  0.0000000  )
        28           V   tau(  28) = (  0.4666667  0.5333333  0.0000000  )
        29           C   tau(  29) = (  0.4000000  0.6000000  0.0000000  )
        30           C   tau(  30) = (  0.4666667  0.7333333  0.0000000  )
        31           C   tau(  31) = (  0.4000000  0.8000000  0.0000000  )
        32           C   tau(  32) = (  0.4666667  0.9333333  0.0000000  )
        33           C   tau(  33) = (  0.6000000  0.0000000  0.0000000  )
        34           C   tau(  34) = (  0.6666667  0.1333333  0.0000000  )
        35           C   tau(  35) = (  0.6000000  0.2000000  0.0000000  )
        36           C   tau(  36) = (  0.6666667  0.3333333  0.0000000  )
        37           C   tau(  37) = (  0.6000000  0.4000000  0.0000000  )
        38           C   tau(  38) = (  0.6666667  0.5333333  0.0000000  )
        39           C   tau(  39) = (  0.6000000  0.6000000  0.0000000  )
        40           C   tau(  40) = (  0.6666667  0.7333333  0.0000000  )
        41           C   tau(  41) = (  0.6000000  0.8000000  0.0000000  )
        42           C   tau(  42) = (  0.6666667  0.9333333  0.0000000  )
        43           C   tau(  43) = (  0.8000000  0.0000000  0.0000000  )
        44           C   tau(  44) = (  0.8666667  0.1333333  0.0000000  )
        45           C   tau(  45) = (  0.8000000  0.2000000  0.0000000  )
        46           C   tau(  46) = (  0.8666667  0.3333333  0.0000000  )
        47           C   tau(  47) = (  0.8000000  0.4000000  0.0000000  )
        48           C   tau(  48) = (  0.8666667  0.5333333  0.0000000  )
        49           C   tau(  49) = (  0.8000000  0.6000000  0.0000000  )
        50           C   tau(  50) = (  0.8666667  0.7333333  0.0000000  )
        51           C   tau(  51) = (  0.8000000  0.8000000  0.0000000  )
        52           C   tau(  52) = (  0.8666667  0.9333333  0.0000000  )

     number of k points=     1  Marzari-Vanderbilt smearing, width (Ry)=  0.0010
                       cart. coord. in units 2pi/alat
        k(    1) = (   0.0000000   0.0000000   0.0000000), wk =   1.0000000

                       cryst. coord.
        k(    1) = (   0.0000000   0.0000000   0.0000000), wk =   1.0000000

     Check: negative core charge=   -0.000002

     Initial potential from superposition of free atoms

     starting charge  210.80465, renormalised to  211.00000

     negative rho (up, down):  1.381E-04 1.882E-02

Carrying out rVV10 run using the following parameters:
Nqs =      20    Nr_points =    1024   r_max =   100.000
b_value =  6.30000    beta =  0.00901
     q_mesh =  0.00010000  0.00030000  0.00058939  0.00100810
               0.00161396  0.00249058  0.00375900  0.00559430
               0.00824984  0.01209221  0.01765183  0.02569619
               0.03733578  0.05417739  0.07854596  0.11380545
               0.16482331  0.23864234  0.34545298  0.50000000

Gradients computed in Reciprocal space

     Starting wfcs are  208 randomized atomic wfcs

     Self-consistent Calculation

     iteration #  1     ecut=    70.00 Ry     beta= 0.70
     Davidson diagonalization with overlap
     ethr =  1.00E-02,  avg # of iterations =  2.5

[...]

     total energy              =    -752.36489962 Ry
     Harris-Foulkes estimate   =    -757.08490191 Ry
     estimated scf accuracy    <      12.67218207 Ry

     total magnetization       =     5.00 Bohr mag/cell
     absolute magnetization    =     6.05 Bohr mag/cell

[...]

     total energy              =    -757.31533479 Ry
     Harris-Foulkes estimate   =    -757.31533570 Ry
     estimated scf accuracy    <       0.00000239 Ry

[...]

     iteration # 26     ecut=    70.00 Ry     beta= 0.70
     Davidson diagonalization with overlap
     ethr =  1.13E-09,  avg # of iterations =  3.0

     negative rho (up, down):  3.419E-02 2.413E-03

     Magnetic moment per site:
     atom:    1    charge:    0.2143    magn:   -0.0001    constr:    0.0000
     atom:    2    charge:    0.2118    magn:    0.0002    constr:    0.0000
     atom:    3    charge:    1.7173    magn:   -0.0074    constr:    0.0000
     atom:    4    charge:    1.7159    magn:    0.0109    constr:    0.0000
     atom:    5    charge:    1.7181    magn:   -0.0044    constr:    0.0000
     atom:    6    charge:    1.7141    magn:    0.0027    constr:    0.0000
     atom:    7    charge:    1.7184    magn:   -0.0042    constr:    0.0000
     atom:    8    charge:    1.7154    magn:    0.0084    constr:    0.0000
     atom:    9    charge:    1.7178    magn:   -0.0065    constr:    0.0000
     atom:   10    charge:    1.7138    magn:    0.0276    constr:    0.0000
     atom:   11    charge:    1.7185    magn:   -0.0090    constr:    0.0000
     atom:   12    charge:    1.7155    magn:    0.0374    constr:    0.0000
     atom:   13    charge:    1.7185    magn:   -0.0090    constr:    0.0000
     atom:   14    charge:    1.7142    magn:    0.0207    constr:    0.0000
     atom:   15    charge:    1.7168    magn:   -0.0080    constr:    0.0000
     atom:   16    charge:    1.7113    magn:    0.0319    constr:    0.0000
     atom:   17    charge:    1.7267    magn:   -0.0058    constr:    0.0000
     atom:   18    charge:    1.7114    magn:    0.0342    constr:    0.0000
     atom:   19    charge:    1.7167    magn:   -0.0087    constr:    0.0000
     atom:   20    charge:    1.7150    magn:    0.0280    constr:    0.0000
     atom:   21    charge:    1.7187    magn:   -0.0089    constr:    0.0000
     atom:   22    charge:    1.7138    magn:    0.0276    constr:    0.0000
     atom:   23    charge:    1.7178    magn:   -0.0065    constr:    0.0000
     atom:   24    charge:    1.7157    magn:    0.0088    constr:    0.0000
     atom:   25    charge:    1.7168    magn:   -0.0070    constr:    0.0000
     atom:   26    charge:    1.7122    magn:    0.0227    constr:    0.0000
     atom:   27    charge:    1.9158    magn:   -0.0009    constr:    0.0000
     atom:   28    charge:    7.8611    magn:    0.1018    constr:    0.0000
     atom:   29    charge:    1.9142    magn:    0.0005    constr:    0.0000
     atom:   30    charge:    1.7114    magn:    0.0342    constr:    0.0000
     atom:   31    charge:    1.7167    magn:   -0.0087    constr:    0.0000
     atom:   32    charge:    1.7154    magn:    0.0084    constr:    0.0000
     atom:   33    charge:    1.7184    magn:   -0.0042    constr:    0.0000
     atom:   34    charge:    1.7137    magn:    0.0062    constr:    0.0000
     atom:   35    charge:    1.7182    magn:   -0.0040    constr:    0.0000
     atom:   36    charge:    1.7139    magn:    0.0026    constr:    0.0000
     atom:   37    charge:    1.7285    magn:   -0.0043    constr:    0.0000
     atom:   38    charge:    1.7122    magn:    0.0227    constr:    0.0000
     atom:   39    charge:    1.9158    magn:   -0.0009    constr:    0.0000
     atom:   40    charge:    1.7113    magn:    0.0319    constr:    0.0000
     atom:   41    charge:    1.7267    magn:   -0.0058    constr:    0.0000
     atom:   42    charge:    1.7141    magn:    0.0027    constr:    0.0000
     atom:   43    charge:    1.7181    magn:   -0.0044    constr:    0.0000
     atom:   44    charge:    1.7140    magn:    0.0079    constr:    0.0000
     atom:   45    charge:    1.7244    magn:   -0.0030    constr:    0.0000
     atom:   46    charge:    1.7137    magn:    0.0062    constr:    0.0000
     atom:   47    charge:    1.7182    magn:   -0.0040    constr:    0.0000
     atom:   48    charge:    1.7157    magn:    0.0088    constr:    0.0000
     atom:   49    charge:    1.7168    magn:   -0.0070    constr:    0.0000
     atom:   50    charge:    1.7142    magn:    0.0207    constr:    0.0000
     atom:   51    charge:    1.7168    magn:   -0.0080    constr:    0.0000
     atom:   52    charge:    1.7159    magn:    0.0109    constr:    0.0000

     End of self-consistent calculation

 ------ SPIN UP ------------

          k = 0.0000 0.0000 0.0000 ( 87777 PWs)   bands (ev):

   -62.8463 -37.9392 -37.9289 -36.6100 -19.6457 -18.8089 -18.7925 -18.7343
   -18.6971 -18.6804 -18.2566 -16.9506 -16.9493 -16.9429 -16.8120 -16.8105
   -16.5294 -16.0962 -16.0925 -16.0002 -15.8508 -15.8435 -15.0985 -13.9086
   -13.9014 -13.8944 -13.8724 -13.8703 -13.1453 -12.9330 -12.9278 -12.9100
   -12.5224 -12.5157 -12.1251 -11.6598 -11.6554 -11.5342 -11.1574 -11.1489
   -10.1677  -9.3547  -9.3500  -9.2685  -9.1981  -9.1929  -9.1026  -9.0803
    -9.0767  -9.0630  -8.4820  -8.4743  -8.1206  -7.9037  -7.9030  -7.8622
    -7.6865  -7.6175  -7.2612  -7.2588  -6.9770  -6.9089  -6.8229  -6.7098
    -6.7085  -6.6174  -6.6046  -6.6008  -6.5547  -6.4498  -6.4392  -6.4023
    -6.3979  -6.3925  -6.3450  -6.0076  -5.2720  -5.2668  -5.1773  -5.0619
    -4.9568  -4.9554  -4.8437  -4.7565  -4.6308  -4.6173  -4.5849  -4.2158
    -3.9995  -3.9933  -3.7688  -3.7474  -3.6638  -3.6348  -3.5093  -3.5089
    -2.8697  -2.2809  -2.2710  -2.2340  -2.2226  -1.7619  -1.6942  -1.6889
    -0.5528  -0.2569  -0.2526   1.0221   1.0326   1.0746   1.1236   1.7894
     2.0314   2.0390   2.5202   2.8763   2.8868   2.9545   3.5185   3.5800
     3.6677   3.7364   3.7472   3.7887   3.8718   3.9941   3.9950

     occupation numbers
     1.0000   1.0000   1.0000   1.0000   1.0000   1.0000   1.0000   1.0000
     1.0000   1.0000   1.0000   1.0000   1.0000   1.0000   1.0000   1.0000
     1.0000   1.0000   1.0000   1.0000   1.0000   1.0000   1.0000   1.0000
     1.0000   1.0000   1.0000   1.0000   1.0000   1.0000   1.0000   1.0000
     1.0000   1.0000   1.0000   1.0000   1.0000   1.0000   1.0000   1.0000
     1.0000   1.0000   1.0000   1.0000   1.0000   1.0000   1.0000   1.0000
     1.0000   1.0000   1.0000   1.0000   1.0000   1.0000   1.0000   1.0000
     1.0000   1.0000   1.0000   1.0000   1.0000   1.0000   1.0000   1.0000
     1.0000   1.0000   1.0000   1.0000   1.0000   1.0000   1.0000   1.0000
     1.0000   1.0000   1.0000   1.0000   1.0000   1.0000   1.0000   1.0000
     1.0000   1.0000   1.0000   1.0000   1.0000   1.0000   1.0000   1.0000
     1.0000   1.0000   1.0000   1.0000   1.0000   1.0000   1.0000   1.0000
     1.0000   1.0000   1.0000   1.0000   1.0000   1.0000   1.0000   1.0000
     1.0000   0.6149   0.3851   0.0000   0.0000   0.0000   0.0000   0.0000
     0.0000   0.0000   0.0000   0.0000   0.0000   0.0000   0.0000   0.0000
     0.0000   0.0000   0.0000   0.0000   0.0000   0.0000   0.0000

 ------ SPIN DOWN ----------

          k = 0.0000 0.0000 0.0000 ( 87777 PWs)   bands (ev):

   -62.6500 -37.7973 -37.7469 -36.3414 -19.6240 -18.7898 -18.7685 -18.7142
   -18.6815 -18.6630 -18.2247 -16.9344 -16.9303 -16.9246 -16.7853 -16.7811
   -16.5151 -16.0677 -16.0668 -15.9843 -15.8297 -15.8226 -15.0838 -13.8766
   -13.8707 -13.8684 -13.8583 -13.8475 -13.1485 -12.9218 -12.9177 -12.8946
   -12.5139 -12.5080 -12.1067 -11.6413 -11.6384 -11.5210 -11.1439 -11.1375
   -10.1531  -9.3369  -9.3340  -9.2557  -9.1801  -9.1763  -9.0945  -9.0651
    -9.0632  -9.0537  -8.4741  -8.4681  -8.0871  -7.8920  -7.8906  -7.8495
    -7.6781  -7.5740  -7.2525  -7.2482  -6.9035  -6.8878  -6.7531  -6.6773
    -6.6638  -6.5940  -6.5898  -6.5802  -6.5452  -6.4406  -6.4295  -6.3973
    -6.3905  -6.3857  -6.3367  -5.9444  -5.2642  -5.2579  -5.1025  -4.9669
    -4.9461  -4.9457  -4.8379  -4.7505  -4.5906  -4.5675  -4.5327  -4.1801
    -3.9535  -3.9370  -3.6961  -3.6751  -3.6163  -3.6048  -3.5031  -3.5020
    -2.8336  -2.2101  -2.2075  -2.1709  -2.1542  -1.6790  -1.6782  -1.6626
    -0.5482  -0.0536  -0.0033   1.0577   1.0914   1.1129   1.1866   1.8591
     2.1015   2.1080   2.5259   2.9439   2.9573   2.9983   3.5246   3.6026
     3.6866   3.7394   3.7484   3.7962   3.8987   4.0559   4.1553

     occupation numbers
     1.0000   1.0000   1.0000   1.0000   1.0000   1.0000   1.0000   1.0000
     1.0000   1.0000   1.0000   1.0000   1.0000   1.0000   1.0000   1.0000
     1.0000   1.0000   1.0000   1.0000   1.0000   1.0000   1.0000   1.0000
     1.0000   1.0000   1.0000   1.0000   1.0000   1.0000   1.0000   1.0000
     1.0000   1.0000   1.0000   1.0000   1.0000   1.0000   1.0000   1.0000
     1.0000   1.0000   1.0000   1.0000   1.0000   1.0000   1.0000   1.0000
     1.0000   1.0000   1.0000   1.0000   1.0000   1.0000   1.0000   1.0000
     1.0000   1.0000   1.0000   1.0000   1.0000   1.0000   1.0000   1.0000
     1.0000   1.0000   1.0000   1.0000   1.0000   1.0000   1.0000   1.0000
     1.0000   1.0000   1.0000   1.0000   1.0000   1.0000   1.0000   1.0000
     1.0000   1.0000   1.0000   1.0000   1.0000   1.0000   1.0000   1.0000
     1.0000   1.0000   1.0000   1.0000   1.0000   1.0000   1.0000   1.0000
     1.0000   1.0000   1.0000   1.0000   1.0000   1.0000   1.0000   1.0000
     1.0000   0.0000   0.0000   0.0000   0.0000   0.0000   0.0000   0.0000
     0.0000   0.0000   0.0000   0.0000   0.0000   0.0000   0.0000   0.0000
     0.0000   0.0000   0.0000   0.0000   0.0000   0.0000   0.0000

     the Fermi energy is    -0.2529 ev

!    total energy              =    -757.31533589 Ry
     Harris-Foulkes estimate   =    -757.31533595 Ry
     estimated scf accuracy    <       0.00000025 Ry

     The total energy is the sum of the following terms:

     one-electron contribution =   -2604.32270035 Ry
     hartree contribution      =    1348.92837289 Ry
     xc contribution           =    -252.72165193 Ry
     ewald contribution        =     750.80095367 Ry
     smearing contrib. (-TS)   =      -0.00031017 Ry

     total magnetization       =     1.00 Bohr mag/cell
     absolute magnetization    =     1.54 Bohr mag/cell

     convergence has been achieved in  26 iterations

     Writing output data file distance-1.8.save/

     General routines

     Parallel routines

   This run was terminated on:   9:16:53  23Aug2022

   JOB DONE.