     Program PWSCF v.6.4.1 starts on  3Jan2023 at  5:56:31

     R & G space division:  proc/nbgrp/npool/nimage =       6
     Reading input from distance-3.0.in

     Current dimensions of program PWSCF are:
     Max number of different atomic species (ntypx) = 10
     Max number of k-points (npk) =  40000
     Max angular momentum in pseudopotentials (lmaxx) =  3

     IMPORTANT: XC functional enforced from input :
     Exchange-correlation      = RVV10 ( 1  4 13  4 3 0)
     Any further DFT definition will be discarded
     Please, verify this is what you really want

               file H.pbe-rrkjus.UPF: wavefunction(s)  1S renormalized

     Subspace diagonalization in iterative solution of the eigenvalue problem:
     a serial algorithm will be used

     bravais-lattice index     =            4
     lattice parameter (alat)  =      23.2937  a.u.
     unit-cell volume          =    8879.8548 (a.u.)^3
     number of atoms/cell      =           52
     number of atomic types    =            3
     number of electrons       =       216.00
     number of Kohn-Sham states=          130
     kinetic-energy cutoff     =      70.0000  Ry
     charge density cutoff     =     490.0000  Ry
     convergence threshold     =      1.0E-06
     mixing beta               =       0.7000
     number of iterations used =            8  plain     mixing
     Exchange-correlation      = RVV10 ( 1  4 13  4 3 0)

     celldm(1)=  23.293684  celldm(2)=   0.000000  celldm(3)=   0.811261
     celldm(4)=   0.000000  celldm(5)=   0.000000  celldm(6)=   0.000000

     crystal axes: (cart. coord. in units of alat)
               a(1) = (   1.000000   0.000000   0.000000 )
               a(2) = (  -0.500000   0.866025   0.000000 )
               a(3) = (   0.000000   0.000000   0.811261 )

     reciprocal axes: (cart. coord. in units 2 pi/alat)
               b(1) = (  1.000000  0.577350 -0.000000 )
               b(2) = (  0.000000  1.154701  0.000000 )
               b(3) = (  0.000000 -0.000000  1.232649 )

     PseudoPot. # 1 for H  read from file:
     /home/cristian/Escritorio/Proyecto_Grafeno/pseudopotenciales/H.pbe-rrkjus.UPF
     MD5 check sum: 7cc9d459525c9a0585f487a71c3c9563
     Pseudo is Ultrasoft, Zval =  1.0
     Generated by new atomic code, or converted to UPF format
     Using radial grid of 1061 points,  2 beta functions with:
                l(1) =   0
                l(2) =   0
     Q(r) pseudized with 0 coefficients

     PseudoPot. # 2 for C  read from file:
     /home/cristian/Escritorio/Proyecto_Grafeno/pseudopotenciales/C.pbe-n-rrkjus_psl.1.0.0.UPF
     MD5 check sum: 1fdd950c42eb37d8afe3dd2f8d12311e
     Pseudo is Ultrasoft + core correction, Zval =  4.0
     Generated using "atomic" code by A. Dal Corso v.6.3MaX
     Using radial grid of 1073 points,  4 beta functions with:
                l(1) =   0
                l(2) =   0
                l(3) =   1
                l(4) =   1
     Q(r) pseudized with 0 coefficients

     PseudoPot. # 3 for Ni read from file:
     /home/cristian/Escritorio/Proyecto_Grafeno/pseudopotenciales/Ni.pbe-spn-rrkjus_psl.1.0.0.UPF
     MD5 check sum: 8b3fc9aac6dafe35f580d41bb18c3945
     Pseudo is Ultrasoft + core correction, Zval = 18.0
     Generated using "atomic" code by A. Dal Corso v.6.3
     Using radial grid of 1195 points,  6 beta functions with:
                l(1) =   0
                l(2) =   0
                l(3) =   1
                l(4) =   1
                l(5) =   2
                l(6) =   2
     Q(r) pseudized with 0 coefficients

     vdW kernel table read from file rVV10_kernel_table
     MD5 check sum: b8e2538accc0c0b3206b45ba4daaba6c

     atomic species   valence    mass     pseudopotential
        H              1.00     1.00794     H ( 1.00)
        C              4.00    12.01070     C ( 1.00)
        Ni            18.00    58.69340     Ni( 1.00)

     Starting magnetic structure
     atomic species   magnetization
        H            0.500
        C            0.300
        Ni           0.800

     No symmetry found

                                    s                        frac. trans.

      isym =  1     identity

 cryst.   s( 1) = (     1          0          0      )
                  (     0          1          0      )
                  (     0          0          1      )

 cart.    s( 1) = (  1.0000000  0.0000000  0.0000000 )
                  (  0.0000000  1.0000000  0.0000000 )
                  (  0.0000000  0.0000000  1.0000000 )

     point group C_1 (1)
     there are  1 classes
     the character table:

       E
A      1.00

     the symmetry operations in each class and the name of the first element:

     E        1
          identity

   Cartesian axes

     site n.     atom                  positions (alat units)
         1           H   tau(   1) = (   0.2694937   0.4041452   0.2433783  )
         2           H   tau(   2) = (   0.3305063   0.4041452   0.2433783  )
         3           C   tau(   3) = (   0.0000000   0.0000000   0.0000000  )
         4           C   tau(   4) = (   0.0000000   0.1154701   0.0000000  )
         5           C   tau(   5) = (  -0.1000000   0.1732051   0.0000000  )
         6           C   tau(   6) = (  -0.1000000   0.2886751   0.0000000  )
         7           C   tau(   7) = (  -0.2000000   0.3464102   0.0000000  )
         8           C   tau(   8) = (  -0.2000000   0.4618802   0.0000000  )
         9           C   tau(   9) = (  -0.3000000   0.5196152   0.0000000  )
        10           C   tau(  10) = (  -0.3000000   0.6350853   0.0000000  )
        11           C   tau(  11) = (  -0.4000000   0.6928203   0.0000000  )
        12           C   tau(  12) = (  -0.4000000   0.8082904   0.0000000  )
        13           C   tau(  13) = (   0.2000000   0.0000000   0.0000000  )
        14           C   tau(  14) = (   0.2000000   0.1154701   0.0000000  )
        15           C   tau(  15) = (   0.1000000   0.1732051   0.0000000  )
        16           C   tau(  16) = (   0.1000000   0.2886751   0.0000000  )
        17           C   tau(  17) = (   0.0000000   0.3464102   0.0000000  )
        18           C   tau(  18) = (   0.0000000   0.4618802   0.0000000  )
        19           C   tau(  19) = (  -0.1000000   0.5196152   0.0000000  )
        20           C   tau(  20) = (  -0.1000000   0.6350853   0.0000000  )
        21           C   tau(  21) = (  -0.2000000   0.6928203   0.0000000  )
        22           C   tau(  22) = (  -0.2000000   0.8082904   0.0000000  )
        23           C   tau(  23) = (   0.4000000   0.0000000   0.0000000  )
        24           C   tau(  24) = (   0.4000000   0.1154701   0.0000000  )
        25           C   tau(  25) = (   0.3000000   0.1732051   0.0000000  )
        26           C   tau(  26) = (   0.3000000   0.2886751   0.0000000  )
        27           C   tau(  27) = (   0.2000000   0.3464102   0.0000000  )
        28           Ni  tau(  28) = (   0.2000000   0.4618802   0.0000000  )
        29           C   tau(  29) = (   0.1000000   0.5196152   0.0000000  )
        30           C   tau(  30) = (   0.1000000   0.6350853   0.0000000  )
        31           C   tau(  31) = (   0.0000000   0.6928203   0.0000000  )
        32           C   tau(  32) = (   0.0000000   0.8082904   0.0000000  )
        33           C   tau(  33) = (   0.6000000   0.0000000   0.0000000  )
        34           C   tau(  34) = (   0.6000000   0.1154701   0.0000000  )
        35           C   tau(  35) = (   0.5000000   0.1732051   0.0000000  )
        36           C   tau(  36) = (   0.5000000   0.2886751   0.0000000  )
        37           C   tau(  37) = (   0.4000000   0.3464102   0.0000000  )
        38           C   tau(  38) = (   0.4000000   0.4618802   0.0000000  )
        39           C   tau(  39) = (   0.3000000   0.5196152   0.0000000  )
        40           C   tau(  40) = (   0.3000000   0.6350853   0.0000000  )
        41           C   tau(  41) = (   0.2000000   0.6928203   0.0000000  )
        42           C   tau(  42) = (   0.2000000   0.8082904   0.0000000  )
        43           C   tau(  43) = (   0.8000000   0.0000000   0.0000000  )
        44           C   tau(  44) = (   0.8000000   0.1154701   0.0000000  )
        45           C   tau(  45) = (   0.7000000   0.1732051   0.0000000  )
        46           C   tau(  46) = (   0.7000000   0.2886751   0.0000000  )
        47           C   tau(  47) = (   0.6000000   0.3464102   0.0000000  )
        48           C   tau(  48) = (   0.6000000   0.4618802   0.0000000  )
        49           C   tau(  49) = (   0.5000000   0.5196152   0.0000000  )
        50           C   tau(  50) = (   0.5000000   0.6350853   0.0000000  )
        51           C   tau(  51) = (   0.4000000   0.6928203   0.0000000  )
        52           C   tau(  52) = (   0.4000000   0.8082904   0.0000000  )

   Crystallographic axes

     site n.     atom                  positions (cryst. coord.)
         1           H   tau(   1) = (  0.5028270  0.4666667  0.3000000  )
         2           H   tau(   2) = (  0.5638397  0.4666667  0.3000000  )
         3           C   tau(   3) = (  0.0000000  0.0000000  0.0000000  )
         4           C   tau(   4) = (  0.0666667  0.1333333  0.0000000  )
         5           C   tau(   5) = (  0.0000000  0.2000000  0.0000000  )
         6           C   tau(   6) = (  0.0666667  0.3333333  0.0000000  )
         7           C   tau(   7) = (  0.0000000  0.4000000  0.0000000  )
         8           C   tau(   8) = (  0.0666667  0.5333333  0.0000000  )
         9           C   tau(   9) = (  0.0000000  0.6000000  0.0000000  )
        10           C   tau(  10) = (  0.0666667  0.7333333  0.0000000  )
        11           C   tau(  11) = (  0.0000000  0.8000000  0.0000000  )
        12           C   tau(  12) = (  0.0666667  0.9333333  0.0000000  )
        13           C   tau(  13) = (  0.2000000  0.0000000  0.0000000  )
        14           C   tau(  14) = (  0.2666667  0.1333333  0.0000000  )
        15           C   tau(  15) = (  0.2000000  0.2000000  0.0000000  )
        16           C   tau(  16) = (  0.2666667  0.3333333  0.0000000  )
        17           C   tau(  17) = (  0.2000000  0.4000000  0.0000000  )
        18           C   tau(  18) = (  0.2666667  0.5333333  0.0000000  )
        19           C   tau(  19) = (  0.2000000  0.6000000  0.0000000  )
        20           C   tau(  20) = (  0.2666667  0.7333333  0.0000000  )
        21           C   tau(  21) = (  0.2000000  0.8000000  0.0000000  )
        22           C   tau(  22) = (  0.2666667  0.9333333  0.0000000  )
        23           C   tau(  23) = (  0.4000000  0.0000000  0.0000000  )
        24           C   tau(  24) = (  0.4666667  0.1333333  0.0000000  )
        25           C   tau(  25) = (  0.4000000  0.2000000  0.0000000  )
        26           C   tau(  26) = (  0.4666667  0.3333333  0.0000000  )
        27           C   tau(  27) = (  0.4000000  0.4000000  0.0000000  )
        28           Ni  tau(  28) = (  0.4666667  0.5333333  0.0000000  )
        29           C   tau(  29) = (  0.4000000  0.6000000  0.0000000  )
        30           C   tau(  30) = (  0.4666667  0.7333333  0.0000000  )
[...]
        44           C   tau(  44) = (  0.8666667  0.1333333  0.0000000  )
        45           C   tau(  45) = (  0.8000000  0.2000000  0.0000000  )
        46           C   tau(  46) = (  0.8666667  0.3333333  0.0000000  )
        47           C   tau(  47) = (  0.8000000  0.4000000  0.0000000  )
        48           C   tau(  48) = (  0.8666667  0.5333333  0.0000000  )
        49           C   tau(  49) = (  0.8000000  0.6000000  0.0000000  )
        50           C   tau(  50) = (  0.8666667  0.7333333  0.0000000  )
        51           C   tau(  51) = (  0.8000000  0.8000000  0.0000000  )
        52           C   tau(  52) = (  0.8666667  0.9333333  0.0000000  )

     number of k points=     1  Marzari-Vanderbilt smearing, width (Ry)=  0.0010
                       cart. coord. in units 2pi/alat
        k(    1) = (   0.0000000   0.0000000   0.0000000), wk =   1.0000000

                       cryst. coord.
        k(    1) = (   0.0000000   0.0000000   0.0000000), wk =   1.0000000

     Check: negative core charge=   -0.000002

     Initial potential from superposition of free atoms

     starting charge  215.80530, renormalised to  216.00000

     negative rho (up, down):  1.393E-04 1.481E-02

Carrying out rVV10 run using the following parameters:
Nqs =      20    Nr_points =    1024   r_max =   100.000
b_value =  6.30000    beta =  0.00901
     q_mesh =  0.00010000  0.00030000  0.00058939  0.00100810
               0.00161396  0.00249058  0.00375900  0.00559430
               0.00824984  0.01209221  0.01765183  0.02569619
               0.03733578  0.05417739  0.07854596  0.11380545
               0.16482331  0.23864234  0.34545298  0.50000000

Gradients computed in Reciprocal space

     Starting wfcs are  208 randomized atomic wfcs

     Self-consistent Calculation

     iteration #  1     ecut=    70.00 Ry     beta= 0.70
     Davidson diagonalization with overlap
     ethr =  1.00E-02,  avg # of iterations =  7.0

[...]

     total energy              =    -946.69166495 Ry
     Harris-Foulkes estimate   =    -949.73252106 Ry
     estimated scf accuracy    <      14.17632040 Ry

     total magnetization       =     6.00 Bohr mag/cell
     absolute magnetization    =     6.77 Bohr mag/cell

[...]

     Magnetic moment per site:
     atom:    1    charge:    0.2106    magn:    0.0000    constr:    0.0000
     atom:    2    charge:    0.2107    magn:    0.0000    constr:    0.0000
     atom:    3    charge:    1.7155    magn:    0.0005    constr:    0.0000
     atom:    4    charge:    1.7153    magn:   -0.0002    constr:    0.0000
     atom:    5    charge:    1.7170    magn:    0.0005    constr:    0.0000
     atom:    6    charge:    1.7148    magn:    0.0001    constr:    0.0000
     atom:    7    charge:    1.7170    magn:    0.0005    constr:    0.0000
     atom:    8    charge:    1.7155    magn:   -0.0002    constr:    0.0000
     atom:    9    charge:    1.7156    magn:    0.0004    constr:    0.0000
     atom:   10    charge:    1.7176    magn:   -0.0002    constr:    0.0000
     atom:   11    charge:    1.7155    magn:    0.0001    constr:    0.0000
     atom:   12    charge:    1.7176    magn:   -0.0001    constr:    0.0000
     atom:   13    charge:    1.7156    magn:    0.0002    constr:    0.0000
     atom:   14    charge:    1.7176    magn:    0.0000    constr:    0.0000
     atom:   15    charge:    1.7120    magn:    0.0001    constr:    0.0000
     atom:   16    charge:    1.7115    magn:   -0.0001    constr:    0.0000
     atom:   17    charge:    1.7209    magn:    0.0011    constr:    0.0000
     atom:   18    charge:    1.7117    magn:   -0.0000    constr:    0.0000
     atom:   19    charge:    1.7120    magn:    0.0000    constr:    0.0000
     atom:   20    charge:    1.7177    magn:    0.0001    constr:    0.0000
     atom:   21    charge:    1.7155    magn:    0.0002    constr:    0.0000
     atom:   22    charge:    1.7178    magn:   -0.0000    constr:    0.0000
     atom:   23    charge:    1.7154    magn:    0.0005    constr:    0.0000
     atom:   24    charge:    1.7153    magn:   -0.0002    constr:    0.0000
     atom:   25    charge:    1.7117    magn:    0.0002    constr:    0.0000
     atom:   26    charge:    1.7113    magn:   -0.0002    constr:    0.0000
     atom:   27    charge:    1.8190    magn:    0.0007    constr:    0.0000
     atom:   28    charge:   13.4017    magn:    0.0011    constr:    0.0000
     atom:   29    charge:    1.8193    magn:    0.0007    constr:    0.0000
     atom:   30    charge:    1.7115    magn:   -0.0001    constr:    0.0000
     atom:   31    charge:    1.7119    magn:    0.0001    constr:    0.0000
     atom:   32    charge:    1.7154    magn:   -0.0002    constr:    0.0000
     atom:   33    charge:    1.7168    magn:    0.0006    constr:    0.0000
     atom:   34    charge:    1.7154    magn:   -0.0001    constr:    0.0000
     atom:   35    charge:    1.7167    magn:    0.0005    constr:    0.0000
     atom:   36    charge:    1.7145    magn:    0.0000    constr:    0.0000
     atom:   37    charge:    1.7203    magn:    0.0010    constr:    0.0000
     atom:   38    charge:    1.7110    magn:    0.0001    constr:    0.0000
     atom:   39    charge:    1.8180    magn:    0.0001    constr:    0.0000
     atom:   40    charge:    1.7109    magn:    0.0003    constr:    0.0000
     atom:   41    charge:    1.7204    magn:    0.0012    constr:    0.0000
     atom:   42    charge:    1.7145    magn:    0.0001    constr:    0.0000
     atom:   43    charge:    1.7168    magn:    0.0005    constr:    0.0000
     atom:   44    charge:    1.7154    magn:   -0.0002    constr:    0.0000
     atom:   45    charge:    1.7212    magn:    0.0022    constr:    0.0000
     atom:   46    charge:    1.7154    magn:   -0.0002    constr:    0.0000
     atom:   47    charge:    1.7168    magn:    0.0004    constr:    0.0000
     atom:   48    charge:    1.7152    magn:   -0.0002    constr:    0.0000
     atom:   49    charge:    1.7116    magn:   -0.0002    constr:    0.0000
     atom:   50    charge:    1.7174    magn:    0.0001    constr:    0.0000
     atom:   51    charge:    1.7117    magn:    0.0000    constr:    0.0000
     atom:   52    charge:    1.7150    magn:   -0.0001    constr:    0.0000

[...]

     total energy              =    -951.88895702 Ry
     Harris-Foulkes estimate   =    -951.88895759 Ry
     estimated scf accuracy    <       0.00001446 Ry

[...]

     iteration #178     ecut=    70.00 Ry     beta= 0.70
     Davidson diagonalization with overlap
     ethr =  1.51E-09,  avg # of iterations =  2.0

     negative rho (up, down):  1.155E-03 5.533E-05

     Magnetic moment per site:
     atom:    1    charge:    0.2106    magn:    0.0000    constr:    0.0000
     atom:    2    charge:    0.2107    magn:   -0.0000    constr:    0.0000
     atom:    3    charge:    1.7155    magn:    0.0000    constr:    0.0000
     atom:    4    charge:    1.7152    magn:   -0.0000    constr:    0.0000
     atom:    5    charge:    1.7168    magn:    0.0000    constr:    0.0000
     atom:    6    charge:    1.7146    magn:   -0.0000    constr:    0.0000
     atom:    7    charge:    1.7168    magn:    0.0000    constr:    0.0000
     atom:    8    charge:    1.7152    magn:   -0.0000    constr:    0.0000
     atom:    9    charge:    1.7155    magn:    0.0000    constr:    0.0000
     atom:   10    charge:    1.7177    magn:   -0.0000    constr:    0.0000
     atom:   11    charge:    1.7156    magn:    0.0000    constr:    0.0000
     atom:   12    charge:    1.7177    magn:   -0.0000    constr:    0.0000
     atom:   13    charge:    1.7155    magn:    0.0000    constr:    0.0000
     atom:   14    charge:    1.7175    magn:   -0.0000    constr:    0.0000
     atom:   15    charge:    1.7117    magn:    0.0000    constr:    0.0000
     atom:   16    charge:    1.7114    magn:   -0.0000    constr:    0.0000
     atom:   17    charge:    1.7206    magn:    0.0000    constr:    0.0000
     atom:   18    charge:    1.7114    magn:   -0.0000    constr:    0.0000
     atom:   19    charge:    1.7118    magn:    0.0000    constr:    0.0000
     atom:   20    charge:    1.7176    magn:   -0.0000    constr:    0.0000
     atom:   21    charge:    1.7156    magn:    0.0000    constr:    0.0000
     atom:   22    charge:    1.7177    magn:   -0.0000    constr:    0.0000
     atom:   23    charge:    1.7155    magn:    0.0000    constr:    0.0000
     atom:   24    charge:    1.7152    magn:   -0.0000    constr:    0.0000
     atom:   25    charge:    1.7117    magn:    0.0000    constr:    0.0000
     atom:   26    charge:    1.7112    magn:   -0.0000    constr:    0.0000
     atom:   27    charge:    1.8182    magn:    0.0000    constr:    0.0000
     atom:   28    charge:   13.4051    magn:   -0.0000    constr:    0.0000
     atom:   29    charge:    1.8183    magn:    0.0000    constr:    0.0000
     atom:   30    charge:    1.7114    magn:   -0.0000    constr:    0.0000
     atom:   31    charge:    1.7118    magn:    0.0000    constr:    0.0000
     atom:   32    charge:    1.7152    magn:   -0.0000    constr:    0.0000
     atom:   33    charge:    1.7168    magn:    0.0000    constr:    0.0000
     atom:   34    charge:    1.7154    magn:   -0.0000    constr:    0.0000
     atom:   35    charge:    1.7168    magn:    0.0000    constr:    0.0000
     atom:   36    charge:    1.7146    magn:   -0.0000    constr:    0.0000
     atom:   37    charge:    1.7204    magn:    0.0000    constr:    0.0000
     atom:   38    charge:    1.7113    magn:    0.0000    constr:    0.0000
     atom:   39    charge:    1.8183    magn:   -0.0000    constr:    0.0000
     atom:   40    charge:    1.7114    magn:   -0.0000    constr:    0.0000
     atom:   41    charge:    1.7206    magn:    0.0000    constr:    0.0000
     atom:   42    charge:    1.7146    magn:   -0.0000    constr:    0.0000
     atom:   43    charge:    1.7168    magn:    0.0000    constr:    0.0000
     atom:   44    charge:    1.7154    magn:   -0.0000    constr:    0.0000
     atom:   45    charge:    1.7212    magn:    0.0000    constr:    0.0000
     atom:   46    charge:    1.7154    magn:   -0.0000    constr:    0.0000
     atom:   47    charge:    1.7168    magn:    0.0000    constr:    0.0000
     atom:   48    charge:    1.7152    magn:   -0.0000    constr:    0.0000
     atom:   49    charge:    1.7118    magn:    0.0000    constr:    0.0000
     atom:   50    charge:    1.7176    magn:   -0.0000    constr:    0.0000
     atom:   51    charge:    1.7118    magn:    0.0000    constr:    0.0000
     atom:   52    charge:    1.7152    magn:   -0.0000    constr:    0.0000

     End of self-consistent calculation

 ------ SPIN UP ------------

          k = 0.0000 0.0000 0.0000 ( 87777 PWs)   bands (ev):

  -107.8999 -69.0698 -69.0682 -66.9827 -19.8181 -18.9986 -18.9973 -18.8814
   -18.8807 -18.7964 -18.7261 -17.1547 -17.1538 -17.1203 -17.0708 -17.0705
   -16.7453 -16.3039 -16.3032 -16.1578 -16.1575 -16.1446 -15.6608 -14.3011
   -14.3003 -14.1412 -14.0089 -14.0087 -13.5061 -13.1204 -13.1203 -13.0689
   -12.8923 -12.8922 -12.4918 -12.0663 -12.0660 -11.7040 -11.5596 -11.5596
   -10.9249 -10.4207 -10.4203  -9.5671  -9.3572  -9.3569  -9.2189  -9.2039
    -9.2038  -9.1892  -8.9439  -8.9437  -8.5842  -8.5838  -8.4465  -7.9462
    -7.8932  -7.8439  -7.8306  -7.6551  -7.5331  -7.5328  -7.4396  -7.4394
    -6.8527  -6.8370  -6.8148  -6.7977  -6.7379  -6.6105  -6.6104  -6.5477
    -6.5430  -6.5426  -6.5091  -6.4527  -6.4151  -6.3955  -6.3402  -6.2796
    -6.2794  -5.5386  -5.5385  -5.0221  -4.9418  -4.8341  -4.8338  -4.7505
    -4.7087  -4.7053  -4.4165  -4.3910  -4.3881  -3.8289  -3.8272  -3.7576
    -3.7511  -3.7508  -3.6972  -3.4108  -3.4076  -3.3391  -1.8839  -1.7994
    -1.7990  -1.5818  -1.5804  -1.1505   0.1214   0.1236   0.9118   0.9698
     0.9703   1.2208   1.2214   1.5580   2.5037   2.8106   2.8109   2.8606
     3.0485   3.0493   3.4046   3.5006   3.6191   3.7320   3.7361   3.7632
     3.9341   4.2681

     occupation numbers
     1.0000   1.0000   1.0000   1.0000   1.0000   1.0000   1.0000   1.0000
     1.0000   1.0000   1.0000   1.0000   1.0000   1.0000   1.0000   1.0000
     1.0000   1.0000   1.0000   1.0000   1.0000   1.0000   1.0000   1.0000
     1.0000   1.0000   1.0000   1.0000   1.0000   1.0000   1.0000   1.0000
     1.0000   1.0000   1.0000   1.0000   1.0000   1.0000   1.0000   1.0000
     1.0000   1.0000   1.0000   1.0000   1.0000   1.0000   1.0000   1.0000
     1.0000   1.0000   1.0000   1.0000   1.0000   1.0000   1.0000   1.0000
     1.0000   1.0000   1.0000   1.0000   1.0000   1.0000   1.0000   1.0000
     1.0000   1.0000   1.0000   1.0000   1.0000   1.0000   1.0000   1.0000
     1.0000   1.0000   1.0000   1.0000   1.0000   1.0000   1.0000   1.0000
     1.0000   1.0000   1.0000   1.0000   1.0000   1.0000   1.0000   1.0000
     1.0000   1.0000   1.0000   1.0000   1.0000   1.0000   1.0000   1.0000
     1.0000   1.0000   1.0000   1.0000   1.0000   1.0000   1.0000   1.0000
     1.0000   1.0000   1.0000   1.0000   0.0000   0.0000   0.0000   0.0000
     0.0000   0.0000   0.0000   0.0000   0.0000   0.0000   0.0000   0.0000
     0.0000   0.0000   0.0000   0.0000   0.0000   0.0000   0.0000   0.0000
     0.0000   0.0000

 ------ SPIN DOWN ----------

          k = 0.0000 0.0000 0.0000 ( 87777 PWs)   bands (ev):

  -107.8999 -69.0698 -69.0682 -66.9827 -19.8181 -18.9986 -18.9973 -18.8814
   -18.8807 -18.7964 -18.7261 -17.1547 -17.1538 -17.1203 -17.0708 -17.0705
   -16.7453 -16.3039 -16.3032 -16.1578 -16.1575 -16.1446 -15.6608 -14.3011
   -14.3003 -14.1412 -14.0089 -14.0087 -13.5061 -13.1204 -13.1203 -13.0689
   -12.8923 -12.8922 -12.4918 -12.0663 -12.0660 -11.7040 -11.5596 -11.5596
   -10.9249 -10.4208 -10.4203  -9.5671  -9.3572  -9.3569  -9.2189  -9.2039
    -9.2038  -9.1892  -8.9439  -8.9437  -8.5842  -8.5838  -8.4465  -7.9462
    -7.8932  -7.8439  -7.8306  -7.6551  -7.5331  -7.5328  -7.4396  -7.4394
    -6.8527  -6.8370  -6.8148  -6.7977  -6.7379  -6.6105  -6.6104  -6.5477
    -6.5430  -6.5426  -6.5091  -6.4527  -6.4151  -6.3955  -6.3402  -6.2796
    -6.2794  -5.5386  -5.5385  -5.0221  -4.9418  -4.8341  -4.8338  -4.7505
    -4.7087  -4.7053  -4.4165  -4.3910  -4.3881  -3.8289  -3.8272  -3.7576
    -3.7511  -3.7508  -3.6972  -3.4108  -3.4076  -3.3391  -1.8839  -1.7994
    -1.7990  -1.5818  -1.5804  -1.1505   0.1214   0.1236   0.9118   0.9698
     0.9703   1.2208   1.2214   1.5580   2.5037   2.8106   2.8109   2.8606
     3.0485   3.0493   3.4046   3.5006   3.6192   3.7320   3.7362   3.7631
     3.9342   4.2681

     occupation numbers
     1.0000   1.0000   1.0000   1.0000   1.0000   1.0000   1.0000   1.0000
     1.0000   1.0000   1.0000   1.0000   1.0000   1.0000   1.0000   1.0000
     1.0000   1.0000   1.0000   1.0000   1.0000   1.0000   1.0000   1.0000
     1.0000   1.0000   1.0000   1.0000   1.0000   1.0000   1.0000   1.0000
     1.0000   1.0000   1.0000   1.0000   1.0000   1.0000   1.0000   1.0000
     1.0000   1.0000   1.0000   1.0000   1.0000   1.0000   1.0000   1.0000
     1.0000   1.0000   1.0000   1.0000   1.0000   1.0000   1.0000   1.0000
     1.0000   1.0000   1.0000   1.0000   1.0000   1.0000   1.0000   1.0000
     1.0000   1.0000   1.0000   1.0000   1.0000   1.0000   1.0000   1.0000
     1.0000   1.0000   1.0000   1.0000   1.0000   1.0000   1.0000   1.0000
     1.0000   1.0000   1.0000   1.0000   1.0000   1.0000   1.0000   1.0000
     1.0000   1.0000   1.0000   1.0000   1.0000   1.0000   1.0000   1.0000
     1.0000   1.0000   1.0000   1.0000   1.0000   1.0000   1.0000   1.0000
     1.0000   1.0000   1.0000   1.0000   0.0000   0.0000   0.0000   0.0000
     0.0000   0.0000   0.0000   0.0000   0.0000   0.0000   0.0000   0.0000
     0.0000   0.0000   0.0000   0.0000   0.0000   0.0000   0.0000   0.0000
     0.0000   0.0000

     the Fermi energy is    -0.9651 ev

!    total energy              =    -951.88895765 Ry
     Harris-Foulkes estimate   =    -951.88895724 Ry
     estimated scf accuracy    <       0.00000037 Ry

     The total energy is the sum of the following terms:

     one-electron contribution =   -2979.23090755 Ry
     hartree contribution      =    1532.33063609 Ry
     xc contribution           =    -265.72327370 Ry
     ewald contribution        =     760.73458751 Ry
     smearing contrib. (-TS)   =       0.00000000 Ry

     total magnetization       =     0.00 Bohr mag/cell
     absolute magnetization    =     0.00 Bohr mag/cell

     convergence has been achieved in 178 iterations

     Writing output data file cobre-sixhollow-distance-3.0.save/

     General routines

     Parallel routines

   This run was terminated on:  10:56: 3   3Jan2023

   JOB DONE.