     Program PWSCF v.6.4.1 starts on 13Nov2022 at 16: 5:55

     R & G space division:  proc/nbgrp/npool/nimage =       6
     Reading input from distance-3.0.in

     Current dimensions of program PWSCF are:
     Max number of different atomic species (ntypx) = 10
     Max number of k-points (npk) =  40000
     Max angular momentum in pseudopotentials (lmaxx) =  3

     IMPORTANT: XC functional enforced from input :
     Exchange-correlation      = RVV10 ( 1  4 13  4 3 0)
     Any further DFT definition will be discarded
     Please, verify this is what you really want

               file H.pbe-rrkjus.UPF: wavefunction(s)  1S renormalized

     Subspace diagonalization in iterative solution of the eigenvalue problem:
     a serial algorithm will be used

     bravais-lattice index     =            4
     lattice parameter (alat)  =      23.2937  a.u.
     unit-cell volume          =    8879.8548 (a.u.)^3
     number of atoms/cell      =           52
     number of atomic types    =            3
     number of electrons       =       214.00
     number of Kohn-Sham states=          128
     kinetic-energy cutoff     =      70.0000  Ry
     charge density cutoff     =     490.0000  Ry
     convergence threshold     =      1.0E-06
     mixing beta               =       0.3000
     number of iterations used =            4  plain     mixing
     Exchange-correlation      = RVV10 ( 1  4 13  4 3 0)

     celldm(1)=  23.293684  celldm(2)=   0.000000  celldm(3)=   0.811261
     celldm(4)=   0.000000  celldm(5)=   0.000000  celldm(6)=   0.000000

     crystal axes: (cart. coord. in units of alat)
               a(1) = (   1.000000   0.000000   0.000000 )
               a(2) = (  -0.500000   0.866025   0.000000 )
               a(3) = (   0.000000   0.000000   0.811261 )

     reciprocal axes: (cart. coord. in units 2 pi/alat)
               b(1) = (  1.000000  0.577350 -0.000000 )
               b(2) = (  0.000000  1.154701  0.000000 )
               b(3) = (  0.000000 -0.000000  1.232649 )

     PseudoPot. # 1 for H  read from file:
     /home/cristian/Escritorio/Proyecto_Grafeno/pseudopotenciales/H.pbe-rrkjus.UPF
     MD5 check sum: 7cc9d459525c9a0585f487a71c3c9563
     Pseudo is Ultrasoft, Zval =  1.0
     Generated by new atomic code, or converted to UPF format
     Using radial grid of 1061 points,  2 beta functions with:
                l(1) =   0
                l(2) =   0
     Q(r) pseudized with 0 coefficients

     PseudoPot. # 2 for C  read from file:
     /home/cristian/Escritorio/Proyecto_Grafeno/pseudopotenciales/C.pbe-n-rrkjus_psl.1.0.0.UPF
     MD5 check sum: 1fdd950c42eb37d8afe3dd2f8d12311e
     Pseudo is Ultrasoft + core correction, Zval =  4.0
     Generated using "atomic" code by A. Dal Corso v.6.3MaX
     Using radial grid of 1073 points,  4 beta functions with:
                l(1) =   0
                l(2) =   0
                l(3) =   1
                l(4) =   1
     Q(r) pseudized with 0 coefficients

     PseudoPot. # 3 for Fe read from file:
     /home/cristian/Escritorio/Proyecto_Grafeno/pseudopotenciales/Fe.pbe-spn-rrkjus_psl.1.0.0.UPF
     MD5 check sum: 72ea77fed8e64ab3a2ccf2804dfc1862
     Pseudo is Ultrasoft + core correction, Zval = 16.0
     Generated using "atomic" code by A. Dal Corso v.6.3
     Using radial grid of 1191 points,  6 beta functions with:
                l(1) =   0
                l(2) =   0
                l(3) =   1
                l(4) =   1
                l(5) =   2
                l(6) =   2
     Q(r) pseudized with 0 coefficients

     vdW kernel table read from file rVV10_kernel_table
     MD5 check sum: b8e2538accc0c0b3206b45ba4daaba6c

     atomic species   valence    mass     pseudopotential
        H              1.00     1.00794     H ( 1.00)
        C              4.00    12.01070     C ( 1.00)
        Fe            16.00    55.84500     Fe( 1.00)

     Starting magnetic structure
     atomic species   magnetization
        H            0.500
        C            0.300
        Fe           0.800

      2 Sym. Ops. (no inversion) found

                                    s                        frac. trans.

      isym =  1     identity

 cryst.   s( 1) = (     1          0          0      )
                  (     0          1          0      )
                  (     0          0          1      )

 cart.    s( 1) = (  1.0000000  0.0000000  0.0000000 )
                  (  0.0000000  1.0000000  0.0000000 )
                  (  0.0000000  0.0000000  1.0000000 )

      isym =  2     inv. 180 deg rotation - cryst. axis [1,1,0]

 cryst.   s( 2) = (     0         -1          0      )
                  (    -1          0          0      )
                  (     0          0          1      )

 cart.    s( 2) = (  0.5000000 -0.8660254  0.0000000 )
                  ( -0.8660254 -0.5000000  0.0000000 )
                  (  0.0000000  0.0000000  1.0000000 )

     point group C_s (m)
     there are  2 classes
     the character table:

       E     s
A'     1.00  1.00
A''    1.00 -1.00

     the symmetry operations in each class and the name of the first element:

     E        1
          identity
     s        2
          inv. 180 deg rotation - cryst. axis [1,1,0]

   Cartesian axes

     site n.     atom                  positions (alat units)
         1           H   tau(   1) = (   0.3000000   0.4041452   0.2433783  )
         2           H   tau(   2) = (   0.3000000   0.4041452   0.3043910  )
         3           C   tau(   3) = (   0.0000000   0.0000000   0.0000000  )
         4           C   tau(   4) = (   0.0000000   0.1154701   0.0000000  )
         5           C   tau(   5) = (  -0.1000000   0.1732051   0.0000000  )
         6           C   tau(   6) = (  -0.1000000   0.2886751   0.0000000  )
         7           C   tau(   7) = (  -0.2000000   0.3464102   0.0000000  )
         8           C   tau(   8) = (  -0.2000000   0.4618802   0.0000000  )
         9           C   tau(   9) = (  -0.3000000   0.5196152   0.0000000  )
        10           C   tau(  10) = (  -0.3000000   0.6350853   0.0000000  )
        11           C   tau(  11) = (  -0.4000000   0.6928203   0.0000000  )
        12           C   tau(  12) = (  -0.4000000   0.8082904   0.0000000  )
        13           C   tau(  13) = (   0.2000000   0.0000000   0.0000000  )
        14           C   tau(  14) = (   0.2000000   0.1154701   0.0000000  )
        15           C   tau(  15) = (   0.1000000   0.1732051   0.0000000  )
        16           C   tau(  16) = (   0.1000000   0.2886751   0.0000000  )
        17           C   tau(  17) = (   0.0000000   0.3464102   0.0000000  )
        18           C   tau(  18) = (   0.0000000   0.4618802   0.0000000  )
        19           C   tau(  19) = (  -0.1000000   0.5196152   0.0000000  )
        20           C   tau(  20) = (  -0.1000000   0.6350853   0.0000000  )
        21           C   tau(  21) = (  -0.2000000   0.6928203   0.0000000  )
        22           C   tau(  22) = (  -0.2000000   0.8082904   0.0000000  )
        23           C   tau(  23) = (   0.4000000   0.0000000   0.0000000  )
        24           C   tau(  24) = (   0.4000000   0.1154701   0.0000000  )
        25           C   tau(  25) = (   0.3000000   0.1732051   0.0000000  )
        26           C   tau(  26) = (   0.3000000   0.2886751   0.0000000  )
        27           C   tau(  27) = (   0.2000000   0.3464102   0.0000000  )
        28           Fe  tau(  28) = (   0.2000000   0.4618802   0.0000000  )
        29           C   tau(  29) = (   0.1000000   0.5196152   0.0000000  )
        30           C   tau(  30) = (   0.1000000   0.6350853   0.0000000  )
        31           C   tau(  31) = (   0.0000000   0.6928203   0.0000000  )
        32           C   tau(  32) = (   0.0000000   0.8082904   0.0000000  )
        33           C   tau(  33) = (   0.6000000   0.0000000   0.0000000  )
        34           C   tau(  34) = (   0.6000000   0.1154701   0.0000000  )
        35           C   tau(  35) = (   0.5000000   0.1732051   0.0000000  )
        36           C   tau(  36) = (   0.5000000   0.2886751   0.0000000  )
        37           C   tau(  37) = (   0.4000000   0.3464102   0.0000000  )
        38           C   tau(  38) = (   0.4000000   0.4618802   0.0000000  )
        39           C   tau(  39) = (   0.3000000   0.5196152   0.0000000  )
        40           C   tau(  40) = (   0.3000000   0.6350853   0.0000000  )
        41           C   tau(  41) = (   0.2000000   0.6928203   0.0000000  )
        42           C   tau(  42) = (   0.2000000   0.8082904   0.0000000  )
        43           C   tau(  43) = (   0.8000000   0.0000000   0.0000000  )
        44           C   tau(  44) = (   0.8000000   0.1154701   0.0000000  )
        45           C   tau(  45) = (   0.7000000   0.1732051   0.0000000  )
        46           C   tau(  46) = (   0.7000000   0.2886751   0.0000000  )
        47           C   tau(  47) = (   0.6000000   0.3464102   0.0000000  )
        48           C   tau(  48) = (   0.6000000   0.4618802   0.0000000  )
        49           C   tau(  49) = (   0.5000000   0.5196152   0.0000000  )
        50           C   tau(  50) = (   0.5000000   0.6350853   0.0000000  )
        51           C   tau(  51) = (   0.4000000   0.6928203   0.0000000  )
        52           C   tau(  52) = (   0.4000000   0.8082904   0.0000000  )

   Crystallographic axes

     site n.     atom                  positions (cryst. coord.)
         1           H   tau(   1) = (  0.5333333  0.4666667  0.3000000  )
         2           H   tau(   2) = (  0.5333333  0.4666667  0.3752072  )
         3           C   tau(   3) = (  0.0000000  0.0000000  0.0000000  )
         4           C   tau(   4) = (  0.0666667  0.1333333  0.0000000  )
         5           C   tau(   5) = (  0.0000000  0.2000000  0.0000000  )
         6           C   tau(   6) = (  0.0666667  0.3333333  0.0000000  )
         7           C   tau(   7) = (  0.0000000  0.4000000  0.0000000  )
         8           C   tau(   8) = (  0.0666667  0.5333333  0.0000000  )
         9           C   tau(   9) = (  0.0000000  0.6000000  0.0000000  )
        10           C   tau(  10) = (  0.0666667  0.7333333  0.0000000  )
        11           C   tau(  11) = (  0.0000000  0.8000000  0.0000000  )
        12           C   tau(  12) = (  0.0666667  0.9333333  0.0000000  )
        13           C   tau(  13) = (  0.2000000  0.0000000  0.0000000  )
        14           C   tau(  14) = (  0.2666667  0.1333333  0.0000000  )
        15           C   tau(  15) = (  0.2000000  0.2000000  0.0000000  )
        16           C   tau(  16) = (  0.2666667  0.3333333  0.0000000  )
        17           C   tau(  17) = (  0.2000000  0.4000000  0.0000000  )
        18           C   tau(  18) = (  0.2666667  0.5333333  0.0000000  )
        19           C   tau(  19) = (  0.2000000  0.6000000  0.0000000  )
        20           C   tau(  20) = (  0.2666667  0.7333333  0.0000000  )
        21           C   tau(  21) = (  0.2000000  0.8000000  0.0000000  )
        22           C   tau(  22) = (  0.2666667  0.9333333  0.0000000  )
        23           C   tau(  23) = (  0.4000000  0.0000000  0.0000000  )
        24           C   tau(  24) = (  0.4666667  0.1333333  0.0000000  )
        25           C   tau(  25) = (  0.4000000  0.2000000  0.0000000  )
        26           C   tau(  26) = (  0.4666667  0.3333333  0.0000000  )
        27           C   tau(  27) = (  0.4000000  0.4000000  0.0000000  )
        28           Fe  tau(  28) = (  0.4666667  0.5333333  0.0000000  )
        29           C   tau(  29) = (  0.4000000  0.6000000  0.0000000  )
        30           C   tau(  30) = (  0.4666667  0.7333333  0.0000000  )
        31           C   tau(  31) = (  0.4000000  0.8000000  0.0000000  )
        32           C   tau(  32) = (  0.4666667  0.9333333  0.0000000  )
        33           C   tau(  33) = (  0.6000000  0.0000000  0.0000000  )
        34           C   tau(  34) = (  0.6666667  0.1333333  0.0000000  )
        35           C   tau(  35) = (  0.6000000  0.2000000  0.0000000  )
        36           C   tau(  36) = (  0.6666667  0.3333333  0.0000000  )
        37           C   tau(  37) = (  0.6000000  0.4000000  0.0000000  )
        38           C   tau(  38) = (  0.6666667  0.5333333  0.0000000  )
        39           C   tau(  39) = (  0.6000000  0.6000000  0.0000000  )
        40           C   tau(  40) = (  0.6666667  0.7333333  0.0000000  )
        41           C   tau(  41) = (  0.6000000  0.8000000  0.0000000  )
        42           C   tau(  42) = (  0.6666667  0.9333333  0.0000000  )
        43           C   tau(  43) = (  0.8000000  0.0000000  0.0000000  )
        44           C   tau(  44) = (  0.8666667  0.1333333  0.0000000  )
        45           C   tau(  45) = (  0.8000000  0.2000000  0.0000000  )
        46           C   tau(  46) = (  0.8666667  0.3333333  0.0000000  )
        47           C   tau(  47) = (  0.8000000  0.4000000  0.0000000  )
        48           C   tau(  48) = (  0.8666667  0.5333333  0.0000000  )
        49           C   tau(  49) = (  0.8000000  0.6000000  0.0000000  )
        50           C   tau(  50) = (  0.8666667  0.7333333  0.0000000  )
        51           C   tau(  51) = (  0.8000000  0.8000000  0.0000000  )
        52           C   tau(  52) = (  0.8666667  0.9333333  0.0000000  )

     number of k points=     1  Marzari-Vanderbilt smearing, width (Ry)=  0.0010
                       cart. coord. in units 2pi/alat
        k(    1) = (   0.0000000   0.0000000   0.0000000), wk =   1.0000000

                       cryst. coord.
        k(    1) = (   0.0000000   0.0000000   0.0000000), wk =   1.0000000

     Check: negative core charge=   -0.000002

     Initial potential from superposition of free atoms

     starting charge  213.80512, renormalised to  214.00000

     negative rho (up, down):  5.956E-05 1.028E-02

Carrying out rVV10 run using the following parameters:
Nqs =      20    Nr_points =    1024   r_max =   100.000
b_value =  6.30000    beta =  0.00901
     q_mesh =  0.00010000  0.00030000  0.00058939  0.00100810
               0.00161396  0.00249058  0.00375900  0.00559430
               0.00824984  0.01209221  0.01765183  0.02569619
               0.03733578  0.05417739  0.07854596  0.11380545
               0.16482331  0.23864234  0.34545298  0.50000000

Gradients computed in Reciprocal space

     Starting wfcs are  208 randomized atomic wfcs

     Self-consistent Calculation

     iteration #  1     ecut=    70.00 Ry     beta= 0.30
     Davidson diagonalization with overlap
     ethr =  1.00E-02,  avg # of iterations =  2.5

[...]

     total energy              =    -858.07295415 Ry
     Harris-Foulkes estimate   =    -858.62457990 Ry
     estimated scf accuracy    <      10.12367632 Ry

     total magnetization       =     6.00 Bohr mag/cell
     absolute magnetization    =     6.66 Bohr mag/cell

[...]

     total energy              =    -860.05645928 Ry
     Harris-Foulkes estimate   =    -860.05645840 Ry
     estimated scf accuracy    <       0.00000227 Ry

[...]

     iteration # 87     ecut=    70.00 Ry     beta= 0.30
     Davidson diagonalization with overlap
     ethr =  6.36E-10,  avg # of iterations =  1.5

     negative rho (up, down):  5.634E-04 1.064E-02

     Magnetic moment per site:
     atom:    1    charge:    0.2107    magn:    0.0000    constr:    0.0000
     atom:    2    charge:    0.2117    magn:    0.0000    constr:    0.0000
     atom:    3    charge:    1.7168    magn:   -0.0121    constr:    0.0000
     atom:    4    charge:    1.7155    magn:    0.0160    constr:    0.0000
     atom:    5    charge:    1.7175    magn:   -0.0089    constr:    0.0000
     atom:    6    charge:    1.7142    magn:    0.0056    constr:    0.0000
     atom:    7    charge:    1.7176    magn:   -0.0090    constr:    0.0000
     atom:    8    charge:    1.7152    magn:    0.0178    constr:    0.0000
     atom:    9    charge:    1.7171    magn:   -0.0126    constr:    0.0000
     atom:   10    charge:    1.7149    magn:    0.0568    constr:    0.0000
     atom:   11    charge:    1.7173    magn:   -0.0160    constr:    0.0000
     atom:   12    charge:    1.7158    magn:    0.0505    constr:    0.0000
     atom:   13    charge:    1.7173    magn:   -0.0160    constr:    0.0000
     atom:   14    charge:    1.7156    magn:    0.0441    constr:    0.0000
     atom:   15    charge:    1.7138    magn:   -0.0125    constr:    0.0000
     atom:   16    charge:    1.7115    magn:    0.0499    constr:    0.0000
     atom:   17    charge:    1.7225    magn:   -0.0129    constr:    0.0000
     atom:   18    charge:    1.7116    magn:    0.0483    constr:    0.0000
     atom:   19    charge:    1.7136    magn:   -0.0118    constr:    0.0000
     atom:   20    charge:    1.7162    magn:    0.0389    constr:    0.0000
     atom:   21    charge:    1.7174    magn:   -0.0161    constr:    0.0000
     atom:   22    charge:    1.7149    magn:    0.0568    constr:    0.0000
     atom:   23    charge:    1.7171    magn:   -0.0126    constr:    0.0000
     atom:   24    charge:    1.7154    magn:    0.0169    constr:    0.0000
     atom:   25    charge:    1.7138    magn:   -0.0123    constr:    0.0000
     atom:   26    charge:    1.7109    magn:    0.0548    constr:    0.0000
     atom:   27    charge:    1.8521    magn:   -0.0197    constr:    0.0000
     atom:   28    charge:   11.1454    magn:    0.4787    constr:    0.0000
     atom:   29    charge:    1.8516    magn:   -0.0199    constr:    0.0000
     atom:   30    charge:    1.7116    magn:    0.0483    constr:    0.0000
     atom:   31    charge:    1.7136    magn:   -0.0118    constr:    0.0000
     atom:   32    charge:    1.7152    magn:    0.0178    constr:    0.0000
     atom:   33    charge:    1.7176    magn:   -0.0090    constr:    0.0000
     atom:   34    charge:    1.7140    magn:    0.0126    constr:    0.0000
     atom:   35    charge:    1.7176    magn:   -0.0089    constr:    0.0000
     atom:   36    charge:    1.7142    magn:    0.0056    constr:    0.0000
     atom:   37    charge:    1.7229    magn:   -0.0139    constr:    0.0000
     atom:   38    charge:    1.7109    magn:    0.0548    constr:    0.0000
     atom:   39    charge:    1.8521    magn:   -0.0197    constr:    0.0000
     atom:   40    charge:    1.7115    magn:    0.0499    constr:    0.0000
     atom:   41    charge:    1.7225    magn:   -0.0129    constr:    0.0000
     atom:   42    charge:    1.7142    magn:    0.0056    constr:    0.0000
     atom:   43    charge:    1.7175    magn:   -0.0089    constr:    0.0000
     atom:   44    charge:    1.7141    magn:    0.0116    constr:    0.0000
     atom:   45    charge:    1.7233    magn:   -0.0088    constr:    0.0000
     atom:   46    charge:    1.7140    magn:    0.0126    constr:    0.0000
     atom:   47    charge:    1.7176    magn:   -0.0089    constr:    0.0000
     atom:   48    charge:    1.7154    magn:    0.0169    constr:    0.0000
     atom:   49    charge:    1.7138    magn:   -0.0123    constr:    0.0000
     atom:   50    charge:    1.7156    magn:    0.0441    constr:    0.0000
     atom:   51    charge:    1.7138    magn:   -0.0125    constr:    0.0000
     atom:   52    charge:    1.7155    magn:    0.0160    constr:    0.0000

     End of self-consistent calculation

 ------ SPIN UP ------------

          k = 0.0000 0.0000 0.0000 ( 87777 PWs)   bands (ev):

   -88.8351 -55.7257 -55.6796 -54.0538 -19.8674 -19.0397 -19.0257 -18.9423
   -18.9162 -18.9110 -18.5795 -17.1676 -17.1583 -17.1577 -17.0915 -17.0874
   -16.7821 -16.3165 -16.3141 -16.2105 -16.1655 -16.1654 -15.4826 -14.2291
   -14.2138 -14.1337 -14.0828 -14.0801 -13.4218 -13.1514 -13.1482 -13.1228
   -12.8481 -12.8475 -12.4349 -11.9340 -11.9323 -11.7396 -11.4973 -11.4955
   -10.6227  -9.8007  -9.7974  -9.5218  -9.4039  -9.4028  -9.3177  -9.2870
    -9.2866  -9.2741  -8.8158  -8.8152  -8.2849  -8.2819  -8.1846  -8.0171
    -7.9216  -7.5313  -7.5282  -7.3396  -7.2334  -7.2326  -7.0767  -7.0767
    -6.9243  -6.9068  -6.9042  -6.8014  -6.6534  -6.6467  -6.6241  -6.6217
    -6.6110  -6.6076  -6.5632  -6.2692  -5.7424  -5.7379  -5.7138  -5.6949
    -5.4743  -5.4720  -5.3375  -5.0749  -4.9667  -4.8273  -4.7992  -4.7944
    -4.5501  -4.5451  -4.4848  -4.3297  -4.3198  -3.9584  -3.9581  -3.8699
    -3.7696  -3.7683  -3.2107  -2.9112  -2.9034  -1.9576  -1.8891  -1.8865
    -1.3496  -1.3187  -1.2103  -0.9034   0.8381   0.8835   0.8874   1.3975
     1.4096   1.5203   2.3204   2.3216   2.5357   2.6830   2.6864   2.7808
     3.2953   3.3014   3.4449   3.6462   3.7172   3.7312   3.7406   3.7647

     occupation numbers
     1.0000   1.0000   1.0000   1.0000   1.0000   1.0000   1.0000   1.0000
     1.0000   1.0000   1.0000   1.0000   1.0000   1.0000   1.0000   1.0000
     1.0000   1.0000   1.0000   1.0000   1.0000   1.0000   1.0000   1.0000
     1.0000   1.0000   1.0000   1.0000   1.0000   1.0000   1.0000   1.0000
     1.0000   1.0000   1.0000   1.0000   1.0000   1.0000   1.0000   1.0000
     1.0000   1.0000   1.0000   1.0000   1.0000   1.0000   1.0000   1.0000
     1.0000   1.0000   1.0000   1.0000   1.0000   1.0000   1.0000   1.0000
     1.0000   1.0000   1.0000   1.0000   1.0000   1.0000   1.0000   1.0000
     1.0000   1.0000   1.0000   1.0000   1.0000   1.0000   1.0000   1.0000
     1.0000   1.0000   1.0000   1.0000   1.0000   1.0000   1.0000   1.0000
     1.0000   1.0000   1.0000   1.0000   1.0000   1.0000   1.0000   1.0000
     1.0000   1.0000   1.0000   1.0000   1.0000   1.0000   1.0000   1.0000
     1.0000   1.0000   1.0000   1.0000   1.0000   1.0000   1.0000   1.0000
     1.0000   1.0000   1.0000   0.9732   0.0000   0.0000   0.0000   0.0000
     0.0000   0.0000   0.0000   0.0000   0.0000   0.0000   0.0000   0.0000
     0.0000   0.0000   0.0000   0.0000   0.0000   0.0000   0.0000   0.0000

 ------ SPIN DOWN ----------

          k = 0.0000 0.0000 0.0000 ( 87777 PWs)   bands (ev):

   -88.0745 -55.0916 -55.0783 -53.1037 -19.8293 -18.9948 -18.9831 -18.9067
   -18.8938 -18.8883 -18.5262 -17.1356 -17.1298 -17.1264 -17.0421 -17.0392
   -16.7550 -16.2741 -16.2733 -16.1812 -16.1261 -16.1255 -15.4597 -14.1605
   -14.1514 -14.0780 -14.0736 -14.0700 -13.4319 -13.1272 -13.1253 -13.0939
   -12.8303 -12.8300 -12.4061 -11.8993 -11.8969 -11.7194 -11.4762 -11.4759
   -10.6000  -9.7503  -9.7484  -9.4922  -9.3743  -9.3742  -9.3019  -9.2660
    -9.2654  -9.2583  -8.8038  -8.8032  -8.2481  -8.2450  -8.1637  -7.9290
    -7.9059  -7.5183  -7.5148  -7.3065  -7.0811  -7.0717  -7.0292  -7.0282
    -6.8549  -6.8523  -6.8309  -6.7874  -6.6377  -6.6318  -6.6119  -6.5989
    -6.5958  -6.5470  -6.5294  -6.2417  -5.6902  -5.6875  -5.4800  -5.4757
    -5.4317  -5.4302  -5.2256  -5.0617  -4.9584  -4.7574  -4.7161  -4.7150
    -4.4670  -4.4625  -4.4182  -4.2076  -4.2065  -3.8370  -3.8355  -3.7867
    -3.7558  -3.7545  -3.1707  -2.6869  -2.6823  -1.8642  -1.8617  -1.8130
    -0.9350  -0.9216  -0.8293  -0.8053   0.9260   0.9305   0.9788   1.5488
     1.5498   1.6344   2.4776   2.4818   2.5495   2.8099   2.8139   2.8441
     3.4432   3.4483   3.5334   3.6628   3.7269   3.7423   3.7513   3.7697

     occupation numbers
     1.0000   1.0000   1.0000   1.0000   1.0000   1.0000   1.0000   1.0000
     1.0000   1.0000   1.0000   1.0000   1.0000   1.0000   1.0000   1.0000
     1.0000   1.0000   1.0000   1.0000   1.0000   1.0000   1.0000   1.0000
     1.0000   1.0000   1.0000   1.0000   1.0000   1.0000   1.0000   1.0000
     1.0000   1.0000   1.0000   1.0000   1.0000   1.0000   1.0000   1.0000
     1.0000   1.0000   1.0000   1.0000   1.0000   1.0000   1.0000   1.0000
     1.0000   1.0000   1.0000   1.0000   1.0000   1.0000   1.0000   1.0000
     1.0000   1.0000   1.0000   1.0000   1.0000   1.0000   1.0000   1.0000
     1.0000   1.0000   1.0000   1.0000   1.0000   1.0000   1.0000   1.0000
     1.0000   1.0000   1.0000   1.0000   1.0000   1.0000   1.0000   1.0000
     1.0000   1.0000   1.0000   1.0000   1.0000   1.0000   1.0000   1.0000
     1.0000   1.0000   1.0000   1.0000   1.0000   1.0000   1.0000   1.0000
     1.0000   1.0000   1.0000   1.0000   1.0000   1.0000   1.0000   1.0000
     1.0007   1.0261   0.0000   0.0000   0.0000   0.0000   0.0000   0.0000
     0.0000   0.0000   0.0000   0.0000   0.0000   0.0000   0.0000   0.0000
     0.0000   0.0000   0.0000   0.0000   0.0000   0.0000   0.0000   0.0000

     the Fermi energy is    -0.8918 ev

!    total energy              =    -860.05646062 Ry
     Harris-Foulkes estimate   =    -860.05645931 Ry
     estimated scf accuracy    <       0.00000099 Ry

     The total energy is the sum of the following terms:

     one-electron contribution =   -2790.61789347 Ry
     hartree contribution      =    1439.12363732 Ry
     xc contribution           =    -259.31511465 Ry
     ewald contribution        =     750.75278486 Ry
     smearing contrib. (-TS)   =       0.00012531 Ry

     total magnetization       =     1.95 Bohr mag/cell
     absolute magnetization    =     3.12 Bohr mag/cell

     convergence has been achieved in  87 iterations

     Writing output data file distance-3.0.save/

     General routines

     Parallel routines

   This run was terminated on:  18:32: 6  13Nov2022

   JOB DONE.