     Program PWSCF v.6.4.1 starts on 14Nov2022 at 16:52:56

     R & G space division:  proc/nbgrp/npool/nimage =       6
     Reading input from distance-1.8.in

     Current dimensions of program PWSCF are:
     Max number of different atomic species (ntypx) = 10
     Max number of k-points (npk) =  40000
     Max angular momentum in pseudopotentials (lmaxx) =  3

     IMPORTANT: XC functional enforced from input :
     Exchange-correlation      = RVV10 ( 1  4 13  4 3 0)
     Any further DFT definition will be discarded
     Please, verify this is what you really want

               file H.pbe-rrkjus.UPF: wavefunction(s)  1S renormalized

     Subspace diagonalization in iterative solution of the eigenvalue problem:
     a serial algorithm will be used

     bravais-lattice index     =            4
     lattice parameter (alat)  =      23.2937  a.u.
     unit-cell volume          =    8879.8548 (a.u.)^3
     number of atoms/cell      =           52
     number of atomic types    =            3
     number of electrons       =       214.00
     number of Kohn-Sham states=          128
     kinetic-energy cutoff     =      70.0000  Ry
     charge density cutoff     =     490.0000  Ry
     convergence threshold     =      1.0E-06
     mixing beta               =       0.3000
     number of iterations used =            4  plain     mixing
     Exchange-correlation      = RVV10 ( 1  4 13  4 3 0)

     celldm(1)=  23.293684  celldm(2)=   0.000000  celldm(3)=   0.811261
     celldm(4)=   0.000000  celldm(5)=   0.000000  celldm(6)=   0.000000

     crystal axes: (cart. coord. in units of alat)
               a(1) = (   1.000000   0.000000   0.000000 )
               a(2) = (  -0.500000   0.866025   0.000000 )
               a(3) = (   0.000000   0.000000   0.811261 )

     reciprocal axes: (cart. coord. in units 2 pi/alat)
               b(1) = (  1.000000  0.577350 -0.000000 )
               b(2) = (  0.000000  1.154701  0.000000 )
               b(3) = (  0.000000 -0.000000  1.232649 )

     PseudoPot. # 1 for H  read from file:
     /home/cristian/Escritorio/Proyecto_Grafeno/pseudopotenciales/H.pbe-rrkjus.UPF
     MD5 check sum: 7cc9d459525c9a0585f487a71c3c9563
     Pseudo is Ultrasoft, Zval =  1.0
     Generated by new atomic code, or converted to UPF format
     Using radial grid of 1061 points,  2 beta functions with:
                l(1) =   0
                l(2) =   0
     Q(r) pseudized with 0 coefficients

     PseudoPot. # 2 for C  read from file:
     /home/cristian/Escritorio/Proyecto_Grafeno/pseudopotenciales/C.pbe-n-rrkjus_psl.1.0.0.UPF
     MD5 check sum: 1fdd950c42eb37d8afe3dd2f8d12311e
     Pseudo is Ultrasoft + core correction, Zval =  4.0
     Generated using "atomic" code by A. Dal Corso v.6.3MaX
     Using radial grid of 1073 points,  4 beta functions with:
                l(1) =   0
                l(2) =   0
                l(3) =   1
                l(4) =   1
     Q(r) pseudized with 0 coefficients

     PseudoPot. # 3 for Fe read from file:
     /home/cristian/Escritorio/Proyecto_Grafeno/pseudopotenciales/Fe.pbe-spn-rrkjus_psl.1.0.0.UPF
     MD5 check sum: 72ea77fed8e64ab3a2ccf2804dfc1862
     Pseudo is Ultrasoft + core correction, Zval = 16.0
     Generated using "atomic" code by A. Dal Corso v.6.3
     Using radial grid of 1191 points,  6 beta functions with:
                l(1) =   0
                l(2) =   0
                l(3) =   1
                l(4) =   1
                l(5) =   2
                l(6) =   2
     Q(r) pseudized with 0 coefficients

     vdW kernel table read from file rVV10_kernel_table
     MD5 check sum: b8e2538accc0c0b3206b45ba4daaba6c

     atomic species   valence    mass     pseudopotential
        H              1.00     1.00794     H ( 1.00)
        C              4.00    12.01070     C ( 1.00)
        Fe            16.00    55.84500     Fe( 1.00)

     Starting magnetic structure
     atomic species   magnetization
        H            0.500
        C            0.300
        Fe           0.800

      2 Sym. Ops. (no inversion) found

                                    s                        frac. trans.

      isym =  1     identity

 cryst.   s( 1) = (     1          0          0      )
                  (     0          1          0      )
                  (     0          0          1      )

 cart.    s( 1) = (  1.0000000  0.0000000  0.0000000 )
                  (  0.0000000  1.0000000  0.0000000 )
                  (  0.0000000  0.0000000  1.0000000 )

      isym =  2     inv. 180 deg rotation - cryst. axis [1,1,0]

 cryst.   s( 2) = (     0         -1          0      )
                  (    -1          0          0      )
                  (     0          0          1      )

 cart.    s( 2) = (  0.5000000 -0.8660254  0.0000000 )
                  ( -0.8660254 -0.5000000  0.0000000 )
                  (  0.0000000  0.0000000  1.0000000 )

     point group C_s (m)
     there are  2 classes
     the character table:

       E     s
A'     1.00  1.00
A''    1.00 -1.00

     the symmetry operations in each class and the name of the first element:

     E        1
          identity
     s        2
          inv. 180 deg rotation - cryst. axis [1,1,0]

   Cartesian axes

     site n.     atom                  positions (alat units)
         1           H   tau(   1) = (   0.3000000   0.4041452   0.1460270  )
         2           H   tau(   2) = (   0.3000000   0.4041452   0.2070397  )
         3           C   tau(   3) = (   0.0000000   0.0000000   0.0000000  )
         4           C   tau(   4) = (   0.0000000   0.1154701   0.0000000  )
         5           C   tau(   5) = (  -0.1000000   0.1732051   0.0000000  )
         6           C   tau(   6) = (  -0.1000000   0.2886751   0.0000000  )
         7           C   tau(   7) = (  -0.2000000   0.3464102   0.0000000  )
         8           C   tau(   8) = (  -0.2000000   0.4618802   0.0000000  )
         9           C   tau(   9) = (  -0.3000000   0.5196152   0.0000000  )
        10           C   tau(  10) = (  -0.3000000   0.6350853   0.0000000  )
        11           C   tau(  11) = (  -0.4000000   0.6928203   0.0000000  )
        12           C   tau(  12) = (  -0.4000000   0.8082904   0.0000000  )
        13           C   tau(  13) = (   0.2000000   0.0000000   0.0000000  )
        14           C   tau(  14) = (   0.2000000   0.1154701   0.0000000  )
        15           C   tau(  15) = (   0.1000000   0.1732051   0.0000000  )
        16           C   tau(  16) = (   0.1000000   0.2886751   0.0000000  )
        17           C   tau(  17) = (   0.0000000   0.3464102   0.0000000  )
        18           C   tau(  18) = (   0.0000000   0.4618802   0.0000000  )
        19           C   tau(  19) = (  -0.1000000   0.5196152   0.0000000  )
        20           C   tau(  20) = (  -0.1000000   0.6350853   0.0000000  )
        21           C   tau(  21) = (  -0.2000000   0.6928203   0.0000000  )
        22           C   tau(  22) = (  -0.2000000   0.8082904   0.0000000  )
        23           C   tau(  23) = (   0.4000000   0.0000000   0.0000000  )
        24           C   tau(  24) = (   0.4000000   0.1154701   0.0000000  )
        25           C   tau(  25) = (   0.3000000   0.1732051   0.0000000  )
        26           C   tau(  26) = (   0.3000000   0.2886751   0.0000000  )
        27           C   tau(  27) = (   0.2000000   0.3464102   0.0000000  )
        28           Fe  tau(  28) = (   0.2000000   0.4618802   0.0000000  )
        29           C   tau(  29) = (   0.1000000   0.5196152   0.0000000  )
        30           C   tau(  30) = (   0.1000000   0.6350853   0.0000000  )
        31           C   tau(  31) = (   0.0000000   0.6928203   0.0000000  )
        32           C   tau(  32) = (   0.0000000   0.8082904   0.0000000  )
        33           C   tau(  33) = (   0.6000000   0.0000000   0.0000000  )
        34           C   tau(  34) = (   0.6000000   0.1154701   0.0000000  )
        35           C   tau(  35) = (   0.5000000   0.1732051   0.0000000  )
        36           C   tau(  36) = (   0.5000000   0.2886751   0.0000000  )
        37           C   tau(  37) = (   0.4000000   0.3464102   0.0000000  )
        38           C   tau(  38) = (   0.4000000   0.4618802   0.0000000  )
        39           C   tau(  39) = (   0.3000000   0.5196152   0.0000000  )
        40           C   tau(  40) = (   0.3000000   0.6350853   0.0000000  )
        41           C   tau(  41) = (   0.2000000   0.6928203   0.0000000  )
        42           C   tau(  42) = (   0.2000000   0.8082904   0.0000000  )
        43           C   tau(  43) = (   0.8000000   0.0000000   0.0000000  )
        44           C   tau(  44) = (   0.8000000   0.1154701   0.0000000  )
        45           C   tau(  45) = (   0.7000000   0.1732051   0.0000000  )
        46           C   tau(  46) = (   0.7000000   0.2886751   0.0000000  )
        47           C   tau(  47) = (   0.6000000   0.3464102   0.0000000  )
        48           C   tau(  48) = (   0.6000000   0.4618802   0.0000000  )
        49           C   tau(  49) = (   0.5000000   0.5196152   0.0000000  )
        50           C   tau(  50) = (   0.5000000   0.6350853   0.0000000  )
        51           C   tau(  51) = (   0.4000000   0.6928203   0.0000000  )
        52           C   tau(  52) = (   0.4000000   0.8082904   0.0000000  )

   Crystallographic axes

     site n.     atom                  positions (cryst. coord.)
         1           H   tau(   1) = (  0.5333333  0.4666667  0.1800000  )
         2           H   tau(   2) = (  0.5333333  0.4666667  0.2552072  )
         3           C   tau(   3) = (  0.0000000  0.0000000  0.0000000  )
         4           C   tau(   4) = (  0.0666667  0.1333333  0.0000000  )
         5           C   tau(   5) = (  0.0000000  0.2000000  0.0000000  )
         6           C   tau(   6) = (  0.0666667  0.3333333  0.0000000  )
         7           C   tau(   7) = (  0.0000000  0.4000000  0.0000000  )
         8           C   tau(   8) = (  0.0666667  0.5333333  0.0000000  )
         9           C   tau(   9) = (  0.0000000  0.6000000  0.0000000  )
        10           C   tau(  10) = (  0.0666667  0.7333333  0.0000000  )
        11           C   tau(  11) = (  0.0000000  0.8000000  0.0000000  )
        12           C   tau(  12) = (  0.0666667  0.9333333  0.0000000  )
        13           C   tau(  13) = (  0.2000000  0.0000000  0.0000000  )
        14           C   tau(  14) = (  0.2666667  0.1333333  0.0000000  )
        15           C   tau(  15) = (  0.2000000  0.2000000  0.0000000  )
        16           C   tau(  16) = (  0.2666667  0.3333333  0.0000000  )
        17           C   tau(  17) = (  0.2000000  0.4000000  0.0000000  )
        18           C   tau(  18) = (  0.2666667  0.5333333  0.0000000  )
        19           C   tau(  19) = (  0.2000000  0.6000000  0.0000000  )
        20           C   tau(  20) = (  0.2666667  0.7333333  0.0000000  )
        21           C   tau(  21) = (  0.2000000  0.8000000  0.0000000  )
        22           C   tau(  22) = (  0.2666667  0.9333333  0.0000000  )
        23           C   tau(  23) = (  0.4000000  0.0000000  0.0000000  )
        24           C   tau(  24) = (  0.4666667  0.1333333  0.0000000  )
        25           C   tau(  25) = (  0.4000000  0.2000000  0.0000000  )
        26           C   tau(  26) = (  0.4666667  0.3333333  0.0000000  )
        27           C   tau(  27) = (  0.4000000  0.4000000  0.0000000  )
        28           Fe  tau(  28) = (  0.4666667  0.5333333  0.0000000  )
        29           C   tau(  29) = (  0.4000000  0.6000000  0.0000000  )
        30           C   tau(  30) = (  0.4666667  0.7333333  0.0000000  )
        31           C   tau(  31) = (  0.4000000  0.8000000  0.0000000  )
        32           C   tau(  32) = (  0.4666667  0.9333333  0.0000000  )
        33           C   tau(  33) = (  0.6000000  0.0000000  0.0000000  )
        34           C   tau(  34) = (  0.6666667  0.1333333  0.0000000  )
        35           C   tau(  35) = (  0.6000000  0.2000000  0.0000000  )
        36           C   tau(  36) = (  0.6666667  0.3333333  0.0000000  )
        37           C   tau(  37) = (  0.6000000  0.4000000  0.0000000  )
        38           C   tau(  38) = (  0.6666667  0.5333333  0.0000000  )
        39           C   tau(  39) = (  0.6000000  0.6000000  0.0000000  )
        40           C   tau(  40) = (  0.6666667  0.7333333  0.0000000  )
        41           C   tau(  41) = (  0.6000000  0.8000000  0.0000000  )
        42           C   tau(  42) = (  0.6666667  0.9333333  0.0000000  )
        43           C   tau(  43) = (  0.8000000  0.0000000  0.0000000  )
        44           C   tau(  44) = (  0.8666667  0.1333333  0.0000000  )
        45           C   tau(  45) = (  0.8000000  0.2000000  0.0000000  )
        46           C   tau(  46) = (  0.8666667  0.3333333  0.0000000  )
        47           C   tau(  47) = (  0.8000000  0.4000000  0.0000000  )
        48           C   tau(  48) = (  0.8666667  0.5333333  0.0000000  )
        49           C   tau(  49) = (  0.8000000  0.6000000  0.0000000  )
        50           C   tau(  50) = (  0.8666667  0.7333333  0.0000000  )
        51           C   tau(  51) = (  0.8000000  0.8000000  0.0000000  )
        52           C   tau(  52) = (  0.8666667  0.9333333  0.0000000  )

     number of k points=     1  Marzari-Vanderbilt smearing, width (Ry)=  0.0010
                       cart. coord. in units 2pi/alat
        k(    1) = (   0.0000000   0.0000000   0.0000000), wk =   1.0000000

                       cryst. coord.
        k(    1) = (   0.0000000   0.0000000   0.0000000), wk =   1.0000000

     Check: negative core charge=   -0.000002

     Initial potential from superposition of free atoms

     starting charge  213.80512, renormalised to  214.00000

     negative rho (up, down):  6.521E-05 1.321E-02

Carrying out rVV10 run using the following parameters:
Nqs =      20    Nr_points =    1024   r_max =   100.000
b_value =  6.30000    beta =  0.00901
     q_mesh =  0.00010000  0.00030000  0.00058939  0.00100810
               0.00161396  0.00249058  0.00375900  0.00559430
               0.00824984  0.01209221  0.01765183  0.02569619
               0.03733578  0.05417739  0.07854596  0.11380545
               0.16482331  0.23864234  0.34545298  0.50000000

Gradients computed in Reciprocal space

     Starting wfcs are  208 randomized atomic wfcs

     Self-consistent Calculation

     iteration #  1     ecut=    70.00 Ry     beta= 0.30
     Davidson diagonalization with overlap
     ethr =  1.00E-02,  avg # of iterations =  2.5

[...]

     total energy              =    -857.82241589 Ry
     Harris-Foulkes estimate   =    -858.72459884 Ry
     estimated scf accuracy    <      10.88317944 Ry

     total magnetization       =     6.00 Bohr mag/cell
     absolute magnetization    =     6.63 Bohr mag/cell

[...]

     total energy              =    -860.02516732 Ry
     Harris-Foulkes estimate   =    -860.02516703 Ry
     estimated scf accuracy    <       0.00000122 Ry

[...]

     iteration # 93     ecut=    70.00 Ry     beta= 0.30
     Davidson diagonalization with overlap
     ethr =  5.70E-10,  avg # of iterations =  2.0

     negative rho (up, down):  6.313E-04 1.647E-02

     Magnetic moment per site:
     atom:    1    charge:    0.2138    magn:    0.0000    constr:    0.0000
     atom:    2    charge:    0.2148    magn:    0.0042    constr:    0.0000
     atom:    3    charge:    1.7161    magn:   -0.0084    constr:    0.0000
     atom:    4    charge:    1.7158    magn:    0.0109    constr:    0.0000
     atom:    5    charge:    1.7172    magn:   -0.0057    constr:    0.0000
     atom:    6    charge:    1.7143    magn:    0.0039    constr:    0.0000
     atom:    7    charge:    1.7176    magn:   -0.0055    constr:    0.0000
     atom:    8    charge:    1.7150    magn:    0.0160    constr:    0.0000
     atom:    9    charge:    1.7170    magn:   -0.0098    constr:    0.0000
     atom:   10    charge:    1.7149    magn:    0.0519    constr:    0.0000
     atom:   11    charge:    1.7167    magn:   -0.0126    constr:    0.0000
     atom:   12    charge:    1.7176    magn:    0.0329    constr:    0.0000
     atom:   13    charge:    1.7167    magn:   -0.0126    constr:    0.0000
     atom:   14    charge:    1.7158    magn:    0.0397    constr:    0.0000
     atom:   15    charge:    1.7134    magn:   -0.0099    constr:    0.0000
     atom:   16    charge:    1.7129    magn:    0.0373    constr:    0.0000
     atom:   17    charge:    1.7217    magn:   -0.0057    constr:    0.0000
     atom:   18    charge:    1.7134    magn:    0.0326    constr:    0.0000
     atom:   19    charge:    1.7129    magn:   -0.0071    constr:    0.0000
     atom:   20    charge:    1.7174    magn:    0.0254    constr:    0.0000
     atom:   21    charge:    1.7171    magn:   -0.0126    constr:    0.0000
     atom:   22    charge:    1.7149    magn:    0.0519    constr:    0.0000
     atom:   23    charge:    1.7170    magn:   -0.0098    constr:    0.0000
     atom:   24    charge:    1.7155    magn:    0.0141    constr:    0.0000
     atom:   25    charge:    1.7133    magn:   -0.0086    constr:    0.0000
     atom:   26    charge:    1.7133    magn:    0.0509    constr:    0.0000
     atom:   27    charge:    1.8544    magn:   -0.0148    constr:    0.0000
     atom:   28    charge:   11.1536    magn:    0.5269    constr:    0.0000
     atom:   29    charge:    1.8508    magn:   -0.0132    constr:    0.0000
     atom:   30    charge:    1.7134    magn:    0.0326    constr:    0.0000
     atom:   31    charge:    1.7129    magn:   -0.0071    constr:    0.0000
     atom:   32    charge:    1.7150    magn:    0.0160    constr:    0.0000
     atom:   33    charge:    1.7176    magn:   -0.0055    constr:    0.0000
     atom:   34    charge:    1.7143    magn:    0.0102    constr:    0.0000
     atom:   35    charge:    1.7174    magn:   -0.0059    constr:    0.0000
     atom:   36    charge:    1.7143    magn:    0.0048    constr:    0.0000
     atom:   37    charge:    1.7237    magn:   -0.0097    constr:    0.0000
     atom:   38    charge:    1.7133    magn:    0.0509    constr:    0.0000
     atom:   39    charge:    1.8544    magn:   -0.0148    constr:    0.0000
     atom:   40    charge:    1.7129    magn:    0.0373    constr:    0.0000
     atom:   41    charge:    1.7217    magn:   -0.0057    constr:    0.0000
     atom:   42    charge:    1.7143    magn:    0.0039    constr:    0.0000
     atom:   43    charge:    1.7172    magn:   -0.0057    constr:    0.0000
     atom:   44    charge:    1.7147    magn:    0.0072    constr:    0.0000
     atom:   45    charge:    1.7228    magn:   -0.0027    constr:    0.0000
     atom:   46    charge:    1.7143    magn:    0.0102    constr:    0.0000
     atom:   47    charge:    1.7174    magn:   -0.0059    constr:    0.0000
     atom:   48    charge:    1.7155    magn:    0.0141    constr:    0.0000
     atom:   49    charge:    1.7133    magn:   -0.0086    constr:    0.0000
     atom:   50    charge:    1.7158    magn:    0.0397    constr:    0.0000
     atom:   51    charge:    1.7134    magn:   -0.0099    constr:    0.0000
     atom:   52    charge:    1.7158    magn:    0.0109    constr:    0.0000

     End of self-consistent calculation

 ------ SPIN UP ------------

          k = 0.0000 0.0000 0.0000 ( 87777 PWs)   bands (ev):

   -89.0884 -55.9893 -55.8450 -54.3999 -19.8299 -19.0097 -18.9792 -18.9004
   -18.8899 -18.8787 -18.5762 -17.1482 -17.1232 -17.1185 -17.0606 -17.0601
   -16.7493 -16.2864 -16.2798 -16.1760 -16.1474 -16.1391 -15.4805 -14.2225
   -14.1745 -14.1041 -14.0463 -14.0374 -13.4117 -13.1227 -13.1194 -13.0875
   -12.8311 -12.8218 -12.4022 -11.9149 -11.9117 -11.7122 -11.4763 -11.4740
   -10.6202  -9.8166  -9.8089  -9.5026  -9.3698  -9.3683  -9.2749  -9.2455
    -9.2446  -9.2348  -8.7953  -8.7892  -8.2873  -8.2748  -8.1929  -8.1039
    -7.8881  -7.6652  -7.4879  -7.4843  -7.3418  -7.2644  -7.0728  -7.0689
    -6.9560  -6.8787  -6.8649  -6.7772  -6.7757  -6.6232  -6.5998  -6.5836
    -6.5785  -6.5679  -6.5313  -6.0665  -5.8164  -5.7457  -5.7438  -5.5602
    -5.4594  -5.4569  -5.4412  -5.0369  -4.9360  -4.7969  -4.7604  -4.7089
    -4.5700  -4.5546  -4.4066  -4.3165  -4.2901  -3.9147  -3.8918  -3.8166
    -3.7375  -3.7332  -3.1861  -2.9401  -2.9238  -1.9239  -1.8537  -1.8448
    -1.5960  -1.3490  -1.2102  -0.9562   0.8657   0.9108   0.9265   1.3976
     1.4336   1.5463   2.1584   2.1941   2.5405   2.7178   2.7288   2.8058
     3.2905   3.3065   3.4654   3.6767   3.7497   3.7567   3.7691   3.7758

     occupation numbers
     1.0000   1.0000   1.0000   1.0000   1.0000   1.0000   1.0000   1.0000
     1.0000   1.0000   1.0000   1.0000   1.0000   1.0000   1.0000   1.0000
     1.0000   1.0000   1.0000   1.0000   1.0000   1.0000   1.0000   1.0000
     1.0000   1.0000   1.0000   1.0000   1.0000   1.0000   1.0000   1.0000
     1.0000   1.0000   1.0000   1.0000   1.0000   1.0000   1.0000   1.0000
     1.0000   1.0000   1.0000   1.0000   1.0000   1.0000   1.0000   1.0000
     1.0000   1.0000   1.0000   1.0000   1.0000   1.0000   1.0000   1.0000
     1.0000   1.0000   1.0000   1.0000   1.0000   1.0000   1.0000   1.0000
     1.0000   1.0000   1.0000   1.0000   1.0000   1.0000   1.0000   1.0000
     1.0000   1.0000   1.0000   1.0000   1.0000   1.0000   1.0000   1.0000
     1.0000   1.0000   1.0000   1.0000   1.0000   1.0000   1.0000   1.0000
     1.0000   1.0000   1.0000   1.0000   1.0000   1.0000   1.0000   1.0000
     1.0000   1.0000   1.0000   1.0000   1.0000   1.0000   1.0000   1.0000
     1.0000   1.0000   1.0000   1.0058   0.0000   0.0000   0.0000   0.0000
     0.0000   0.0000   0.0000   0.0000   0.0000   0.0000   0.0000   0.0000
     0.0000   0.0000   0.0000   0.0000   0.0000   0.0000   0.0000   0.0000

 ------ SPIN DOWN ----------

          k = 0.0000 0.0000 0.0000 ( 87777 PWs)   bands (ev):

   -88.2466 -55.2625 -55.2188 -53.3283 -19.7959 -18.9670 -18.9401 -18.8791
   -18.8612 -18.8581 -18.5282 -17.1116 -17.0968 -17.0964 -17.0189 -17.0169
   -16.7234 -16.2481 -16.2458 -16.1484 -16.1124 -16.1030 -15.4561 -14.1549
   -14.1244 -14.0584 -14.0369 -14.0270 -13.4108 -13.0990 -13.0980 -13.0627
   -12.8134 -12.8041 -12.3744 -11.8828 -11.8766 -11.6921 -11.4584 -11.4520
   -10.5922  -9.7576  -9.7541  -9.4770  -9.3450  -9.3403  -9.2604  -9.2274
    -9.2253  -9.2199  -8.7811  -8.7760  -8.2451  -8.2336  -8.1563  -8.0184
    -7.8738  -7.5691  -7.4751  -7.4506  -7.2990  -7.0973  -7.0193  -7.0124
    -6.8719  -6.8248  -6.7951  -6.7649  -6.7232  -6.6079  -6.5861  -6.5744
    -6.5679  -6.5576  -6.5150  -5.9529  -5.6873  -5.6769  -5.5590  -5.4146
    -5.4112  -5.3886  -5.2625  -5.0244  -4.9287  -4.7299  -4.6892  -4.6441
    -4.4861  -4.4711  -4.3412  -4.1968  -4.1934  -3.8088  -3.7869  -3.7466
    -3.7233  -3.7187  -3.1277  -2.7184  -2.7054  -1.8293  -1.8239  -1.8019
    -0.9600  -0.9319  -0.9022  -0.8250   0.9511   0.9625   0.9854   1.5480
     1.5523   1.6525   2.3381   2.3881   2.5575   2.8257   2.8380   2.8669
     3.4251   3.4408   3.5558   3.6921   3.7599   3.7635   3.7783   3.7807

     occupation numbers
     1.0000   1.0000   1.0000   1.0000   1.0000   1.0000   1.0000   1.0000
     1.0000   1.0000   1.0000   1.0000   1.0000   1.0000   1.0000   1.0000
     1.0000   1.0000   1.0000   1.0000   1.0000   1.0000   1.0000   1.0000
     1.0000   1.0000   1.0000   1.0000   1.0000   1.0000   1.0000   1.0000
     1.0000   1.0000   1.0000   1.0000   1.0000   1.0000   1.0000   1.0000
     1.0000   1.0000   1.0000   1.0000   1.0000   1.0000   1.0000   1.0000
     1.0000   1.0000   1.0000   1.0000   1.0000   1.0000   1.0000   1.0000
     1.0000   1.0000   1.0000   1.0000   1.0000   1.0000   1.0000   1.0000
     1.0000   1.0000   1.0000   1.0000   1.0000   1.0000   1.0000   1.0000
     1.0000   1.0000   1.0000   1.0000   1.0000   1.0000   1.0000   1.0000
     1.0000   1.0000   1.0000   1.0000   1.0000   1.0000   1.0000   1.0000
     1.0000   1.0000   1.0000   1.0000   1.0000   1.0000   1.0000   1.0000
     1.0000   1.0000   1.0000   1.0000   1.0000   1.0000   1.0000   1.0000
     1.0019   0.9832   0.0090   0.0000   0.0000   0.0000   0.0000   0.0000
     0.0000   0.0000   0.0000   0.0000   0.0000   0.0000   0.0000   0.0000
     0.0000   0.0000   0.0000   0.0000   0.0000   0.0000   0.0000   0.0000

     the Fermi energy is    -0.9200 ev

!    total energy              =    -860.02516796 Ry
     Harris-Foulkes estimate   =    -860.02516752 Ry
     estimated scf accuracy    <       0.00000070 Ry

     The total energy is the sum of the following terms:

     one-electron contribution =   -2816.99074938 Ry
     hartree contribution      =    1452.42991631 Ry
     xc contribution           =    -259.40880324 Ry
     ewald contribution        =     763.94439267 Ry
     smearing contrib. (-TS)   =       0.00007569 Ry

     total magnetization       =     2.01 Bohr mag/cell
     absolute magnetization    =     2.80 Bohr mag/cell

     convergence has been achieved in  93 iterations

     Writing output data file distance-1.8.save/

     General routines

     Parallel routines

   This run was terminated on:  19: 4:42  14Nov2022

   JOB DONE.