     Program PWSCF v.6.4.1 starts on 13Nov2022 at 10:55: 8

     R & G space division:  proc/nbgrp/npool/nimage =       6
     Reading input from distance-4.0.in

     Current dimensions of program PWSCF are:
     Max number of different atomic species (ntypx) = 10
     Max number of k-points (npk) =  40000
     Max angular momentum in pseudopotentials (lmaxx) =  3

     IMPORTANT: XC functional enforced from input :
     Exchange-correlation      = RVV10 ( 1  4 13  4 3 0)
     Any further DFT definition will be discarded
     Please, verify this is what you really want

               file H.pbe-rrkjus.UPF: wavefunction(s)  1S renormalized

     Subspace diagonalization in iterative solution of the eigenvalue problem:
     a serial algorithm will be used

     bravais-lattice index     =            4
     lattice parameter (alat)  =      23.2937  a.u.
     unit-cell volume          =    8879.8548 (a.u.)^3
     number of atoms/cell      =           52
     number of atomic types    =            3
     number of electrons       =       214.00
     number of Kohn-Sham states=          128
     kinetic-energy cutoff     =      70.0000  Ry
     charge density cutoff     =     490.0000  Ry
     convergence threshold     =      1.0E-06
     mixing beta               =       0.3000
     number of iterations used =            4  plain     mixing
     Exchange-correlation      = RVV10 ( 1  4 13  4 3 0)

     celldm(1)=  23.293684  celldm(2)=   0.000000  celldm(3)=   0.811261
     celldm(4)=   0.000000  celldm(5)=   0.000000  celldm(6)=   0.000000

     crystal axes: (cart. coord. in units of alat)
               a(1) = (   1.000000   0.000000   0.000000 )
               a(2) = (  -0.500000   0.866025   0.000000 )
               a(3) = (   0.000000   0.000000   0.811261 )

     reciprocal axes: (cart. coord. in units 2 pi/alat)
               b(1) = (  1.000000  0.577350 -0.000000 )
               b(2) = (  0.000000  1.154701  0.000000 )
               b(3) = (  0.000000 -0.000000  1.232649 )

     PseudoPot. # 1 for H  read from file:
     /home/cristian/Escritorio/Proyecto_Grafeno/pseudopotenciales/H.pbe-rrkjus.UPF
     MD5 check sum: 7cc9d459525c9a0585f487a71c3c9563
     Pseudo is Ultrasoft, Zval =  1.0
     Generated by new atomic code, or converted to UPF format
     Using radial grid of 1061 points,  2 beta functions with:
                l(1) =   0
                l(2) =   0
     Q(r) pseudized with 0 coefficients

     PseudoPot. # 2 for C  read from file:
     /home/cristian/Escritorio/Proyecto_Grafeno/pseudopotenciales/C.pbe-n-rrkjus_psl.1.0.0.UPF
     MD5 check sum: 1fdd950c42eb37d8afe3dd2f8d12311e
     Pseudo is Ultrasoft + core correction, Zval =  4.0
     Generated using "atomic" code by A. Dal Corso v.6.3MaX
     Using radial grid of 1073 points,  4 beta functions with:
                l(1) =   0
                l(2) =   0
                l(3) =   1
                l(4) =   1
     Q(r) pseudized with 0 coefficients

     PseudoPot. # 3 for Fe read from file:
     /home/cristian/Escritorio/Proyecto_Grafeno/pseudopotenciales/Fe.pbe-spn-rrkjus_psl.1.0.0.UPF
     MD5 check sum: 72ea77fed8e64ab3a2ccf2804dfc1862
     Pseudo is Ultrasoft + core correction, Zval = 16.0
     Generated using "atomic" code by A. Dal Corso v.6.3
     Using radial grid of 1191 points,  6 beta functions with:
                l(1) =   0
                l(2) =   0
                l(3) =   1
                l(4) =   1
                l(5) =   2
                l(6) =   2
     Q(r) pseudized with 0 coefficients

     vdW kernel table read from file rVV10_kernel_table
     MD5 check sum: b8e2538accc0c0b3206b45ba4daaba6c

     atomic species   valence    mass     pseudopotential
        H              1.00     1.00794     H ( 1.00)
        C              4.00    12.01070     C ( 1.00)
        Fe            16.00    55.84500     Fe( 1.00)

     Starting magnetic structure
     atomic species   magnetization
        H            0.500
        C            0.300
        Fe           0.800

      2 Sym. Ops. (no inversion) found

                                    s                        frac. trans.

      isym =  1     identity

 cryst.   s( 1) = (     1          0          0      )
                  (     0          1          0      )
                  (     0          0          1      )

 cart.    s( 1) = (  1.0000000  0.0000000  0.0000000 )
                  (  0.0000000  1.0000000  0.0000000 )
                  (  0.0000000  0.0000000  1.0000000 )

      isym =  2     inv. 180 deg rotation - cryst. axis [1,1,0]

 cryst.   s( 2) = (     0         -1          0      )
                  (    -1          0          0      )
                  (     0          0          1      )

 cart.    s( 2) = (  0.5000000 -0.8660254  0.0000000 )
                  ( -0.8660254 -0.5000000  0.0000000 )
                  (  0.0000000  0.0000000  1.0000000 )

     point group C_s (m)
     there are  2 classes
     the character table:

       E     s
A'     1.00  1.00
A''    1.00 -1.00

     the symmetry operations in each class and the name of the first element:

     E        1
          identity
     s        2
          inv. 180 deg rotation - cryst. axis [1,1,0]

   Cartesian axes

     site n.     atom                  positions (alat units)
         1           H   tau(   1) = (   0.3000000   0.4041452   0.3245045  )
         2           H   tau(   2) = (   0.3000000   0.4041452   0.3855171  )
         3           C   tau(   3) = (   0.0000000   0.0000000   0.0000000  )
         4           C   tau(   4) = (   0.0000000   0.1154701   0.0000000  )
         5           C   tau(   5) = (  -0.1000000   0.1732051   0.0000000  )
         6           C   tau(   6) = (  -0.1000000   0.2886751   0.0000000  )
         7           C   tau(   7) = (  -0.2000000   0.3464102   0.0000000  )
         8           C   tau(   8) = (  -0.2000000   0.4618802   0.0000000  )
         9           C   tau(   9) = (  -0.3000000   0.5196152   0.0000000  )
        10           C   tau(  10) = (  -0.3000000   0.6350853   0.0000000  )
        11           C   tau(  11) = (  -0.4000000   0.6928203   0.0000000  )
        12           C   tau(  12) = (  -0.4000000   0.8082904   0.0000000  )
        13           C   tau(  13) = (   0.2000000   0.0000000   0.0000000  )
        14           C   tau(  14) = (   0.2000000   0.1154701   0.0000000  )
        15           C   tau(  15) = (   0.1000000   0.1732051   0.0000000  )
        16           C   tau(  16) = (   0.1000000   0.2886751   0.0000000  )
        17           C   tau(  17) = (   0.0000000   0.3464102   0.0000000  )
        18           C   tau(  18) = (   0.0000000   0.4618802   0.0000000  )
        19           C   tau(  19) = (  -0.1000000   0.5196152   0.0000000  )
        20           C   tau(  20) = (  -0.1000000   0.6350853   0.0000000  )
        21           C   tau(  21) = (  -0.2000000   0.6928203   0.0000000  )
        22           C   tau(  22) = (  -0.2000000   0.8082904   0.0000000  )
        23           C   tau(  23) = (   0.4000000   0.0000000   0.0000000  )
        24           C   tau(  24) = (   0.4000000   0.1154701   0.0000000  )
        25           C   tau(  25) = (   0.3000000   0.1732051   0.0000000  )
        26           C   tau(  26) = (   0.3000000   0.2886751   0.0000000  )
        27           C   tau(  27) = (   0.2000000   0.3464102   0.0000000  )
        28           Fe  tau(  28) = (   0.2000000   0.4618802   0.0000000  )
        29           C   tau(  29) = (   0.1000000   0.5196152   0.0000000  )
        30           C   tau(  30) = (   0.1000000   0.6350853   0.0000000  )
        31           C   tau(  31) = (   0.0000000   0.6928203   0.0000000  )
        32           C   tau(  32) = (   0.0000000   0.8082904   0.0000000  )
        33           C   tau(  33) = (   0.6000000   0.0000000   0.0000000  )
        34           C   tau(  34) = (   0.6000000   0.1154701   0.0000000  )
        35           C   tau(  35) = (   0.5000000   0.1732051   0.0000000  )
        36           C   tau(  36) = (   0.5000000   0.2886751   0.0000000  )
        37           C   tau(  37) = (   0.4000000   0.3464102   0.0000000  )
        38           C   tau(  38) = (   0.4000000   0.4618802   0.0000000  )
        39           C   tau(  39) = (   0.3000000   0.5196152   0.0000000  )
        40           C   tau(  40) = (   0.3000000   0.6350853   0.0000000  )
        41           C   tau(  41) = (   0.2000000   0.6928203   0.0000000  )
        42           C   tau(  42) = (   0.2000000   0.8082904   0.0000000  )
        43           C   tau(  43) = (   0.8000000   0.0000000   0.0000000  )
        44           C   tau(  44) = (   0.8000000   0.1154701   0.0000000  )
        45           C   tau(  45) = (   0.7000000   0.1732051   0.0000000  )
        46           C   tau(  46) = (   0.7000000   0.2886751   0.0000000  )
        47           C   tau(  47) = (   0.6000000   0.3464102   0.0000000  )
        48           C   tau(  48) = (   0.6000000   0.4618802   0.0000000  )
        49           C   tau(  49) = (   0.5000000   0.5196152   0.0000000  )
        50           C   tau(  50) = (   0.5000000   0.6350853   0.0000000  )
        51           C   tau(  51) = (   0.4000000   0.6928203   0.0000000  )
        52           C   tau(  52) = (   0.4000000   0.8082904   0.0000000  )

   Crystallographic axes

     site n.     atom                  positions (cryst. coord.)
         1           H   tau(   1) = (  0.5333333  0.4666667  0.4000000  )
         2           H   tau(   2) = (  0.5333333  0.4666667  0.4752072  )
         3           C   tau(   3) = (  0.0000000  0.0000000  0.0000000  )
         4           C   tau(   4) = (  0.0666667  0.1333333  0.0000000  )
         5           C   tau(   5) = (  0.0000000  0.2000000  0.0000000  )
         6           C   tau(   6) = (  0.0666667  0.3333333  0.0000000  )
         7           C   tau(   7) = (  0.0000000  0.4000000  0.0000000  )
         8           C   tau(   8) = (  0.0666667  0.5333333  0.0000000  )
         9           C   tau(   9) = (  0.0000000  0.6000000  0.0000000  )
        10           C   tau(  10) = (  0.0666667  0.7333333  0.0000000  )
        11           C   tau(  11) = (  0.0000000  0.8000000  0.0000000  )
        12           C   tau(  12) = (  0.0666667  0.9333333  0.0000000  )
        13           C   tau(  13) = (  0.2000000  0.0000000  0.0000000  )
        14           C   tau(  14) = (  0.2666667  0.1333333  0.0000000  )
        15           C   tau(  15) = (  0.2000000  0.2000000  0.0000000  )
        16           C   tau(  16) = (  0.2666667  0.3333333  0.0000000  )
        17           C   tau(  17) = (  0.2000000  0.4000000  0.0000000  )
        18           C   tau(  18) = (  0.2666667  0.5333333  0.0000000  )
        19           C   tau(  19) = (  0.2000000  0.6000000  0.0000000  )
        20           C   tau(  20) = (  0.2666667  0.7333333  0.0000000  )
        21           C   tau(  21) = (  0.2000000  0.8000000  0.0000000  )
        22           C   tau(  22) = (  0.2666667  0.9333333  0.0000000  )
        23           C   tau(  23) = (  0.4000000  0.0000000  0.0000000  )
        24           C   tau(  24) = (  0.4666667  0.1333333  0.0000000  )
        25           C   tau(  25) = (  0.4000000  0.2000000  0.0000000  )
        26           C   tau(  26) = (  0.4666667  0.3333333  0.0000000  )
        27           C   tau(  27) = (  0.4000000  0.4000000  0.0000000  )
        28           Fe  tau(  28) = (  0.4666667  0.5333333  0.0000000  )
        29           C   tau(  29) = (  0.4000000  0.6000000  0.0000000  )
        30           C   tau(  30) = (  0.4666667  0.7333333  0.0000000  )
        31           C   tau(  31) = (  0.4000000  0.8000000  0.0000000  )
        32           C   tau(  32) = (  0.4666667  0.9333333  0.0000000  )
        33           C   tau(  33) = (  0.6000000  0.0000000  0.0000000  )
        34           C   tau(  34) = (  0.6666667  0.1333333  0.0000000  )
        35           C   tau(  35) = (  0.6000000  0.2000000  0.0000000  )
        36           C   tau(  36) = (  0.6666667  0.3333333  0.0000000  )
        37           C   tau(  37) = (  0.6000000  0.4000000  0.0000000  )
        38           C   tau(  38) = (  0.6666667  0.5333333  0.0000000  )
        39           C   tau(  39) = (  0.6000000  0.6000000  0.0000000  )
        40           C   tau(  40) = (  0.6666667  0.7333333  0.0000000  )
        41           C   tau(  41) = (  0.6000000  0.8000000  0.0000000  )
        42           C   tau(  42) = (  0.6666667  0.9333333  0.0000000  )
        43           C   tau(  43) = (  0.8000000  0.0000000  0.0000000  )
        44           C   tau(  44) = (  0.8666667  0.1333333  0.0000000  )
        45           C   tau(  45) = (  0.8000000  0.2000000  0.0000000  )
        46           C   tau(  46) = (  0.8666667  0.3333333  0.0000000  )
        47           C   tau(  47) = (  0.8000000  0.4000000  0.0000000  )
        48           C   tau(  48) = (  0.8666667  0.5333333  0.0000000  )
        49           C   tau(  49) = (  0.8000000  0.6000000  0.0000000  )
        50           C   tau(  50) = (  0.8666667  0.7333333  0.0000000  )
        51           C   tau(  51) = (  0.8000000  0.8000000  0.0000000  )
        52           C   tau(  52) = (  0.8666667  0.9333333  0.0000000  )

     number of k points=     1  Marzari-Vanderbilt smearing, width (Ry)=  0.0010
                       cart. coord. in units 2pi/alat
        k(    1) = (   0.0000000   0.0000000   0.0000000), wk =   1.0000000

                       cryst. coord.
        k(    1) = (   0.0000000   0.0000000   0.0000000), wk =   1.0000000

     Check: negative core charge=   -0.000002

     Initial potential from superposition of free atoms

     starting charge  213.80512, renormalised to  214.00000

     negative rho (up, down):  6.475E-05 9.348E-03

Carrying out rVV10 run using the following parameters:
Nqs =      20    Nr_points =    1024   r_max =   100.000
b_value =  6.30000    beta =  0.00901
     q_mesh =  0.00010000  0.00030000  0.00058939  0.00100810
               0.00161396  0.00249058  0.00375900  0.00559430
               0.00824984  0.01209221  0.01765183  0.02569619
               0.03733578  0.05417739  0.07854596  0.11380545
               0.16482331  0.23864234  0.34545298  0.50000000

Gradients computed in Reciprocal space

     Starting wfcs are  208 randomized atomic wfcs

     Self-consistent Calculation

     iteration #  1     ecut=    70.00 Ry     beta= 0.30
     Davidson diagonalization with overlap
     ethr =  1.00E-02,  avg # of iterations =  2.5

[...]

     total energy              =    -858.11312951 Ry
     Harris-Foulkes estimate   =    -858.63175482 Ry
     estimated scf accuracy    <      10.04994804 Ry

     total magnetization       =     6.00 Bohr mag/cell
     absolute magnetization    =     6.66 Bohr mag/cell

[...]

     total energy              =    -860.05404424 Ry
     Harris-Foulkes estimate   =    -860.05404471 Ry
     estimated scf accuracy    <       0.00000109 Ry

[...]

     iteration # 93     ecut=    70.00 Ry     beta= 0.30
     Davidson diagonalization with overlap
     ethr =  4.68E-10,  avg # of iterations =  2.0

     negative rho (up, down):  5.203E-04 7.537E-03

     Magnetic moment per site:
     atom:    1    charge:    0.2108    magn:   -0.0000    constr:    0.0000
     atom:    2    charge:    0.2118    magn:   -0.0000    constr:    0.0000
     atom:    3    charge:    1.7171    magn:   -0.0126    constr:    0.0000
     atom:    4    charge:    1.7153    magn:    0.0177    constr:    0.0000
     atom:    5    charge:    1.7177    magn:   -0.0086    constr:    0.0000
     atom:    6    charge:    1.7142    magn:    0.0056    constr:    0.0000
     atom:    7    charge:    1.7177    magn:   -0.0086    constr:    0.0000
     atom:    8    charge:    1.7153    magn:    0.0177    constr:    0.0000
     atom:    9    charge:    1.7171    magn:   -0.0125    constr:    0.0000
     atom:   10    charge:    1.7149    magn:    0.0586    constr:    0.0000
     atom:   11    charge:    1.7176    magn:   -0.0171    constr:    0.0000
     atom:   12    charge:    1.7149    magn:    0.0587    constr:    0.0000
     atom:   13    charge:    1.7176    magn:   -0.0171    constr:    0.0000
     atom:   14    charge:    1.7155    magn:    0.0457    constr:    0.0000
     atom:   15    charge:    1.7140    magn:   -0.0135    constr:    0.0000
     atom:   16    charge:    1.7106    magn:    0.0555    constr:    0.0000
     atom:   17    charge:    1.7228    magn:   -0.0121    constr:    0.0000
     atom:   18    charge:    1.7106    magn:    0.0556    constr:    0.0000
     atom:   19    charge:    1.7140    magn:   -0.0136    constr:    0.0000
     atom:   20    charge:    1.7155    magn:    0.0459    constr:    0.0000
     atom:   21    charge:    1.7176    magn:   -0.0171    constr:    0.0000
     atom:   22    charge:    1.7149    magn:    0.0586    constr:    0.0000
     atom:   23    charge:    1.7171    magn:   -0.0125    constr:    0.0000
     atom:   24    charge:    1.7153    magn:    0.0176    constr:    0.0000
     atom:   25    charge:    1.7140    magn:   -0.0133    constr:    0.0000
     atom:   26    charge:    1.7106    magn:    0.0552    constr:    0.0000
     atom:   27    charge:    1.8519    magn:   -0.0195    constr:    0.0000
     atom:   28    charge:   11.1427    magn:    0.4530    constr:    0.0000
     atom:   29    charge:    1.8519    magn:   -0.0196    constr:    0.0000
     atom:   30    charge:    1.7106    magn:    0.0556    constr:    0.0000
     atom:   31    charge:    1.7140    magn:   -0.0136    constr:    0.0000
     atom:   32    charge:    1.7153    magn:    0.0177    constr:    0.0000
     atom:   33    charge:    1.7177    magn:   -0.0086    constr:    0.0000
     atom:   34    charge:    1.7139    magn:    0.0124    constr:    0.0000
     atom:   35    charge:    1.7177    magn:   -0.0085    constr:    0.0000
     atom:   36    charge:    1.7142    magn:    0.0055    constr:    0.0000
     atom:   37    charge:    1.7229    magn:   -0.0119    constr:    0.0000
     atom:   38    charge:    1.7106    magn:    0.0552    constr:    0.0000
     atom:   39    charge:    1.8519    magn:   -0.0195    constr:    0.0000
     atom:   40    charge:    1.7106    magn:    0.0555    constr:    0.0000
     atom:   41    charge:    1.7228    magn:   -0.0121    constr:    0.0000
     atom:   42    charge:    1.7142    magn:    0.0056    constr:    0.0000
     atom:   43    charge:    1.7177    magn:   -0.0086    constr:    0.0000
     atom:   44    charge:    1.7139    magn:    0.0125    constr:    0.0000
     atom:   45    charge:    1.7236    magn:   -0.0050    constr:    0.0000
     atom:   46    charge:    1.7139    magn:    0.0124    constr:    0.0000
     atom:   47    charge:    1.7177    magn:   -0.0085    constr:    0.0000
     atom:   48    charge:    1.7153    magn:    0.0176    constr:    0.0000
     atom:   49    charge:    1.7140    magn:   -0.0133    constr:    0.0000
     atom:   50    charge:    1.7155    magn:    0.0457    constr:    0.0000
     atom:   51    charge:    1.7140    magn:   -0.0135    constr:    0.0000
     atom:   52    charge:    1.7153    magn:    0.0177    constr:    0.0000

     End of self-consistent calculation

 ------ SPIN UP ------------

          k = 0.0000 0.0000 0.0000 ( 87777 PWs)   bands (ev):

   -88.6957 -55.5840 -55.5832 -53.8686 -19.8876 -19.0527 -19.0525 -18.9664
   -18.9282 -18.9277 -18.5842 -17.1776 -17.1776 -17.1774 -17.1059 -17.1057
   -16.8002 -16.3313 -16.3312 -16.2297 -16.1775 -16.1774 -15.4860 -14.2331
   -14.2329 -14.1479 -14.1011 -14.1008 -13.4324 -13.1649 -13.1648 -13.1405
   -12.8603 -12.8602 -12.4514 -11.9437 -11.9435 -11.7555 -11.5080 -11.5080
   -10.6266  -9.7935  -9.7935  -9.5305  -9.4217  -9.4216  -9.3386  -9.3076
    -9.3075  -9.2947  -8.8284  -8.8284  -8.2853  -8.2851  -8.1966  -8.0353
    -7.9371  -7.5478  -7.5476  -7.3407  -7.2247  -7.2242  -7.0803  -7.0800
    -6.9469  -6.9235  -6.9230  -6.8122  -6.6698  -6.6694  -6.6392  -6.6266
    -6.6266  -6.5854  -6.5797  -6.3183  -5.7357  -5.7356  -5.6702  -5.6701
    -5.4813  -5.4812  -5.2754  -5.0921  -4.9821  -4.8451  -4.8192  -4.8186
    -4.5341  -4.5340  -4.5039  -4.3367  -4.3365  -3.9820  -3.9817  -3.8946
    -3.7856  -3.7856  -3.2094  -2.8973  -2.8966  -1.9779  -1.9079  -1.9074
    -1.3008  -1.3006  -1.0622  -0.8901   0.8193   0.8669   0.8676   1.3954
     1.3956   1.5066   2.3863   2.3864   2.5215   2.6617   2.6621   2.7615
     3.2952   3.2969   3.4241   3.6396   3.7062   3.7164   3.7247   3.7558

     occupation numbers
     1.0000   1.0000   1.0000   1.0000   1.0000   1.0000   1.0000   1.0000
     1.0000   1.0000   1.0000   1.0000   1.0000   1.0000   1.0000   1.0000
     1.0000   1.0000   1.0000   1.0000   1.0000   1.0000   1.0000   1.0000
     1.0000   1.0000   1.0000   1.0000   1.0000   1.0000   1.0000   1.0000
     1.0000   1.0000   1.0000   1.0000   1.0000   1.0000   1.0000   1.0000
     1.0000   1.0000   1.0000   1.0000   1.0000   1.0000   1.0000   1.0000
     1.0000   1.0000   1.0000   1.0000   1.0000   1.0000   1.0000   1.0000
     1.0000   1.0000   1.0000   1.0000   1.0000   1.0000   1.0000   1.0000
     1.0000   1.0000   1.0000   1.0000   1.0000   1.0000   1.0000   1.0000
     1.0000   1.0000   1.0000   1.0000   1.0000   1.0000   1.0000   1.0000
     1.0000   1.0000   1.0000   1.0000   1.0000   1.0000   1.0000   1.0000
     1.0000   1.0000   1.0000   1.0000   1.0000   1.0000   1.0000   1.0000
     1.0000   1.0000   1.0000   1.0000   1.0000   1.0000   1.0000   1.0000
     1.0000   1.0000   1.0000   1.0000   0.0000   0.0000   0.0000   0.0000
     0.0000   0.0000   0.0000   0.0000   0.0000   0.0000   0.0000   0.0000
     0.0000   0.0000   0.0000   0.0000   0.0000   0.0000   0.0000   0.0000

 ------ SPIN DOWN ----------

          k = 0.0000 0.0000 0.0000 ( 87777 PWs)   bands (ev):

   -87.9722 -54.9933 -54.9933 -52.9723 -19.8456 -19.0064 -19.0061 -18.9266
   -18.9020 -18.9015 -18.5253 -17.1500 -17.1412 -17.1411 -17.0520 -17.0519
   -16.7701 -16.2857 -16.2855 -16.1957 -16.1344 -16.1342 -15.4615 -14.1625
   -14.1620 -14.0908 -14.0906 -14.0854 -13.4387 -13.1402 -13.1401 -13.1081
   -12.8413 -12.8412 -12.4209 -11.9062 -11.9060 -11.7327 -11.4862 -11.4861
   -10.6040  -9.7449  -9.7447  -9.4988  -9.3896  -9.3895  -9.3216  -9.2841
    -9.2840  -9.2768  -8.8159  -8.8159  -8.2499  -8.2497  -8.1771  -7.9377
    -7.9201  -7.5332  -7.5331  -7.3090  -7.0600  -7.0595  -7.0342  -7.0341
    -6.8641  -6.8637  -6.8467  -6.7970  -6.6533  -6.6530  -6.6286  -6.6131
    -6.6130  -6.5618  -6.4511  -6.3161  -5.6904  -5.6904  -5.4393  -5.4391
    -5.4358  -5.4352  -5.1962  -5.0784  -4.9723  -4.7703  -4.7266  -4.7261
    -4.4508  -4.4508  -4.4302  -4.2102  -4.2101  -3.8470  -3.8466  -3.7979
    -3.7709  -3.7709  -3.1656  -2.6656  -2.6653  -1.8799  -1.8796  -1.8164
    -0.9043  -0.8503  -0.7936  -0.7913   0.9146   0.9151   0.9769   1.5521
     1.5522   1.6292   2.5315   2.5341   2.5379   2.8030   2.8038   2.8358
     3.4530   3.4554   3.5163   3.6566   3.7151   3.7301   3.7379   3.7623

     occupation numbers
     1.0000   1.0000   1.0000   1.0000   1.0000   1.0000   1.0000   1.0000
     1.0000   1.0000   1.0000   1.0000   1.0000   1.0000   1.0000   1.0000
     1.0000   1.0000   1.0000   1.0000   1.0000   1.0000   1.0000   1.0000
     1.0000   1.0000   1.0000   1.0000   1.0000   1.0000   1.0000   1.0000
     1.0000   1.0000   1.0000   1.0000   1.0000   1.0000   1.0000   1.0000
     1.0000   1.0000   1.0000   1.0000   1.0000   1.0000   1.0000   1.0000
     1.0000   1.0000   1.0000   1.0000   1.0000   1.0000   1.0000   1.0000
     1.0000   1.0000   1.0000   1.0000   1.0000   1.0000   1.0000   1.0000
     1.0000   1.0000   1.0000   1.0000   1.0000   1.0000   1.0000   1.0000
     1.0000   1.0000   1.0000   1.0000   1.0000   1.0000   1.0000   1.0000
     1.0000   1.0000   1.0000   1.0000   1.0000   1.0000   1.0000   1.0000
     1.0000   1.0000   1.0000   1.0000   1.0000   1.0000   1.0000   1.0000
     1.0000   1.0000   1.0000   1.0000   1.0000   1.0000   1.0000   1.0000
     1.0000   1.0000   0.0000   0.0000   0.0000   0.0000   0.0000   0.0000
     0.0000   0.0000   0.0000   0.0000   0.0000   0.0000   0.0000   0.0000
     0.0000   0.0000   0.0000   0.0000   0.0000   0.0000   0.0000   0.0000

     the Fermi energy is    -0.8377 ev

!    total energy              =    -860.05404600 Ry
     Harris-Foulkes estimate   =    -860.05404430 Ry
     estimated scf accuracy    <       0.00000095 Ry

     The total energy is the sum of the following terms:

     one-electron contribution =   -2779.79937258 Ry
     hartree contribution      =    1433.68927083 Ry
     xc contribution           =    -259.29915326 Ry
     ewald contribution        =     745.35512741 Ry
     smearing contrib. (-TS)   =       0.00008160 Ry

     total magnetization       =     2.00 Bohr mag/cell
     absolute magnetization    =     3.17 Bohr mag/cell

     convergence has been achieved in  93 iterations

     Writing output data file distance-4.0.save/

     General routines

     Parallel routines

   This run was terminated on:  13:31:37  13Nov2022

   JOB DONE.