     Program PWSCF v.6.4.1 starts on 14Sep2022 at  8:31:34

     R & G space division:  proc/nbgrp/npool/nimage =       6
     Reading input from cu-vcrelax-2.in

     Current dimensions of program PWSCF are:
     Max number of different atomic species (ntypx) = 10
     Max number of k-points (npk) =  40000
     Max angular momentum in pseudopotentials (lmaxx) =  3

     IMPORTANT: XC functional enforced from input :
     Exchange-correlation      = RVV10 ( 1  4 13  4 3 0)
     Any further DFT definition will be discarded
     Please, verify this is what you really want

               file H.pbe-rrkjus.UPF: wavefunction(s)  1S renormalized
               file Cu.pbe-dn-rrkjus_psl.1.0.0.UPF: wavefunction(s)  3D renormalized

     Subspace diagonalization in iterative solution of the eigenvalue problem:
     a serial algorithm will be used

     bravais-lattice index     =            4
     lattice parameter (alat)  =      23.2937  a.u.
     unit-cell volume          =    8879.8548 (a.u.)^3
     number of atoms/cell      =           52
     number of atomic types    =            3
     number of electrons       =       209.00
     number of Kohn-Sham states=          126
     kinetic-energy cutoff     =      70.0000  Ry
     charge density cutoff     =     490.0000  Ry
     convergence threshold     =      1.0E-10
     mixing beta               =       0.7000
     number of iterations used =            8  plain     mixing
     Exchange-correlation      = RVV10 ( 1  4 13  4 3 0)
     nstep                     =           50

     celldm(1)=  23.293684  celldm(2)=   0.000000  celldm(3)=   0.811261
     celldm(4)=   0.000000  celldm(5)=   0.000000  celldm(6)=   0.000000

     crystal axes: (cart. coord. in units of alat)
               a(1) = (   1.000000   0.000000   0.000000 )
               a(2) = (  -0.500000   0.866025   0.000000 )
               a(3) = (   0.000000   0.000000   0.811261 )

     reciprocal axes: (cart. coord. in units 2 pi/alat)
               b(1) = (  1.000000  0.577350 -0.000000 )
               b(2) = (  0.000000  1.154701  0.000000 )
               b(3) = (  0.000000 -0.000000  1.232649 )

     PseudoPot. # 1 for H  read from file:
     /home/cristian/Escritorio/Proyecto_Grafeno/pseudopotenciales/H.pbe-rrkjus.UPF
     MD5 check sum: 7cc9d459525c9a0585f487a71c3c9563
     Pseudo is Ultrasoft, Zval =  1.0
     Generated by new atomic code, or converted to UPF format
     Using radial grid of 1061 points,  2 beta functions with:
                l(1) =   0
                l(2) =   0
     Q(r) pseudized with 0 coefficients

     PseudoPot. # 2 for C  read from file:
     /home/cristian/Escritorio/Proyecto_Grafeno/pseudopotenciales/C.pbe-n-rrkjus_psl.1.0.0.UPF
     MD5 check sum: 1fdd950c42eb37d8afe3dd2f8d12311e
     Pseudo is Ultrasoft + core correction, Zval =  4.0
     Generated using "atomic" code by A. Dal Corso v.6.3MaX
     Using radial grid of 1073 points,  4 beta functions with:
                l(1) =   0
                l(2) =   0
                l(3) =   1
                l(4) =   1
     Q(r) pseudized with 0 coefficients

     PseudoPot. # 3 for Cu read from file:
     /home/cristian/Escritorio/Proyecto_Grafeno/pseudopotenciales/Cu.pbe-dn-rrkjus_psl.1.0.0.UPF
     MD5 check sum: ba3d6c84e19846e79d48cdc68ff7152b
     Pseudo is Ultrasoft + core correction, Zval = 11.0
     Generated using "atomic" code by A. Dal Corso v.6.3
     Using radial grid of 1199 points,  6 beta functions with:
                l(1) =   0
                l(2) =   0
                l(3) =   1
                l(4) =   1
                l(5) =   2
                l(6) =   2
     Q(r) pseudized with 0 coefficients

     vdW kernel table read from file rVV10_kernel_table
     MD5 check sum: b8e2538accc0c0b3206b45ba4daaba6c

     atomic species   valence    mass     pseudopotential
        H              1.00     1.00794     H ( 1.00)
        C              4.00    12.01070     C ( 1.00)
        Cu            11.00    63.54600     Cu( 1.00)

     Starting magnetic structure
     atomic species   magnetization
        H            0.500
        C            0.300
        Cu           0.800

      2 Sym. Ops. (no inversion) found

                                    s                        frac. trans.

      isym =  1     identity

 cryst.   s( 1) = (     1          0          0      )
                  (     0          1          0      )
                  (     0          0          1      )

 cart.    s( 1) = (  1.0000000  0.0000000  0.0000000 )
                  (  0.0000000  1.0000000  0.0000000 )
                  (  0.0000000  0.0000000  1.0000000 )

      isym =  2     inv. 180 deg rotation - cryst. axis [1,1,0]

 cryst.   s( 2) = (     0         -1          0      )
                  (    -1          0          0      )
                  (     0          0          1      )

 cart.    s( 2) = (  0.5000000 -0.8660254  0.0000000 )
                  ( -0.8660254 -0.5000000  0.0000000 )
                  (  0.0000000  0.0000000  1.0000000 )

     point group C_s (m)
     there are  2 classes
     the character table:

       E     s
A'     1.00  1.00
A''    1.00 -1.00

     the symmetry operations in each class and the name of the first element:

     E        1
          identity
     s        2
          inv. 180 deg rotation - cryst. axis [1,1,0]

   Cartesian axes

     site n.     atom                  positions (alat units)
         1           H   tau(   1) = (   0.2995630   0.4043975   0.2259461  )
         2           H   tau(   2) = (   0.3025692   0.4026619   0.2874849  )
         3           C   tau(   3) = (  -0.0003200   0.0001848  -0.0028055  )
         4           C   tau(   4) = (   0.0007025   0.1166124  -0.0042905  )
         5           C   tau(   5) = (  -0.0992066   0.1734005  -0.0030455  )
         6           C   tau(   6) = (  -0.0986450   0.2891703  -0.0072957  )
         7           C   tau(   7) = (  -0.1991212   0.3463539  -0.0041293  )
         8           C   tau(   8) = (  -0.2017884   0.4619436  -0.0067019  )
         9           C   tau(   9) = (  -0.3011183   0.5198187  -0.0007126  )
        10           C   tau(  10) = (  -0.3014278   0.6353512   0.0017750  )
        11           C   tau(  11) = (  -0.4010596   0.6931177   0.0018215  )
        12           C   tau(  12) = (  -0.4007684   0.8087340   0.0007344  )
        13           C   tau(  13) = (   0.1992127   0.0007689   0.0018215  )
        14           C   tau(  14) = (   0.2004228   0.1164807  -0.0014725  )
        15           C   tau(  15) = (   0.1012942   0.1750711  -0.0046136  )
        16           C   tau(  16) = (   0.1022105   0.2925492  -0.0041547  )
        17           C   tau(  17) = (   0.0003091   0.3481480  -0.0082009  )
        18           C   tau(  18) = (  -0.0038439   0.4639550  -0.0054042  )
        19           C   tau(  19) = (  -0.1037342   0.5212003  -0.0117787  )
        20           C   tau(  20) = (  -0.1029877   0.6368102  -0.0086202  )
        21           C   tau(  21) = (  -0.2021712   0.6940739  -0.0005781  )
        22           C   tau(  22) = (  -0.2009442   0.8093939   0.0017750  )
        23           C   tau(  23) = (   0.3992647   0.0008668  -0.0007126  )
        24           C   tau(  24) = (   0.4007707   0.1156693  -0.0005811  )
        25           C   tau(  25) = (   0.3011311   0.1728025  -0.0024213  )
        26           C   tau(  26) = (   0.3039896   0.2881478  -0.0021197  )
        27           C   tau(  27) = (   0.2057558   0.3430491   0.0063188  )
        28           Cu  tau(  28) = (   0.1977706   0.4631674   0.1036269  )
        29           C   tau(  29) = (   0.0870260   0.5271058   0.0195973  )
        30           C   tau(  30) = (   0.0962812   0.6373768  -0.0054042  )
        31           C   tau(  31) = (  -0.0032399   0.6952617  -0.0117787  )
        32           C   tau(  32) = (  -0.0009491   0.8098075  -0.0067019  )
        33           C   tau(  33) = (   0.6004881  -0.0007330  -0.0041293  )
        34           C   tau(  34) = (   0.6014910   0.1141392   0.0023448  )
        35           C   tau(  35) = (   0.5018769   0.1714010   0.0004013  )
        36           C   tau(  36) = (   0.5037110   0.2865326  -0.0023831  )
        37           C   tau(  37) = (   0.4050871   0.3434731  -0.0051162  )
        38           C   tau(  38) = (   0.4024515   0.4586888  -0.0021197  )
        39           C   tau(  39) = (   0.3057886   0.5163111   0.0063188  )
        40           C   tau(  40) = (   0.2977502   0.6312340  -0.0041547  )
        41           C   tau(  41) = (   0.1986496   0.6916837  -0.0082009  )
        42           C   tau(  42) = (   0.2002487   0.8068693  -0.0072957  )
        43           C   tau(  43) = (   0.8002274  -0.0007848  -0.0030455  )
        44           C   tau(  44) = (   0.8008270   0.1149926   0.0014392  )
        45           C   tau(  45) = (   0.7011994   0.1725126   0.0044955  )
        46           C   tau(  46) = (   0.7018980   0.2880494   0.0023448  )
        47           C   tau(  47) = (   0.6025009   0.3456868   0.0004013  )
        48           C   tau(  48) = (   0.6002128   0.4611131  -0.0005811  )
        49           C   tau(  49) = (   0.5009141   0.5188370  -0.0024213  )
        50           C   tau(  50) = (   0.4993362   0.6342138  -0.0014725  )
        51           C   tau(  51) = (   0.3990311   0.6907665  -0.0046136  )
        52           C   tau(  52) = (   0.3993620   0.8071108  -0.0042905  )

   Crystallographic axes

     site n.     atom                  positions (cryst. coord.)
         1           H   tau(   1) = (  0.5330420  0.4669580  0.2785121  )
         2           H   tau(   2) = (  0.5350461  0.4649539  0.3543678  )
         3           C   tau(   3) = ( -0.0002133  0.0002133 -0.0034582  )
         4           C   tau(   4) = (  0.0680287  0.1346524 -0.0052887  )
         5           C   tau(   5) = (  0.0009062  0.2002257 -0.0037540  )
         6           C   tau(   6) = (  0.0683076  0.3339051 -0.0089930  )
         7           C   tau(   7) = (  0.0008464  0.3999351 -0.0050899  )
         8           C   tau(   8) = (  0.0649149  0.5334065 -0.0082611  )
         9           C   tau(   9) = ( -0.0010009  0.6002349 -0.0008784  )
        10           C   tau(  10) = (  0.0653924  0.7336404  0.0021879  )
        11           C   tau(  11) = ( -0.0008879  0.8003434  0.0022453  )
        12           C   tau(  12) = (  0.0661544  0.9338456  0.0009053  )
        13           C   tau(  13) = (  0.1996566  0.0008879  0.0022453  )
        14           C   tau(  14) = (  0.2676730  0.1345003 -0.0018151  )
        15           C   tau(  15) = (  0.2023716  0.2021547 -0.0056869  )
        16           C   tau(  16) = (  0.2711138  0.3378067 -0.0051213  )
        17           C   tau(  17) = (  0.2013124  0.4020066 -0.0101088  )
        18           C   tau(  18) = (  0.2640206  0.5357291 -0.0066614  )
        19           C   tau(  19) = (  0.1971809  0.6018303 -0.0145190  )
        20           C   tau(  20) = (  0.2646749  0.7353251 -0.0106257  )
        21           C   tau(  21) = (  0.1985525  0.8014475 -0.0007127  )
[...]
     atom   31 type  2   force =     0.27618296   -0.40927943    0.59279014
     atom   32 type  2   force =     0.00146477   -0.19606040    0.95595184
     atom   33 type  2   force =    -0.10943012   -0.15763087    0.34581527
     atom   34 type  2   force =    -0.26040924    0.05819886    0.60774489
     atom   35 type  2   force =    -0.26792749    0.25813947    1.02614229
     atom   36 type  2   force =    -0.69900261    0.40356934    1.32355637
     atom   37 type  2   force =    -0.71552452    0.41310827    1.90742973
     atom   38 type  2   force =    -1.14800869   -0.06786717    2.18189230
     atom   39 type  2   force =     0.58658836   -0.55451118    3.47240079
     atom   40 type  2   force =    -0.21614496   -1.20925272    1.12772167
     atom   41 type  2   force =    -0.10732880   -0.83851220   -0.41408913
     atom   42 type  2   force =    -0.16021881   -0.44428886    0.11573470
     atom   43 type  2   force =     0.03409866   -0.24839488    0.30158340
     atom   44 type  2   force =    -0.09806081    0.05661544    0.38634798
     atom   45 type  2   force =    -0.07657896    0.04421288    0.36214842
     atom   46 type  2   force =    -0.18060631    0.19642158    0.60774489
     atom   47 type  2   force =    -0.35751909    0.10296228    1.02614229
     atom   48 type  2   force =    -0.35302355   -0.01076778    1.15141570
     atom   49 type  2   force =    -0.62587643   -0.30897126    1.34045769
     atom   50 type  2   force =    -0.35713497   -0.47288147    0.93539346
     atom   51 type  2   force =    -0.07008880   -0.57877618    0.72274586
     atom   52 type  2   force =    -0.23518986   -0.17908241    0.26345495
     The core correction contribution to forces
     atom    1 type  1   force =     0.00000000    0.00000000    0.00000000
     atom    2 type  1   force =     0.00000000    0.00000000    0.00000000
     atom    3 type  2   force =     0.00032803   -0.00018939   -0.00002129
     atom    4 type  2   force =    -0.00048672    0.00022711    0.00006073
     atom    5 type  2   force =     0.00013851   -0.00032265   -0.00010742
     atom    6 type  2   force =     0.00019049    0.00036048   -0.00009546
     atom    7 type  2   force =    -0.00013739   -0.00006572    0.00025749
     atom    8 type  2   force =     0.00010876    0.00007073   -0.00003892
     atom    9 type  2   force =     0.00008160   -0.00009515    0.00006132
     atom   10 type  2   force =     0.00001462    0.00006751    0.00018427
     atom   11 type  2   force =     0.00029248    0.00004529    0.00003451
     atom   12 type  2   force =    -0.00010171    0.00005872    0.00025932
     atom   13 type  2   force =     0.00010702   -0.00027594    0.00003451
     atom   14 type  2   force =     0.00006029    0.00006368    0.00022941
     atom   15 type  2   force =    -0.00004595   -0.00083245   -0.00016145
     atom   16 type  2   force =    -0.00072330    0.00023202   -0.00031786
     atom   17 type  2   force =    -0.00082356    0.00063307    0.00064664
     atom   18 type  2   force =     0.00091152    0.00100204   -0.00008337
     atom   19 type  2   force =     0.00030961   -0.00014049   -0.00042833
     atom   20 type  2   force =    -0.00016057    0.00009271    0.00049212
     atom   21 type  2   force =     0.00020978   -0.00012111    0.00022014
     atom   22 type  2   force =    -0.00005115   -0.00004642    0.00018427
     atom   23 type  2   force =     0.00012320   -0.00002309    0.00006132
     atom   24 type  2   force =     0.00009487   -0.00019063    0.00009628
     atom   25 type  2   force =     0.00018355   -0.00073122   -0.00007138
     atom   26 type  2   force =    -0.00055247    0.00012780   -0.00013002
     atom   27 type  2   force =     0.00076721   -0.00219837   -0.00141074
     atom   28 type  3   force =    -0.01929055    0.01113739   -0.03116323
     atom   29 type  2   force =     0.00394609   -0.00227827    0.00424231
     atom   30 type  2   force =    -0.00041203   -0.00129042   -0.00008337
     atom   31 type  2   force =     0.00027647   -0.00019789   -0.00042833
     atom   32 type  2   force =    -0.00000688   -0.00012955   -0.00003892
     atom   33 type  2   force =    -0.00001178    0.00015185    0.00025749
     atom   34 type  2   force =    -0.00014306   -0.00004516    0.00000146
     atom   35 type  2   force =     0.00035912   -0.00021124    0.00015275
     atom   36 type  2   force =    -0.00022410    0.00012939    0.00007123
     atom   37 type  2   force =     0.00037450   -0.00021622   -0.00020825
     atom   38 type  2   force =    -0.00038692    0.00041455   -0.00013002
     atom   39 type  2   force =     0.00228745    0.00043476   -0.00141074
     atom   40 type  2   force =    -0.00056259    0.00051039   -0.00031786
     atom   41 type  2   force =    -0.00096003    0.00039668    0.00064664
     atom   42 type  2   force =    -0.00021694   -0.00034521   -0.00009546
     atom   43 type  2   force =     0.00034868    0.00004137   -0.00010742
     atom   44 type  2   force =    -0.00035995    0.00020782    0.00001305
     atom   45 type  2   force =     0.00022946   -0.00013248    0.00014978
     atom   46 type  2   force =    -0.00003242    0.00014647    0.00000146
     atom   47 type  2   force =     0.00036250   -0.00020539    0.00015275
     atom   48 type  2   force =     0.00021252    0.00001316    0.00009628
     atom   49 type  2   force =     0.00072503    0.00020665   -0.00007138
     atom   50 type  2   force =    -0.00002500   -0.00008405    0.00022941
     atom   51 type  2   force =     0.00069795    0.00045602   -0.00016145
     atom   52 type  2   force =    -0.00044004    0.00030796    0.00006073
     The Hubbard contrib.    to forces
     atom    1 type  1   force =     0.00000000    0.00000000    0.00000000
     atom    2 type  1   force =     0.00000000    0.00000000    0.00000000
     atom    3 type  2   force =     0.00000000    0.00000000    0.00000000
     atom    4 type  2   force =     0.00000000    0.00000000    0.00000000
     atom    5 type  2   force =     0.00000000    0.00000000    0.00000000
     atom    6 type  2   force =     0.00000000    0.00000000    0.00000000
     atom    7 type  2   force =     0.00000000    0.00000000    0.00000000
     atom    8 type  2   force =     0.00000000    0.00000000    0.00000000
     atom    9 type  2   force =     0.00000000    0.00000000    0.00000000
     atom   10 type  2   force =     0.00000000    0.00000000    0.00000000
     atom   11 type  2   force =     0.00000000    0.00000000    0.00000000
     atom   12 type  2   force =     0.00000000    0.00000000    0.00000000
     atom   13 type  2   force =     0.00000000    0.00000000    0.00000000
     atom   14 type  2   force =     0.00000000    0.00000000    0.00000000
     atom   15 type  2   force =     0.00000000    0.00000000    0.00000000
     atom   16 type  2   force =     0.00000000    0.00000000    0.00000000
     atom   17 type  2   force =     0.00000000    0.00000000    0.00000000
     atom   18 type  2   force =     0.00000000    0.00000000    0.00000000
     atom   19 type  2   force =     0.00000000    0.00000000    0.00000000
     atom   20 type  2   force =     0.00000000    0.00000000    0.00000000
     atom   21 type  2   force =     0.00000000    0.00000000    0.00000000
     atom   22 type  2   force =     0.00000000    0.00000000    0.00000000
     atom   23 type  2   force =     0.00000000    0.00000000    0.00000000
     atom   24 type  2   force =     0.00000000    0.00000000    0.00000000
     atom   25 type  2   force =     0.00000000    0.00000000    0.00000000
     atom   26 type  2   force =     0.00000000    0.00000000    0.00000000
     atom   27 type  2   force =     0.00000000    0.00000000    0.00000000
     atom   28 type  3   force =     0.00000000    0.00000000    0.00000000
     atom   29 type  2   force =     0.00000000    0.00000000    0.00000000
     atom   30 type  2   force =     0.00000000    0.00000000    0.00000000
     atom   31 type  2   force =     0.00000000    0.00000000    0.00000000
     atom   32 type  2   force =     0.00000000    0.00000000    0.00000000
     atom   33 type  2   force =     0.00000000    0.00000000    0.00000000
     atom   34 type  2   force =     0.00000000    0.00000000    0.00000000
     atom   35 type  2   force =     0.00000000    0.00000000    0.00000000
     atom   36 type  2   force =     0.00000000    0.00000000    0.00000000
     atom   37 type  2   force =     0.00000000    0.00000000    0.00000000
     atom   38 type  2   force =     0.00000000    0.00000000    0.00000000
     atom   39 type  2   force =     0.00000000    0.00000000    0.00000000
     atom   40 type  2   force =     0.00000000    0.00000000    0.00000000
     atom   41 type  2   force =     0.00000000    0.00000000    0.00000000
     atom   42 type  2   force =     0.00000000    0.00000000    0.00000000
     atom   43 type  2   force =     0.00000000    0.00000000    0.00000000
     atom   44 type  2   force =     0.00000000    0.00000000    0.00000000
     atom   45 type  2   force =     0.00000000    0.00000000    0.00000000
     atom   46 type  2   force =     0.00000000    0.00000000    0.00000000
     atom   47 type  2   force =     0.00000000    0.00000000    0.00000000
     atom   48 type  2   force =     0.00000000    0.00000000    0.00000000
     atom   49 type  2   force =     0.00000000    0.00000000    0.00000000
     atom   50 type  2   force =     0.00000000    0.00000000    0.00000000
     atom   51 type  2   force =     0.00000000    0.00000000    0.00000000
     atom   52 type  2   force =     0.00000000    0.00000000    0.00000000
     The SCF correction term to forces
     atom    1 type  1   force =     0.00000004   -0.00000002    0.00000003
     atom    2 type  1   force =     0.00000002   -0.00000001    0.00000005
     atom    3 type  2   force =    -0.00000005    0.00000003   -0.00000003
     atom    4 type  2   force =    -0.00000005    0.00000008   -0.00000003
     atom    5 type  2   force =     0.00000000    0.00000002   -0.00000002
     atom    6 type  2   force =     0.00000003   -0.00000009   -0.00000003
     atom    7 type  2   force =    -0.00000003   -0.00000015   -0.00000003
     atom    8 type  2   force =    -0.00000009   -0.00000019   -0.00000004
     atom    9 type  2   force =    -0.00000011   -0.00000011   -0.00000004
     atom   10 type  2   force =    -0.00000009    0.00000002   -0.00000003
     atom   11 type  2   force =    -0.00000011    0.00000004   -0.00000003
     atom   12 type  2   force =    -0.00000005    0.00000003   -0.00000004
     atom   13 type  2   force =    -0.00000009    0.00000007   -0.00000003
     atom   14 type  2   force =    -0.00000007   -0.00000002   -0.00000005
     atom   15 type  2   force =    -0.00000010   -0.00000003   -0.00000005
     atom   16 type  2   force =    -0.00000025   -0.00000016   -0.00000010
     atom   17 type  2   force =    -0.00000009   -0.00000016   -0.00000008
     atom   18 type  2   force =    -0.00000005   -0.00000020   -0.00000009
     atom   19 type  2   force =    -0.00000000   -0.00000013   -0.00000003
     atom   20 type  2   force =    -0.00000005    0.00000003   -0.00000003
     atom   21 type  2   force =    -0.00000007    0.00000004   -0.00000003
     atom   22 type  2   force =    -0.00000006    0.00000007   -0.00000003
     atom   23 type  2   force =     0.00000005    0.00000015   -0.00000004
     atom   24 type  2   force =     0.00000011    0.00000006   -0.00000005
     atom   25 type  2   force =     0.00000002   -0.00000010   -0.00000007
     atom   26 type  2   force =     0.00000009   -0.00000019   -0.00000013
     atom   27 type  2   force =    -0.00000015   -0.00000023   -0.00000023
     atom   28 type  3   force =    -0.00000010    0.00000006    0.00000006
     atom   29 type  2   force =    -0.00000018    0.00000010   -0.00000017
     atom   30 type  2   force =     0.00000015    0.00000014   -0.00000009
     atom   31 type  2   force =     0.00000011    0.00000006   -0.00000003
     atom   32 type  2   force =     0.00000012    0.00000017   -0.00000004
     atom   33 type  2   force =     0.00000012    0.00000010   -0.00000003
     atom   34 type  2   force =     0.00000004    0.00000008   -0.00000003
     atom   35 type  2   force =     0.00000010    0.00000004   -0.00000005
     atom   36 type  2   force =     0.00000017   -0.00000010   -0.00000006
     atom   37 type  2   force =     0.00000024   -0.00000014   -0.00000011
     atom   38 type  2   force =     0.00000021    0.00000002   -0.00000013
     atom   39 type  2   force =     0.00000012    0.00000024   -0.00000023
     atom   40 type  2   force =     0.00000001    0.00000029   -0.00000010
     atom   41 type  2   force =     0.00000009    0.00000016   -0.00000008
     atom   42 type  2   force =     0.00000009    0.00000002   -0.00000003
     atom   43 type  2   force =    -0.00000001   -0.00000001   -0.00000002
     atom   44 type  2   force =    -0.00000002    0.00000001   -0.00000002
     atom   45 type  2   force =    -0.00000003    0.00000002   -0.00000003
     atom   46 type  2   force =    -0.00000005   -0.00000007   -0.00000003
     atom   47 type  2   force =     0.00000002   -0.00000011   -0.00000005
     atom   48 type  2   force =     0.00000001   -0.00000013   -0.00000005
     atom   49 type  2   force =     0.00000010    0.00000003   -0.00000007
     atom   50 type  2   force =    -0.00000002    0.00000008   -0.00000005
     atom   51 type  2   force =    -0.00000003    0.00000010   -0.00000005
     atom   52 type  2   force =    -0.00000010    0.00000001   -0.00000003

     Total force =     0.002657     Total SCF correction =     0.000001

     bfgs converged in  44 scf cycles and  43 bfgs steps
     (criteria: energy <  1.0E-04 Ry, force <  1.0E-03 Ry/Bohr)

     End of BFGS Geometry Optimization

     Final energy   =    -735.5955712085 Ry
Begin final coordinates

ATOMIC_POSITIONS (angstrom)
H        3.744687785   4.954703943   2.670239403
H        3.174678924   5.283798712   3.133265727
C        0.004088861  -0.002360704  -0.069673401
C        0.015752350   1.432778841  -0.032984833
C       -1.215821743   2.137465596  -0.018518814
C       -1.207249807   3.569902466   0.047023717
C       -2.448350795   4.270758657  -0.038778994
C       -2.461762436   5.693753068  -0.070883455
C       -3.689850715   6.404483315  -0.155671911
C       -3.702884761   7.828482185  -0.159058930
C       -4.934699398   8.538218592  -0.153083455
C       -4.929760641   9.962899077  -0.127442586
C        2.464822848   0.004465743  -0.153083455
C        2.474786148   1.432693634  -0.114933705
C        1.252816127   2.159941475  -0.028586869
C        1.265861696   3.610075500   0.103114376
C        0.006228652   4.298777476   0.211522344
C       -0.039373959   5.730564919   0.364812396
C       -1.249687818   6.418726072   0.069547276
C       -1.252275296   7.839701922   0.009634184
C       -2.474186988   8.545172967  -0.121506580
C       -2.467863451   9.967601842  -0.159058930
C        4.935116144  -0.006737202  -0.155671911
C        4.950932890   1.412090656  -0.171250209
C        3.719541035   2.120222963  -0.137865740
C        3.740891593   3.543774898  -0.066600453
C        2.548005779   4.231291935   0.117093910
Cu       2.593854662   5.619137756   1.517071107
C        1.074798559   6.496165206   0.786815853
C        1.180741599   7.843867055   0.364812396
C       -0.020380372   8.547949027   0.069547276
C        0.001427358   9.960122939  -0.070883455
C        7.403725863  -0.015045343  -0.038778994
C        7.417105471   1.404786724  -0.109198740
C        6.189478206   2.112582110  -0.164803245
C        6.199347113   3.537505719  -0.172088340
C        4.985741965   4.238180978  -0.119133240
C        4.964690084   5.663456065  -0.066600453
C        3.772839957   6.352766964   0.117093910
C        3.669757130   7.773744528   0.103114376
C        2.443507201   8.520267756   0.211522344
C        2.467992248   9.935608434   0.047023717
C        9.867476373  -0.015800283  -0.018518814
C        9.879602901   1.412709049  -0.051049666
C        8.649040136   2.123174793  -0.086084888
C        8.655215120   3.549255543  -0.109198740
C        7.428432703   4.258514248  -0.164803245
C        7.415803439   5.681371682  -0.171250209
C        6.186846945   6.393722157  -0.137865740
C        6.159887365   7.815476176  -0.114933705
C        4.919087250   8.510109335  -0.028586869
C        4.930296676   9.945019309  -0.032984833
End final coordinates

     Writing output data file cobre-sixhollow-2.8.save/

     General routines

     Parallel routines

   This run was terminated on:  11: 6: 5  15Sep2022

   JOB DONE.