     Program PWSCF v.6.4.1 starts on 20May2022 at 22:32: 6

     R & G space division:  proc/nbgrp/npool/nimage =       6
     Reading input from gr-v.in

     Current dimensions of program PWSCF are:
     Max number of different atomic species (ntypx) = 10
     Max number of k-points (npk) =  40000
     Max angular momentum in pseudopotentials (lmaxx) =  3
               file V.pbe-spnl-rrkjus_psl.1.0.0.UPF: wavefunction(s)  3P 3D renormalized

     Subspace diagonalization in iterative solution of the eigenvalue problem:
     a serial algorithm will be used

     bravais-lattice index     =            4
     lattice parameter (alat)  =      23.2937  a.u.
     unit-cell volume          =    8879.8548 (a.u.)^3
     number of atoms/cell      =           50
     number of atomic types    =            2
     number of electrons       =       209.00
     number of Kohn-Sham states=          126
     kinetic-energy cutoff     =      70.0000  Ry
     charge density cutoff     =     490.0000  Ry
     convergence threshold     =      1.0E-06
     mixing beta               =       0.7000
     number of iterations used =            8  plain     mixing
     Exchange-correlation      = PBE ( 1  4  3  4 0 0)

     celldm(1)=  23.293684  celldm(2)=   0.000000  celldm(3)=   0.811261
     celldm(4)=   0.000000  celldm(5)=   0.000000  celldm(6)=   0.000000

     crystal axes: (cart. coord. in units of alat)
               a(1) = (   1.000000   0.000000   0.000000 )
               a(2) = (  -0.500000   0.866025   0.000000 )
               a(3) = (   0.000000   0.000000   0.811261 )

     reciprocal axes: (cart. coord. in units 2 pi/alat)
               b(1) = (  1.000000  0.577350 -0.000000 )
               b(2) = (  0.000000  1.154701  0.000000 )
               b(3) = (  0.000000 -0.000000  1.232649 )

     PseudoPot. # 1 for C  read from file:
     /home/cristian/Escritorio/Proyecto_Grafeno/pseudopotenciales/C.pbe-n-rrkjus_psl.1.0.0.UPF
     MD5 check sum: 1fdd950c42eb37d8afe3dd2f8d12311e
     Pseudo is Ultrasoft + core correction, Zval =  4.0
     Generated using "atomic" code by A. Dal Corso v.6.3MaX
     Using radial grid of 1073 points,  4 beta functions with:
                l(1) =   0
                l(2) =   0
                l(3) =   1
                l(4) =   1
     Q(r) pseudized with 0 coefficients

     PseudoPot. # 2 for V  read from file:
     /home/cristian/Escritorio/Proyecto_Grafeno/pseudopotenciales/V.pbe-spnl-rrkjus_psl.1.0.0.UPF
     MD5 check sum: 79b3eb63147daf0b665d9f1bcc691206
     Pseudo is Ultrasoft + core correction, Zval = 13.0
     Generated using "atomic" code by A. Dal Corso v.6.2.2
     Using radial grid of 1181 points,  6 beta functions with:
                l(1) =   0
                l(2) =   0
                l(3) =   1
                l(4) =   1
                l(5) =   2
                l(6) =   2
     Q(r) pseudized with 0 coefficients

     atomic species   valence    mass     pseudopotential
        C              4.00    12.01070     C ( 1.00)
        V             13.00    50.94150     V ( 1.00)

      4 Sym. Ops. (no inversion) found

                                    s                        frac. trans.

      isym =  1     identity

 cryst.   s( 1) = (     1          0          0      )
                  (     0          1          0      )
                  (     0          0          1      )

 cart.    s( 1) = (  1.0000000  0.0000000  0.0000000 )
                  (  0.0000000  1.0000000  0.0000000 )
                  (  0.0000000  0.0000000  1.0000000 )

      isym =  2     180 deg rotation - cryst. axis [1,-1,0]

[...]

      isym =  3     inv. 180 deg rotation - cart. axis [0,0,1]

[...]

      isym =  4     inv. 180 deg rotation - cryst. axis [1,1,0]

 cryst.   s( 4) = (     0         -1          0      )
                  (    -1          0          0      )
                  (     0          0          1      )

 cart.    s( 4) = (  0.5000000 -0.8660254  0.0000000 )
                  ( -0.8660254 -0.5000000  0.0000000 )
                  (  0.0000000  0.0000000  1.0000000 )

     point group C_2v (mm2)
     there are  4 classes
     the character table:

       E     C2    s_v   s_v'
A_1    1.00  1.00  1.00  1.00
A_2    1.00  1.00 -1.00 -1.00
B_1    1.00 -1.00  1.00 -1.00
B_2    1.00 -1.00 -1.00  1.00

     the symmetry operations in each class and the name of the first element:

     E        1
          identity
     C2       2
          180 deg rotation - cryst. axis [1,-1,0]
     s_v      4
          inv. 180 deg rotation - cryst. axis [1,1,0]
     s_v'     3
          inv. 180 deg rotation - cart. axis [0,0,1]

   Cartesian axes

     site n.     atom                  positions (alat units)
         1           C   tau(   1) = (   0.0000000   0.0000000   0.0000000  )
         2           C   tau(   2) = (   0.0000000   0.1154701   0.0000000  )
         3           C   tau(   3) = (  -0.1000000   0.1732051   0.0000000  )
         4           C   tau(   4) = (  -0.1000000   0.2886751   0.0000000  )
         5           C   tau(   5) = (  -0.2000000   0.3464102   0.0000000  )
         6           C   tau(   6) = (  -0.2000000   0.4618802   0.0000000  )
         7           C   tau(   7) = (  -0.3000000   0.5196152   0.0000000  )
         8           C   tau(   8) = (  -0.3000000   0.6350853   0.0000000  )
         9           C   tau(   9) = (  -0.4000000   0.6928203   0.0000000  )
        10           C   tau(  10) = (  -0.4000000   0.8082904   0.0000000  )
        11           C   tau(  11) = (   0.2000000   0.0000000   0.0000000  )
        12           C   tau(  12) = (   0.2000000   0.1154701   0.0000000  )
        13           C   tau(  13) = (   0.1000000   0.1732051   0.0000000  )
        14           C   tau(  14) = (   0.1000000   0.2886751   0.0000000  )
        15           C   tau(  15) = (   0.0000000   0.3464102   0.0000000  )
        16           C   tau(  16) = (   0.0000000   0.4618802   0.0000000  )
        17           C   tau(  17) = (  -0.1000000   0.5196152   0.0000000  )
        18           C   tau(  18) = (  -0.1000000   0.6350853   0.0000000  )
        19           C   tau(  19) = (  -0.2000000   0.6928203   0.0000000  )
        20           C   tau(  20) = (  -0.2000000   0.8082904   0.0000000  )
        21           C   tau(  21) = (   0.4000000   0.0000000   0.0000000  )
        22           C   tau(  22) = (   0.4000000   0.1154701   0.0000000  )
        23           C   tau(  23) = (   0.3000000   0.1732051   0.0000000  )
        24           C   tau(  24) = (   0.3000000   0.2886751   0.0000000  )
        25           C   tau(  25) = (   0.2000000   0.3464102   0.0000000  )
        26           V   tau(  26) = (   0.2000000   0.4618802   0.0000000  )
        27           C   tau(  27) = (   0.1000000   0.5196152   0.0000000  )
        28           C   tau(  28) = (   0.1000000   0.6350853   0.0000000  )
        29           C   tau(  29) = (   0.0000000   0.6928203   0.0000000  )
        30           C   tau(  30) = (   0.0000000   0.8082904   0.0000000  )
        31           C   tau(  31) = (   0.6000000   0.0000000   0.0000000  )
        32           C   tau(  32) = (   0.6000000   0.1154701   0.0000000  )
        33           C   tau(  33) = (   0.5000000   0.1732051   0.0000000  )
        34           C   tau(  34) = (   0.5000000   0.2886751   0.0000000  )
        35           C   tau(  35) = (   0.4000000   0.3464102   0.0000000  )
        36           C   tau(  36) = (   0.4000000   0.4618802   0.0000000  )
        37           C   tau(  37) = (   0.3000000   0.5196152   0.0000000  )
        38           C   tau(  38) = (   0.3000000   0.6350853   0.0000000  )
        39           C   tau(  39) = (   0.2000000   0.6928203   0.0000000  )
        40           C   tau(  40) = (   0.2000000   0.8082904   0.0000000  )
        41           C   tau(  41) = (   0.8000000   0.0000000   0.0000000  )
        42           C   tau(  42) = (   0.8000000   0.1154701   0.0000000  )
        43           C   tau(  43) = (   0.7000000   0.1732051   0.0000000  )
        44           C   tau(  44) = (   0.7000000   0.2886751   0.0000000  )
        45           C   tau(  45) = (   0.6000000   0.3464102   0.0000000  )
        46           C   tau(  46) = (   0.6000000   0.4618802   0.0000000  )
        47           C   tau(  47) = (   0.5000000   0.5196152   0.0000000  )
        48           C   tau(  48) = (   0.5000000   0.6350853   0.0000000  )
        49           C   tau(  49) = (   0.4000000   0.6928203   0.0000000  )
        50           C   tau(  50) = (   0.4000000   0.8082904   0.0000000  )

   Crystallographic axes

     site n.     atom                  positions (cryst. coord.)
         1           C   tau(   1) = (  0.0000000  0.0000000  0.0000000  )
         2           C   tau(   2) = (  0.0666667  0.1333333  0.0000000  )
         3           C   tau(   3) = (  0.0000000  0.2000000  0.0000000  )
         4           C   tau(   4) = (  0.0666667  0.3333333  0.0000000  )
         5           C   tau(   5) = (  0.0000000  0.4000000  0.0000000  )
         6           C   tau(   6) = (  0.0666667  0.5333333  0.0000000  )
         7           C   tau(   7) = (  0.0000000  0.6000000  0.0000000  )
         8           C   tau(   8) = (  0.0666667  0.7333333  0.0000000  )
         9           C   tau(   9) = (  0.0000000  0.8000000  0.0000000  )
        10           C   tau(  10) = (  0.0666667  0.9333333  0.0000000  )
        11           C   tau(  11) = (  0.2000000  0.0000000  0.0000000  )
        12           C   tau(  12) = (  0.2666667  0.1333333  0.0000000  )
        13           C   tau(  13) = (  0.2000000  0.2000000  0.0000000  )
        14           C   tau(  14) = (  0.2666667  0.3333333  0.0000000  )
        15           C   tau(  15) = (  0.2000000  0.4000000  0.0000000  )
        16           C   tau(  16) = (  0.2666667  0.5333333  0.0000000  )
        17           C   tau(  17) = (  0.2000000  0.6000000  0.0000000  )
        18           C   tau(  18) = (  0.2666667  0.7333333  0.0000000  )
        19           C   tau(  19) = (  0.2000000  0.8000000  0.0000000  )
        20           C   tau(  20) = (  0.2666667  0.9333333  0.0000000  )
        21           C   tau(  21) = (  0.4000000  0.0000000  0.0000000  )
        22           C   tau(  22) = (  0.4666667  0.1333333  0.0000000  )
        23           C   tau(  23) = (  0.4000000  0.2000000  0.0000000  )
        24           C   tau(  24) = (  0.4666667  0.3333333  0.0000000  )
        25           C   tau(  25) = (  0.4000000  0.4000000  0.0000000  )
        26           V   tau(  26) = (  0.4666667  0.5333333  0.0000000  )
        27           C   tau(  27) = (  0.4000000  0.6000000  0.0000000  )
        28           C   tau(  28) = (  0.4666667  0.7333333  0.0000000  )
        29           C   tau(  29) = (  0.4000000  0.8000000  0.0000000  )
        30           C   tau(  30) = (  0.4666667  0.9333333  0.0000000  )
        31           C   tau(  31) = (  0.6000000  0.0000000  0.0000000  )
        32           C   tau(  32) = (  0.6666667  0.1333333  0.0000000  )
        33           C   tau(  33) = (  0.6000000  0.2000000  0.0000000  )
        34           C   tau(  34) = (  0.6666667  0.3333333  0.0000000  )
        35           C   tau(  35) = (  0.6000000  0.4000000  0.0000000  )
        36           C   tau(  36) = (  0.6666667  0.5333333  0.0000000  )
        37           C   tau(  37) = (  0.6000000  0.6000000  0.0000000  )
        38           C   tau(  38) = (  0.6666667  0.7333333  0.0000000  )
        39           C   tau(  39) = (  0.6000000  0.8000000  0.0000000  )
        40           C   tau(  40) = (  0.6666667  0.9333333  0.0000000  )
        41           C   tau(  41) = (  0.8000000  0.0000000  0.0000000  )
        42           C   tau(  42) = (  0.8666667  0.1333333  0.0000000  )
        43           C   tau(  43) = (  0.8000000  0.2000000  0.0000000  )
        44           C   tau(  44) = (  0.8666667  0.3333333  0.0000000  )
        45           C   tau(  45) = (  0.8000000  0.4000000  0.0000000  )
        46           C   tau(  46) = (  0.8666667  0.5333333  0.0000000  )
        47           C   tau(  47) = (  0.8000000  0.6000000  0.0000000  )
        48           C   tau(  48) = (  0.8666667  0.7333333  0.0000000  )
        49           C   tau(  49) = (  0.8000000  0.8000000  0.0000000  )
        50           C   tau(  50) = (  0.8666667  0.9333333  0.0000000  )

     number of k points=     3  Marzari-Vanderbilt smearing, width (Ry)=  0.0010
                       cart. coord. in units 2pi/alat
        k(    1) = (   0.0000000   0.0000000   0.0000000), wk =   0.5000000
        k(    2) = (   0.0000000  -0.5773503   0.0000000), wk =   1.0000000
        k(    3) = (   0.5000000  -0.2886751   0.0000000), wk =   0.5000000

                       cryst. coord.
        k(    1) = (   0.0000000   0.0000000   0.0000000), wk =   0.5000000
        k(    2) = (   0.0000000  -0.5000000   0.0000000), wk =   1.0000000
        k(    3) = (   0.5000000  -0.5000000   0.0000000), wk =   0.5000000

     Check: negative core charge=   -0.000002

     Initial potential from superposition of free atoms

     starting charge  208.99705, renormalised to  209.00000

     negative rho (up, down):  2.244E-04 0.000E+00
     Starting wfcs are  206 randomized atomic wfcs

     Self-consistent Calculation

     iteration #  1     ecut=    70.00 Ry     beta= 0.70
     Davidson diagonalization with overlap
     ethr =  1.00E-02,  avg # of iterations =  3.0

     negative rho (up, down):  3.454E-03 0.000E+00

     total energy              =    -751.10742952 Ry
     Harris-Foulkes estimate   =    -755.89595418 Ry
     estimated scf accuracy    <       7.21967618 Ry

[...]

     total energy              =    -753.12066209 Ry
     Harris-Foulkes estimate   =    -753.12066221 Ry
     estimated scf accuracy    <       0.00000192 Ry

     iteration # 16     ecut=    70.00 Ry     beta= 0.70
     Davidson diagonalization with overlap
     ethr =  8.13E-10,  avg # of iterations =  3.0

     negative rho (up, down):  3.043E-02 0.000E+00

     End of self-consistent calculation

          k = 0.0000 0.0000 0.0000 ( 87777 PWs)   bands (ev):

   -62.6546 -37.8208 -37.8207 -36.4247 -19.6932 -18.8325 -18.8325 -18.7984
   -18.7704 -18.7703 -18.3076 -17.0021 -17.0020 -16.9999 -16.8514 -16.8514
   -16.5843 -16.1321 -16.1320 -16.0725 -15.8984 -15.8984 -15.1411 -13.9373
   -13.9150 -13.9150 -13.8806 -13.8805 -13.2497 -12.9888 -12.9888 -12.9706
   -12.5866 -12.5866 -12.1394 -11.7004 -11.7004 -11.5876 -11.1979 -11.1979
   -10.1913  -9.3999  -9.3999  -9.2804  -9.2021  -9.2021  -9.1414  -9.1273
    -9.1273  -9.1136  -8.5238  -8.5238  -7.9724  -7.9724  -7.8925  -7.8153
    -7.7297  -7.2972  -7.2972  -6.9551  -6.9551  -6.9241  -6.7462  -6.7462
    -6.7264  -6.6408  -6.6408  -6.5592  -6.4566  -6.4566  -6.4427  -6.4306
    -6.4305  -6.3828  -6.3354  -5.3002  -5.3002  -5.1527  -5.1526  -4.9705
    -4.9705  -4.8390  -4.7942  -4.6486  -4.6378  -4.6378  -4.2766  -4.0276
    -4.0276  -3.7566  -3.7565  -3.7140  -3.5195  -3.5195  -3.4880  -2.9394
    -2.2745  -2.2745  -2.1986  -2.1985  -1.7727  -1.7398  -1.7398  -0.6210
    -0.1359  -0.1358   1.0240   1.0406   1.0407   1.0914   1.8076   2.0417
     2.0418   2.8944   2.9020   2.9021   2.9329   3.6890   3.9302   3.9302
     3.9899   3.9900   4.0604   4.0604   4.0872   4.2749

     occupation numbers
     1.0000   1.0000   1.0000   1.0000   1.0000   1.0000   1.0000   1.0000
     1.0000   1.0000   1.0000   1.0000   1.0000   1.0000   1.0000   1.0000
     1.0000   1.0000   1.0000   1.0000   1.0000   1.0000   1.0000   1.0000
     1.0000   1.0000   1.0000   1.0000   1.0000   1.0000   1.0000   1.0000
     1.0000   1.0000   1.0000   1.0000   1.0000   1.0000   1.0000   1.0000
     1.0000   1.0000   1.0000   1.0000   1.0000   1.0000   1.0000   1.0000
     1.0000   1.0000   1.0000   1.0000   1.0000   1.0000   1.0000   1.0000
     1.0000   1.0000   1.0000   1.0000   1.0000   1.0000   1.0000   1.0000
     1.0000   1.0000   1.0000   1.0000   1.0000   1.0000   1.0000   1.0000
     1.0000   1.0000   1.0000   1.0000   1.0000   1.0000   1.0000   1.0000
     1.0000   1.0000   1.0000   1.0000   1.0000   1.0000   1.0000   1.0000
     1.0000   1.0000   1.0000   1.0000   1.0000   1.0000   1.0000   1.0000
     1.0000   1.0000   1.0000   1.0000   1.0000   1.0000   1.0000   1.0000
     1.0003   0.9997   0.0000   0.0000   0.0000   0.0000   0.0000   0.0000
     0.0000   0.0000   0.0000   0.0000   0.0000   0.0000   0.0000   0.0000
     0.0000   0.0000   0.0000   0.0000   0.0000   0.0000

[...]

          k = 0.5000-0.2887 0.0000 ( 87818 PWs)   bands (ev):

   -62.6546 -37.8208 -37.8207 -36.4247 -19.5156 -19.4043 -19.0341 -18.8876
   -18.1419 -18.0792 -18.0581 -17.8816 -17.5835 -17.4122 -16.7599 -16.7342
   -16.5925 -16.3297 -15.4574 -15.4120 -15.2855 -15.2404 -15.0795 -14.8979
   -14.8858 -14.6215 -14.1161 -13.6998 -13.5017 -13.0698 -12.6532 -12.5545
   -12.3859 -12.3698 -11.9331 -11.5915 -11.2481 -11.1784 -10.9535 -10.6483
   -10.5612 -10.3202 -10.3085  -9.9348  -9.8943  -9.3652  -9.1767  -8.8380
    -8.8069  -8.7057  -8.3837  -8.1308  -7.9520  -7.7324  -7.6198  -7.5912
    -7.4863  -7.4631  -7.4122  -7.1575  -7.1372  -7.1278  -7.0313  -6.9628
    -6.8931  -6.8508  -6.4044  -6.3751  -6.3045  -6.2256  -6.1239  -6.0057
    -5.9484  -5.9090  -5.8651  -5.8050  -5.7080  -5.6925  -5.5545  -5.2269
    -5.1987  -4.9368  -4.9246  -4.5191  -4.4242  -4.3922  -4.3758  -4.1888
    -4.1078  -3.8581  -3.6659  -3.3340  -3.2934  -2.9647  -2.8861  -2.8817
    -2.7756  -2.7519  -2.6545  -2.1838  -2.0877  -1.8199  -1.5729  -0.7593
    -0.0611   0.0237   1.0384   1.1043   1.1164   1.6624   1.8223   1.9561
     2.2685   2.3218   2.4458   3.0792   3.1502   3.2620   3.2769   3.6713
     3.8977   3.9178   4.0760   4.3458   4.5935   4.7865

     occupation numbers
     1.0000   1.0000   1.0000   1.0000   1.0000   1.0000   1.0000   1.0000
     1.0000   1.0000   1.0000   1.0000   1.0000   1.0000   1.0000   1.0000
     1.0000   1.0000   1.0000   1.0000   1.0000   1.0000   1.0000   1.0000
     1.0000   1.0000   1.0000   1.0000   1.0000   1.0000   1.0000   1.0000
     1.0000   1.0000   1.0000   1.0000   1.0000   1.0000   1.0000   1.0000
     1.0000   1.0000   1.0000   1.0000   1.0000   1.0000   1.0000   1.0000
     1.0000   1.0000   1.0000   1.0000   1.0000   1.0000   1.0000   1.0000
     1.0000   1.0000   1.0000   1.0000   1.0000   1.0000   1.0000   1.0000
     1.0000   1.0000   1.0000   1.0000   1.0000   1.0000   1.0000   1.0000
     1.0000   1.0000   1.0000   1.0000   1.0000   1.0000   1.0000   1.0000
     1.0000   1.0000   1.0000   1.0000   1.0000   1.0000   1.0000   1.0000
     1.0000   1.0000   1.0000   1.0000   1.0000   1.0000   1.0000   1.0000
     1.0000   1.0000   1.0000   1.0000   1.0000   1.0000   1.0000   1.0000
     0.0000   0.0000   0.0000   0.0000   0.0000   0.0000   0.0000   0.0000
     0.0000   0.0000   0.0000   0.0000   0.0000   0.0000   0.0000   0.0000
     0.0000   0.0000   0.0000   0.0000   0.0000   0.0000

     the Fermi energy is    -0.1233 ev

!    total energy              =    -753.12066241 Ry
     Harris-Foulkes estimate   =    -753.12066245 Ry
     estimated scf accuracy    <       0.00000014 Ry

     The total energy is the sum of the following terms:

     one-electron contribution =   -2596.12901077 Ry
     hartree contribution      =    1344.48950481 Ry
     xc contribution           =    -249.18977414 Ry
     ewald contribution        =     747.70853615 Ry
     smearing contrib. (-TS)   =       0.00008155 Ry

     convergence has been achieved in  16 iterations

     Writing output data file gr-12.save/

     General routines

     Parallel routines

   This run was terminated on:  23:14:22  20May2022

   JOB DONE.