     Program PWSCF v.6.4.1 starts on  1Aug2022 at 12:17:23

     R & G space division:  proc/nbgrp/npool/nimage =       6
     Reading input from mn-2.in

     Current dimensions of program PWSCF are:
     Max number of different atomic species (ntypx) = 10
     Max number of k-points (npk) =  40000
     Max angular momentum in pseudopotentials (lmaxx) =  3
               file Mn.pbe-spn-rrkjus_psl.0.3.1.UPF: wavefunction(s)  3D renormalized

     Subspace diagonalization in iterative solution of the eigenvalue problem:
     a serial algorithm will be used

     Message from routine setup:
     DEPRECATED: symmetry with ibrav=0, use correct ibrav instead

     bravais-lattice index     =            0
     lattice parameter (alat)  =      14.5833  a.u.
     unit-cell volume          =    2387.5141 (a.u.)^3
     number of atoms/cell      =           29
     number of atomic types    =            1
     number of electrons       =       435.00
     number of Kohn-Sham states=          262
     kinetic-energy cutoff     =      70.0000  Ry
     charge density cutoff     =     700.0000  Ry
     convergence threshold     =      1.0E-06
     mixing beta               =       0.7000
     number of iterations used =            8  plain     mixing
     Exchange-correlation      = PBE ( 1  4  3  4 0 0)

     celldm(1)=  14.583305  celldm(2)=   0.000000  celldm(3)=   0.000000
     celldm(4)=   0.000000  celldm(5)=   0.000000  celldm(6)=   0.000000

     crystal axes: (cart. coord. in units of alat)
               a(1) = (  -0.577350   0.577350   0.577350 )
               a(2) = (   0.577350  -0.577350   0.577350 )
               a(3) = (   0.577350   0.577350  -0.577350 )

     reciprocal axes: (cart. coord. in units 2 pi/alat)
               b(1) = (  0.000000  0.866025  0.866025 )
               b(2) = (  0.866025  0.000000  0.866025 )
               b(3) = (  0.866025  0.866025  0.000000 )

     PseudoPot. # 1 for Mn read from file:
     /home/cristian/Escritorio/Proyecto_Grafeno/pseudopotenciales/Mn.pbe-spn-rrkjus_psl.0.3.1.UPF
     MD5 check sum: e1cac159bdd2ba70c18e85765a5d4279
     Pseudo is Ultrasoft + core correction, Zval = 15.0
     Generated using "atomic" code by A. Dal Corso v.6.2.2
     Using radial grid of 1187 points,  6 beta functions with:
                l(1) =   0
                l(2) =   0
                l(3) =   1
                l(4) =   1
                l(5) =   2
                l(6) =   2
     Q(r) pseudized with 0 coefficients

     atomic species   valence    mass     pseudopotential
        Mn            15.00    54.93804     Mn( 1.00)

     Starting magnetic structure
     atomic species   magnetization
        Mn           0.700

     24 Sym. Ops. (no inversion) found

                                    s                        frac. trans.

      isym =  1     identity

 cryst.   s( 1) = (     1          0          0      )
                  (     0          1          0      )
                  (     0          0          1      )

 cart.    s( 1) = (  1.0000000  0.0000000  0.0000000 )
                  (  0.0000000  1.0000000  0.0000000 )
                  (  0.0000000  0.0000000  1.0000000 )

      isym =  2     180 deg rotation - cart. axis [0,0,1]

[...]

 cryst.   s( 9) = (     0          1          0      )
                  (     0          0          1      )
                  (     1          0          0      )

 cart.    s( 9) = (  0.0000000  0.0000000  1.0000000 )
                  (  1.0000000  0.0000000  0.0000000 )
                  (  0.0000000  1.0000000  0.0000000 )

[...]

 cryst.   s(10) = (     0          0          1      )
                  (     0          1          0      )
                  (    -1         -1         -1      )

 cart.    s(10) = (  0.0000000  0.0000000  1.0000000 )
                  ( -1.0000000  0.0000000  0.0000000 )
                  (  0.0000000 -1.0000000  0.0000000 )

[...]

      isym = 12     120 deg rotation - cart. axis [-1,-1,1]

[...]

      isym = 13     inv. 180 deg rotation - cart. axis [1,1,0]

[...]

      isym = 24     inv.  90 deg rotation - cart. axis [1,0,0]

 cryst.   s(24) = (     0          0          1      )
                  (     1          0          0      )
                  (    -1         -1         -1      )

 cart.    s(24) = ( -1.0000000  0.0000000  0.0000000 )
                  (  0.0000000  0.0000000  1.0000000 )
                  (  0.0000000 -1.0000000  0.0000000 )

   Cartesian axes

     site n.     atom                  positions (alat units)
         1           Mn  tau(   1) = (   0.0000000   0.0000000   0.0000000  )
         2           Mn  tau(   2) = (   0.3670447   0.3670447   0.3670447  )
         3           Mn  tau(   3) = (   0.2103056   0.2103056  -0.2103056  )
         4           Mn  tau(   4) = (   0.2103056  -0.2103056   0.2103056  )
         5           Mn  tau(   5) = (  -0.2103056   0.2103056   0.2103056  )
         6           Mn  tau(   6) = (   0.4739122   0.4739122  -0.2517940  )
         7           Mn  tau(   7) = (   0.1034381   0.1034381   0.3255563  )
         8           Mn  tau(   8) = (   0.1034381  -0.1034381   0.8291443  )
         9           Mn  tau(   9) = (  -0.1034381   0.1034381   0.8291443  )
        10           Mn  tau(  10) = (  -0.2517940   0.4739122   0.4739122  )
        11           Mn  tau(  11) = (   0.3255563   0.1034381   0.1034381  )
        12           Mn  tau(  12) = (   0.8291443   0.1034381  -0.1034381  )
        13           Mn  tau(  13) = (   0.8291443  -0.1034381   0.1034381  )
        14           Mn  tau(  14) = (   0.4739122  -0.2517940   0.4739122  )
        15           Mn  tau(  15) = (   0.1034381   0.3255563   0.1034381  )
        16           Mn  tau(  16) = (  -0.1034381   0.8291443   0.1034381  )
        17           Mn  tau(  17) = (   0.1034381   0.8291443  -0.1034381  )
        18           Mn  tau(  18) = (   0.1650529   0.1650529   0.6172683  )
        19           Mn  tau(  19) = (   0.4122974   0.4122974   0.0399180  )
        20           Mn  tau(  20) = (  -0.1650529   0.1650529   0.5374323  )
        21           Mn  tau(  21) = (   0.1650529  -0.1650529   0.5374323  )
        22           Mn  tau(  22) = (   0.6172683   0.1650529   0.1650529  )
        23           Mn  tau(  23) = (   0.0399180   0.4122974   0.4122974  )
        24           Mn  tau(  24) = (   0.5374323  -0.1650529   0.1650529  )
        25           Mn  tau(  25) = (   0.5374323   0.1650529  -0.1650529  )
        26           Mn  tau(  26) = (   0.1650529   0.6172683   0.1650529  )
        27           Mn  tau(  27) = (   0.4122974   0.0399180   0.4122974  )
        28           Mn  tau(  28) = (   0.1650529   0.5374323  -0.1650529  )
        29           Mn  tau(  29) = (  -0.1650529   0.5374323   0.1650529  )

   Crystallographic axes

     site n.     atom                  positions (cryst. coord.)
         1           Mn  tau(   1) = (  0.0000000  0.0000000  0.0000000  )
         2           Mn  tau(   2) = (  0.6357400  0.6357400  0.6357400  )
         3           Mn  tau(   3) = (  0.0000000  0.0000000  0.3642600  )
         4           Mn  tau(   4) = (  0.0000000  0.3642600  0.0000000  )
         5           Mn  tau(   5) = (  0.3642600  0.0000000  0.0000000  )
         6           Mn  tau(   6) = (  0.1923600  0.1923600  0.8208400  )
         7           Mn  tau(   7) = (  0.3715200  0.3715200  0.1791600  )
         8           Mn  tau(   8) = (  0.6284800  0.8076400  0.0000000  )
         9           Mn  tau(   9) = (  0.8076400  0.6284800  0.0000000  )
        10           Mn  tau(  10) = (  0.8208400  0.1923600  0.1923600  )
        11           Mn  tau(  11) = (  0.1791600  0.3715200  0.3715200  )
        12           Mn  tau(  12) = (  0.0000000  0.6284800  0.8076400  )
        13           Mn  tau(  13) = (  0.0000000  0.8076400  0.6284800  )
        14           Mn  tau(  14) = (  0.1923600  0.8208400  0.1923600  )
        15           Mn  tau(  15) = (  0.3715200  0.1791600  0.3715200  )
        16           Mn  tau(  16) = (  0.8076400  0.0000000  0.6284800  )
        17           Mn  tau(  17) = (  0.6284800  0.0000000  0.8076400  )
        18           Mn  tau(  18) = (  0.6775100  0.6775100  0.2858800  )
        19           Mn  tau(  19) = (  0.3916300  0.3916300  0.7141200  )
        20           Mn  tau(  20) = (  0.6083700  0.3224900  0.0000000  )
        21           Mn  tau(  21) = (  0.3224900  0.6083700  0.0000000  )
        22           Mn  tau(  22) = (  0.2858800  0.6775100  0.6775100  )
        23           Mn  tau(  23) = (  0.7141200  0.3916300  0.3916300  )
        24           Mn  tau(  24) = (  0.0000000  0.6083700  0.3224900  )
        25           Mn  tau(  25) = (  0.0000000  0.3224900  0.6083700  )
        26           Mn  tau(  26) = (  0.6775100  0.2858800  0.6775100  )
        27           Mn  tau(  27) = (  0.3916300  0.7141200  0.3916300  )
        28           Mn  tau(  28) = (  0.3224900  0.0000000  0.6083700  )
        29           Mn  tau(  29) = (  0.6083700  0.0000000  0.3224900  )

     number of k points=     3  Methfessel-Paxton smearing, width (Ry)=  0.0300
                       cart. coord. in units 2pi/alat
        k(    1) = (   0.0000000   0.0000000   0.0000000), wk =   0.1250000
        k(    2) = (  -0.4330127  -0.4330127   0.0000000), wk =   0.7500000
        k(    3) = (  -0.8660254  -0.8660254  -0.8660254), wk =   0.1250000

                       cryst. coord.
        k(    1) = (   0.0000000   0.0000000   0.0000000), wk =   0.1250000
        k(    2) = (   0.0000000   0.0000000  -0.5000000), wk =   0.7500000
        k(    3) = (  -0.5000000  -0.5000000  -0.5000000), wk =   0.1250000

     Check: negative core charge=   -0.000005

     Initial potential from superposition of free atoms

     starting charge  434.98555, renormalised to  435.00000
     Starting wfcs are  290 randomized atomic wfcs

     Self-consistent Calculation

     iteration #  1     ecut=    70.00 Ry     beta= 0.70
     Davidson diagonalization with overlap
     ethr =  1.00E-02,  avg # of iterations =  3.2

     total energy              =   -6195.45880646 Ry
     Harris-Foulkes estimate   =   -6169.32664152 Ry
     estimated scf accuracy    <      36.55396423 Ry

     total magnetization       =    89.00 Bohr mag/cell
     absolute magnetization    =    95.75 Bohr mag/cell

[...]

     total energy              =   -6201.18169848 Ry
     Harris-Foulkes estimate   =   -6201.18169892 Ry
     estimated scf accuracy    <       0.00000139 Ry

[...]

     iteration # 77     ecut=    70.00 Ry     beta= 0.70
     Davidson diagonalization with overlap
     ethr =  2.45E-10,  avg # of iterations =  4.3

     Magnetic moment per site:
     atom:    1    charge:   12.6527    magn:   -0.0469    constr:    0.0000
     atom:    2    charge:   12.6790    magn:    0.0661    constr:    0.0000
     atom:    3    charge:   12.6790    magn:    0.0661    constr:    0.0000
     atom:    4    charge:   12.6790    magn:    0.0661    constr:    0.0000
     atom:    5    charge:   12.6790    magn:    0.0661    constr:    0.0000
     atom:    6    charge:   12.8058    magn:   -0.4159    constr:    0.0000
     atom:    7    charge:   12.8058    magn:   -0.4159    constr:    0.0000
     atom:    8    charge:   12.8058    magn:   -0.4159    constr:    0.0000
     atom:    9    charge:   12.8058    magn:   -0.4159    constr:    0.0000
     atom:   10    charge:   12.8058    magn:   -0.4159    constr:    0.0000
     atom:   11    charge:   12.8058    magn:   -0.4159    constr:    0.0000
     atom:   12    charge:   12.8058    magn:   -0.4159    constr:    0.0000
     atom:   13    charge:   12.8058    magn:   -0.4159    constr:    0.0000
     atom:   14    charge:   12.8058    magn:   -0.4159    constr:    0.0000
     atom:   15    charge:   12.8058    magn:   -0.4159    constr:    0.0000
     atom:   16    charge:   12.8058    magn:   -0.4159    constr:    0.0000
     atom:   17    charge:   12.8058    magn:   -0.4159    constr:    0.0000
     atom:   18    charge:   12.7461    magn:    0.9799    constr:    0.0000
     atom:   19    charge:   12.7461    magn:    0.9799    constr:    0.0000
     atom:   20    charge:   12.7461    magn:    0.9799    constr:    0.0000
     atom:   21    charge:   12.7461    magn:    0.9799    constr:    0.0000
     atom:   22    charge:   12.7461    magn:    0.9799    constr:    0.0000
     atom:   23    charge:   12.7461    magn:    0.9799    constr:    0.0000
     atom:   24    charge:   12.7461    magn:    0.9799    constr:    0.0000
     atom:   25    charge:   12.7461    magn:    0.9799    constr:    0.0000
     atom:   26    charge:   12.7461    magn:    0.9799    constr:    0.0000
     atom:   27    charge:   12.7461    magn:    0.9799    constr:    0.0000
     atom:   28    charge:   12.7461    magn:    0.9799    constr:    0.0000
     atom:   29    charge:   12.7461    magn:    0.9799    constr:    0.0000

     End of self-consistent calculation

 ------ SPIN UP ------------

          k = 0.0000 0.0000 0.0000 ( 23623 PWs)   bands (ev):

   -62.5665 -62.5405 -62.5405 -62.5405 -62.5316 -62.5316 -62.5189 -62.5189
   -62.5189 -62.5169 -62.5169 -62.5169 -62.0084 -62.0073 -62.0073 -62.0073
   -61.9398 -61.7383 -61.7184 -61.7184 -61.7184 -61.6935 -61.6935 -61.6452
   -61.6452 -61.6452 -61.6196 -61.6196 -61.6196 -31.3906 -31.3906 -31.3752
   -31.3752 -31.3752 -31.3497 -31.3497 -31.3497 -31.3437 -31.3437 -31.3437
   -31.3293 -31.3293 -31.3186 -31.3045 -31.3045 -31.3045 -31.3008 -31.3008
   -31.2601 -31.2601 -31.2601 -31.2521 -31.2138 -31.2138 -31.2138 -31.1723
   -31.1723 -31.1723 -31.1436 -31.1436 -31.1436 -31.1402 -31.1189 -31.1189
   -31.1189 -30.8102 -30.7645 -30.7645 -30.7645 -30.7395 -30.7395 -30.7395
   -30.7245 -30.7218 -30.7218 -30.7218 -30.7184 -30.7184 -30.7028 -30.7028
   -30.7028 -30.6547 -30.6547 -30.6547 -30.6407 -30.6407 -30.4918 -30.4692
   -30.4692 -30.4692 -30.4608 -30.4608 -30.4608 -30.4380 -30.4380 -30.4380
   -30.4355 -30.4355 -30.3183 -30.3183 -30.3183 -30.2953 -30.2734 -30.2734
   -30.2734 -30.2733 -30.2733 -30.2709 -30.2709 -30.2709 -30.2324 -30.2324
   -30.2324 -30.1733 -30.1733 -30.1733   9.4336  12.6549  12.6549  12.6549
    12.7630  12.7697  12.7697  12.7697  12.8315  12.8315  12.8315  12.8845
    12.8845  13.5057  13.5827  13.5827  13.5827  13.6216  13.6216  13.8668
    13.8668  13.8668  13.9825  14.1751  14.1751  14.1751  14.3681  14.3681
    14.3681  14.3738  14.5053  14.5053  14.6635  14.6635  14.6635  14.6737
    14.6737  14.6737  14.8059  14.9129  14.9129  14.9129  14.9596  14.9596
    15.1122  15.1122  15.1122  15.1280  15.1280  15.1280  15.2507  15.2507
    15.2507  15.3804  15.3804  15.4070  15.4070  15.4070  15.5508  15.5508
    15.5508  15.5843  15.5949  15.5949  15.6568  15.6568  15.6568  15.6756
    15.6756  15.6756  15.8112  15.9055  15.9055  15.9055  15.9254  16.0685
    16.0685  16.0685  16.1063  16.1063  16.2734  16.2734  16.5544  16.5544
    16.5544  16.7080  16.7080  16.7080  16.7679  16.7679  16.7679  16.8128
    16.9188  16.9188  16.9188  16.9914  16.9914  17.0437  17.0437  17.0437
    17.1356  17.1356  17.1356  17.2912  17.2912  17.4102  17.4102  17.4421
    17.4421  17.4421  17.4710  17.4710  17.4710  17.4752  17.4752  17.5530
    17.5530  17.5530  17.8557  17.9509  17.9509  17.9509  18.0408  18.0408
    18.0408  18.1859  18.1859  18.1859  18.2190  18.2190  18.2915  18.2915
    18.2915  18.3438  18.3438  18.3438  18.3728  18.3728  18.3728  18.4320
    18.4320  18.5056  18.5290  18.5290  18.5290  18.6968

     occupation numbers
     1.0000   1.0000   1.0000   1.0000   1.0000   1.0000   1.0000   1.0000
     1.0000   1.0000   1.0000   1.0000   1.0000   1.0000   1.0000   1.0000
     1.0000   1.0000   1.0000   1.0000   1.0000   1.0000   1.0000   1.0000
     1.0000   1.0000   1.0000   1.0000   1.0000   1.0000   1.0000   1.0000
     1.0000   1.0000   1.0000   1.0000   1.0000   1.0000   1.0000   1.0000
     1.0000   1.0000   1.0000   1.0000   1.0000   1.0000   1.0000   1.0000
     1.0000   1.0000   1.0000   1.0000   1.0000   1.0000   1.0000   1.0000
     1.0000   1.0000   1.0000   1.0000   1.0000   1.0000   1.0000   1.0000
     1.0000   1.0000   1.0000   1.0000   1.0000   1.0000   1.0000   1.0000
     1.0000   1.0000   1.0000   1.0000   1.0000   1.0000   1.0000   1.0000
     1.0000   1.0000   1.0000   1.0000   1.0000   1.0000   1.0000   1.0000
     1.0000   1.0000   1.0000   1.0000   1.0000   1.0000   1.0000   1.0000
     1.0000   1.0000   1.0000   1.0000   1.0000   1.0000   1.0000   1.0000
     1.0000   1.0000   1.0000   1.0000   1.0000   1.0000   1.0000   1.0000
     1.0000   1.0000   1.0000   1.0000   1.0000   1.0000   1.0000   1.0000
     1.0000   1.0000   1.0000   1.0000   1.0000   1.0000   1.0000   1.0000
     1.0000   1.0000   1.0000   1.0000   1.0000   1.0000   1.0000   1.0000
     1.0000   1.0000   1.0000   1.0000   1.0000   1.0000   1.0000   1.0000
     1.0000   1.0000   1.0000   1.0000   1.0000   1.0000   1.0000   1.0000
     1.0000   1.0000   1.0000   1.0000   1.0000   1.0000   1.0000   1.0000
     1.0000   1.0000   1.0000   1.0000   1.0000   1.0000   1.0000   1.0000
     1.0000   1.0000   1.0000   1.0000   1.0000   1.0000   1.0000   1.0000
     1.0000   1.0000   1.0000   1.0000   1.0000   1.0000   1.0000   1.0000
     1.0000   1.0000   1.0000   1.0000   1.0000   1.0000   1.0000   1.0001
     1.0001   1.0001   1.0001   1.0001   1.0010   1.0010   1.0124   1.0124
     1.0124   1.0286   1.0286   1.0286   1.0340   1.0340   1.0340   1.0355
     1.0206   1.0206   1.0206   0.9857   0.9857   0.9433   0.9433   0.9433
     0.8295   0.8295   0.8295   0.5414   0.5414   0.3012   0.3012   0.2435
     0.2435   0.2435   0.1952   0.1952   0.1952   0.1885   0.1885   0.0834
     0.0834   0.0834  -0.0339  -0.0246  -0.0246  -0.0246  -0.0149  -0.0149
    -0.0149  -0.0049  -0.0049  -0.0049  -0.0036  -0.0036  -0.0018  -0.0018
    -0.0018  -0.0010  -0.0010  -0.0010  -0.0007  -0.0007  -0.0007  -0.0004
    -0.0004  -0.0001  -0.0001  -0.0001  -0.0001  -0.0000

          k =-0.4330-0.4330 0.0000 ( 23636 PWs)   bands (ev):

[...]

 ------ SPIN DOWN ----------

          k = 0.0000 0.0000 0.0000 ( 23623 PWs)   bands (ev):

[...]

          k =-0.8660-0.8660-0.8660 ( 23634 PWs)   bands (ev):

   -62.2399 -62.2157 -62.2157 -62.2157 -62.1922 -62.1922 -62.1435 -62.1435
   -62.1435 -62.1181 -62.1181 -62.1181 -61.9970 -61.9185 -61.9185 -61.9185
   -61.9180 -61.3572 -61.3572 -61.3444 -61.3444 -61.3444 -61.3263 -61.3242
   -61.3242 -61.3242 -61.3218 -61.3218 -61.3218 -31.2187 -31.1571 -31.1571
   -31.1571 -31.1053 -31.1053 -31.0874 -31.0759 -31.0759 -31.0759 -31.0320
   -31.0320 -31.0320 -31.0149 -31.0149 -31.0149 -31.0041 -31.0041 -30.8622
   -30.8622 -30.8622 -30.8611 -30.8611 -30.8611 -30.8522 -30.8522 -30.8522
   -30.8364 -30.8191 -30.8191 -30.7176 -30.7176 -30.7176 -30.6827 -30.6827
   -30.6827 -30.6726 -30.6439 -30.6439 -30.6439 -30.6390 -30.6390 -30.6390
   -30.6295 -30.6295 -30.6295 -30.6257 -30.6257 -30.5847 -30.5847 -30.5847
   -30.2699 -30.1943 -30.1943 -30.1943 -30.1463 -30.1296 -30.1296 -30.1296
   -30.0987 -30.0987 -30.0840 -30.0840 -30.0840 -30.0817 -30.0817 -30.0811
   -30.0635 -30.0635 -30.0635 -30.0621 -30.0621 -30.0621 -30.0381 -30.0381
   -30.0085 -30.0085 -30.0085 -29.9994 -29.9994 -29.9994 -29.9542 -29.9542
   -29.9542 -29.9476 -29.9476 -29.9476  11.4031  11.4031  11.4031  11.4333
    11.4333  11.4575  13.1111  13.4298  13.5786  13.5786  13.5786  13.6558
    13.6981  13.6981  13.6981  13.7114  13.7114  13.7114  13.9201  13.9201
    13.9201  14.1536  14.1536  14.4969  14.4969  14.5108  14.5108  14.5108
    14.5423  14.5423  14.5423  14.6183  14.6183  14.6183  14.9899  14.9899
    14.9899  15.0029  15.0029  15.0029  15.0994  15.0994  15.0994  15.1918
    15.1918  15.1918  15.1978  15.1978  15.3444  15.3444  15.4779  15.4779
    15.4779  15.5248  15.5248  15.5948  15.5948  15.5948  15.6855  15.6855
    15.8342  15.8342  15.8342  15.9033  15.9341  15.9592  15.9592  15.9592
    15.9965  15.9965  15.9965  16.0256  16.0256  16.1787  16.4033  16.4033
    16.4033  16.4210  16.4210  16.4210  16.5162  16.5334  16.5334  16.5851
    16.5851  16.5851  16.6188  16.6188  16.6188  17.0269  17.0269  17.0269
    17.1853  17.1853  17.2568  17.3104  17.3104  17.3104  17.3344  17.3344
    17.3344  17.5329  17.5329  17.5329  17.7288  17.7288  17.7288  17.7410
    17.7410  17.7800  17.7800  17.7800  17.8306  17.9256  17.9256  17.9256
    17.9378  17.9378  18.1301  18.1301  18.1301  18.1585  18.1585  18.1585
    18.2546  18.2546  18.3060  18.5306  18.5306  18.5306  18.5973  18.5973
    18.5973  18.6315  18.6315  18.6315  18.7665  18.7987  18.8107  18.8107
    18.8134  18.8134  18.8134  18.8233  18.8233  18.8233

     occupation numbers
     1.0000   1.0000   1.0000   1.0000   1.0000   1.0000   1.0000   1.0000
     1.0000   1.0000   1.0000   1.0000   1.0000   1.0000   1.0000   1.0000
     1.0000   1.0000   1.0000   1.0000   1.0000   1.0000   1.0000   1.0000
     1.0000   1.0000   1.0000   1.0000   1.0000   1.0000   1.0000   1.0000
     1.0000   1.0000   1.0000   1.0000   1.0000   1.0000   1.0000   1.0000
     1.0000   1.0000   1.0000   1.0000   1.0000   1.0000   1.0000   1.0000
     1.0000   1.0000   1.0000   1.0000   1.0000   1.0000   1.0000   1.0000
     1.0000   1.0000   1.0000   1.0000   1.0000   1.0000   1.0000   1.0000
     1.0000   1.0000   1.0000   1.0000   1.0000   1.0000   1.0000   1.0000
     1.0000   1.0000   1.0000   1.0000   1.0000   1.0000   1.0000   1.0000
     1.0000   1.0000   1.0000   1.0000   1.0000   1.0000   1.0000   1.0000
     1.0000   1.0000   1.0000   1.0000   1.0000   1.0000   1.0000   1.0000
     1.0000   1.0000   1.0000   1.0000   1.0000   1.0000   1.0000   1.0000
     1.0000   1.0000   1.0000   1.0000   1.0000   1.0000   1.0000   1.0000
     1.0000   1.0000   1.0000   1.0000   1.0000   1.0000   1.0000   1.0000
     1.0000   1.0000   1.0000   1.0000   1.0000   1.0000   1.0000   1.0000
     1.0000   1.0000   1.0000   1.0000   1.0000   1.0000   1.0000   1.0000
     1.0000   1.0000   1.0000   1.0000   1.0000   1.0000   1.0000   1.0000
     1.0000   1.0000   1.0000   1.0000   1.0000   1.0000   1.0000   1.0000
     1.0000   1.0000   1.0000   1.0000   1.0000   1.0000   1.0000   1.0000
     1.0000   1.0000   1.0000   1.0000   1.0000   1.0000   1.0000   1.0000
     1.0000   1.0000   1.0000   1.0000   1.0000   1.0000   1.0000   1.0000
     1.0000   1.0000   1.0000   1.0000   1.0000   1.0000   1.0000   1.0000
     1.0000   1.0000   1.0000   1.0000   1.0000   1.0003   1.0036   1.0036
     1.0036   1.0043   1.0043   1.0043   1.0094   1.0107   1.0107   1.0153
     1.0153   1.0153   1.0187   1.0187   1.0187   0.9587   0.9587   0.9587
     0.7477   0.7477   0.6116   0.5017   0.5017   0.5017   0.4519   0.4519
     0.4519   0.1071   0.1071   0.1071  -0.0274  -0.0274  -0.0274  -0.0298
    -0.0298  -0.0345  -0.0345  -0.0345  -0.0351  -0.0274  -0.0274  -0.0274
    -0.0261  -0.0261  -0.0078  -0.0078  -0.0078  -0.0062  -0.0062  -0.0062
    -0.0026  -0.0026  -0.0015  -0.0001  -0.0001  -0.0001  -0.0000  -0.0000
    -0.0000  -0.0000  -0.0000  -0.0000  -0.0000  -0.0000  -0.0000  -0.0000
    -0.0000  -0.0000  -0.0000  -0.0000  -0.0000  -0.0000

     the Fermi energy is    17.3112 ev

!    total energy              =   -6201.18169939 Ry
     Harris-Foulkes estimate   =   -6201.18169959 Ry
     estimated scf accuracy    <       0.00000062 Ry

     The total energy is the sum of the following terms:

     one-electron contribution =   -2623.79165818 Ry
     hartree contribution      =    1547.03644836 Ry
     xc contribution           =    -805.71033952 Ry
     ewald contribution        =   -4318.71624771 Ry
     smearing contrib. (-TS)   =       0.00009766 Ry

     total magnetization       =     7.17 Bohr mag/cell
     absolute magnetization    =    18.98 Bohr mag/cell

     convergence has been achieved in  77 iterations

     Writing output data file mn-2.save/

     General routines

     Parallel routines

   This run was terminated on:  16:46:49   1Aug2022

   JOB DONE.