     Program PWSCF v.6.4.1 starts on  1Aug2022 at 16:46:49

     R & G space division:  proc/nbgrp/npool/nimage =       6
     Reading input from mn-3.in

     Current dimensions of program PWSCF are:
     Max number of different atomic species (ntypx) = 10
     Max number of k-points (npk) =  40000
     Max angular momentum in pseudopotentials (lmaxx) =  3
               file Mn.pbe-spn-rrkjus_psl.0.3.1.UPF: wavefunction(s)  3D renormalized

     Subspace diagonalization in iterative solution of the eigenvalue problem:
     a serial algorithm will be used

     Message from routine setup:
     DEPRECATED: symmetry with ibrav=0, use correct ibrav instead

     bravais-lattice index     =            0
     lattice parameter (alat)  =      14.5833  a.u.
     unit-cell volume          =    2387.5141 (a.u.)^3
     number of atoms/cell      =           29
     number of atomic types    =            1
     number of electrons       =       435.00
     number of Kohn-Sham states=          262
     kinetic-energy cutoff     =      70.0000  Ry
     charge density cutoff     =     700.0000  Ry
     convergence threshold     =      1.0E-06
     mixing beta               =       0.7000
     number of iterations used =            8  plain     mixing
     Exchange-correlation      = PBE ( 1  4  3  4 0 0)

     celldm(1)=  14.583305  celldm(2)=   0.000000  celldm(3)=   0.000000
     celldm(4)=   0.000000  celldm(5)=   0.000000  celldm(6)=   0.000000

     crystal axes: (cart. coord. in units of alat)
               a(1) = (  -0.577350   0.577350   0.577350 )
               a(2) = (   0.577350  -0.577350   0.577350 )
               a(3) = (   0.577350   0.577350  -0.577350 )

     reciprocal axes: (cart. coord. in units 2 pi/alat)
               b(1) = (  0.000000  0.866025  0.866025 )
               b(2) = (  0.866025  0.000000  0.866025 )
               b(3) = (  0.866025  0.866025  0.000000 )

     PseudoPot. # 1 for Mn read from file:
     /home/cristian/Escritorio/Proyecto_Grafeno/pseudopotenciales/Mn.pbe-spn-rrkjus_psl.0.3.1.UPF
     MD5 check sum: e1cac159bdd2ba70c18e85765a5d4279
     Pseudo is Ultrasoft + core correction, Zval = 15.0
     Generated using "atomic" code by A. Dal Corso v.6.2.2
     Using radial grid of 1187 points,  6 beta functions with:
                l(1) =   0
                l(2) =   0
                l(3) =   1
                l(4) =   1
                l(5) =   2
                l(6) =   2
     Q(r) pseudized with 0 coefficients

     atomic species   valence    mass     pseudopotential
        Mn            15.00    54.93804     Mn( 1.00)

     Starting magnetic structure
     atomic species   magnetization
        Mn           0.700

     24 Sym. Ops. (no inversion) found

                                    s                        frac. trans.

      isym =  1     identity

 cryst.   s( 1) = (     1          0          0      )
                  (     0          1          0      )
                  (     0          0          1      )

 cart.    s( 1) = (  1.0000000  0.0000000  0.0000000 )
                  (  0.0000000  1.0000000  0.0000000 )
                  (  0.0000000  0.0000000  1.0000000 )

      isym =  2     180 deg rotation - cart. axis [0,0,1]

[...]

 cryst.   s( 9) = (     0          1          0      )
                  (     0          0          1      )
                  (     1          0          0      )

 cart.    s( 9) = (  0.0000000  0.0000000  1.0000000 )
                  (  1.0000000  0.0000000  0.0000000 )
                  (  0.0000000  1.0000000  0.0000000 )

[...]

 cryst.   s(10) = (     0          0          1      )
                  (     0          1          0      )
                  (    -1         -1         -1      )

 cart.    s(10) = (  0.0000000  0.0000000  1.0000000 )
                  ( -1.0000000  0.0000000  0.0000000 )
                  (  0.0000000 -1.0000000  0.0000000 )

[...]

      isym = 12     120 deg rotation - cart. axis [-1,-1,1]

[...]

      isym = 13     inv. 180 deg rotation - cart. axis [1,1,0]

[...]

      isym = 24     inv.  90 deg rotation - cart. axis [1,0,0]

 cryst.   s(24) = (     0          0          1      )
                  (     1          0          0      )
                  (    -1         -1         -1      )

 cart.    s(24) = ( -1.0000000  0.0000000  0.0000000 )
                  (  0.0000000  0.0000000  1.0000000 )
                  (  0.0000000 -1.0000000  0.0000000 )

   Cartesian axes

     site n.     atom                  positions (alat units)
         1           Mn  tau(   1) = (   0.0000000   0.0000000   0.0000000  )
         2           Mn  tau(   2) = (   0.3670447   0.3670447   0.3670447  )
         3           Mn  tau(   3) = (   0.2103056   0.2103056  -0.2103056  )
         4           Mn  tau(   4) = (   0.2103056  -0.2103056   0.2103056  )
         5           Mn  tau(   5) = (  -0.2103056   0.2103056   0.2103056  )
         6           Mn  tau(   6) = (   0.4739122   0.4739122  -0.2517940  )
         7           Mn  tau(   7) = (   0.1034381   0.1034381   0.3255563  )
         8           Mn  tau(   8) = (   0.1034381  -0.1034381   0.8291443  )
         9           Mn  tau(   9) = (  -0.1034381   0.1034381   0.8291443  )
        10           Mn  tau(  10) = (  -0.2517940   0.4739122   0.4739122  )
        11           Mn  tau(  11) = (   0.3255563   0.1034381   0.1034381  )
        12           Mn  tau(  12) = (   0.8291443   0.1034381  -0.1034381  )
        13           Mn  tau(  13) = (   0.8291443  -0.1034381   0.1034381  )
        14           Mn  tau(  14) = (   0.4739122  -0.2517940   0.4739122  )
        15           Mn  tau(  15) = (   0.1034381   0.3255563   0.1034381  )
        16           Mn  tau(  16) = (  -0.1034381   0.8291443   0.1034381  )
        17           Mn  tau(  17) = (   0.1034381   0.8291443  -0.1034381  )
        18           Mn  tau(  18) = (   0.1650529   0.1650529   0.6172683  )
        19           Mn  tau(  19) = (   0.4122974   0.4122974   0.0399180  )
        20           Mn  tau(  20) = (  -0.1650529   0.1650529   0.5374323  )
        21           Mn  tau(  21) = (   0.1650529  -0.1650529   0.5374323  )
        22           Mn  tau(  22) = (   0.6172683   0.1650529   0.1650529  )
        23           Mn  tau(  23) = (   0.0399180   0.4122974   0.4122974  )
        24           Mn  tau(  24) = (   0.5374323  -0.1650529   0.1650529  )
        25           Mn  tau(  25) = (   0.5374323   0.1650529  -0.1650529  )
        26           Mn  tau(  26) = (   0.1650529   0.6172683   0.1650529  )
        27           Mn  tau(  27) = (   0.4122974   0.0399180   0.4122974  )
        28           Mn  tau(  28) = (   0.1650529   0.5374323  -0.1650529  )
        29           Mn  tau(  29) = (  -0.1650529   0.5374323   0.1650529  )

   Crystallographic axes

     site n.     atom                  positions (cryst. coord.)
         1           Mn  tau(   1) = (  0.0000000  0.0000000  0.0000000  )
         2           Mn  tau(   2) = (  0.6357400  0.6357400  0.6357400  )
         3           Mn  tau(   3) = (  0.0000000  0.0000000  0.3642600  )
         4           Mn  tau(   4) = (  0.0000000  0.3642600  0.0000000  )
         5           Mn  tau(   5) = (  0.3642600  0.0000000  0.0000000  )
         6           Mn  tau(   6) = (  0.1923600  0.1923600  0.8208400  )
         7           Mn  tau(   7) = (  0.3715200  0.3715200  0.1791600  )
         8           Mn  tau(   8) = (  0.6284800  0.8076400  0.0000000  )
         9           Mn  tau(   9) = (  0.8076400  0.6284800  0.0000000  )
        10           Mn  tau(  10) = (  0.8208400  0.1923600  0.1923600  )
        11           Mn  tau(  11) = (  0.1791600  0.3715200  0.3715200  )
        12           Mn  tau(  12) = (  0.0000000  0.6284800  0.8076400  )
        13           Mn  tau(  13) = (  0.0000000  0.8076400  0.6284800  )
        14           Mn  tau(  14) = (  0.1923600  0.8208400  0.1923600  )
        15           Mn  tau(  15) = (  0.3715200  0.1791600  0.3715200  )
        16           Mn  tau(  16) = (  0.8076400  0.0000000  0.6284800  )
        17           Mn  tau(  17) = (  0.6284800  0.0000000  0.8076400  )
        18           Mn  tau(  18) = (  0.6775100  0.6775100  0.2858800  )
        19           Mn  tau(  19) = (  0.3916300  0.3916300  0.7141200  )
        20           Mn  tau(  20) = (  0.6083700  0.3224900  0.0000000  )
        21           Mn  tau(  21) = (  0.3224900  0.6083700  0.0000000  )
        22           Mn  tau(  22) = (  0.2858800  0.6775100  0.6775100  )
        23           Mn  tau(  23) = (  0.7141200  0.3916300  0.3916300  )
        24           Mn  tau(  24) = (  0.0000000  0.6083700  0.3224900  )
        25           Mn  tau(  25) = (  0.0000000  0.3224900  0.6083700  )
        26           Mn  tau(  26) = (  0.6775100  0.2858800  0.6775100  )
        27           Mn  tau(  27) = (  0.3916300  0.7141200  0.3916300  )
        28           Mn  tau(  28) = (  0.3224900  0.0000000  0.6083700  )
        29           Mn  tau(  29) = (  0.6083700  0.0000000  0.3224900  )

     number of k points=     4  Methfessel-Paxton smearing, width (Ry)=  0.0300
                       cart. coord. in units 2pi/alat
        k(    1) = (   0.0000000   0.0000000   0.0000000), wk =   0.0370370
        k(    2) = (   0.2886751   0.2886751   0.0000000), wk =   0.4444444
        k(    3) = (   0.5773503   0.2886751   0.2886751), wk =   0.2962963
        k(    4) = (  -0.0000000  -0.0000000   0.5773503), wk =   0.2222222

                       cryst. coord.
        k(    1) = (   0.0000000   0.0000000   0.0000000), wk =   0.0370370
        k(    2) = (   0.0000000   0.0000000   0.3333333), wk =   0.4444444
        k(    3) = (   0.0000000   0.3333333   0.3333333), wk =   0.2962963
        k(    4) = (   0.3333333   0.3333333  -0.3333333), wk =   0.2222222

     Check: negative core charge=   -0.000005

     Initial potential from superposition of free atoms

     starting charge  434.98555, renormalised to  435.00000
     Starting wfcs are  290 randomized atomic wfcs

     Self-consistent Calculation

     iteration #  1     ecut=    70.00 Ry     beta= 0.70
     Davidson diagonalization with overlap
     ethr =  1.00E-02,  avg # of iterations =  3.0

     total energy              =   -6195.42390338 Ry
     Harris-Foulkes estimate   =   -6169.32309511 Ry
     estimated scf accuracy    <      36.54073615 Ry

     total magnetization       =    89.00 Bohr mag/cell
     absolute magnetization    =    95.84 Bohr mag/cell

[...]

     iteration # 20     ecut=    70.00 Ry     beta= 0.70
     Davidson diagonalization with overlap
     c_bands:  1 eigenvalues not converged
     ethr =  2.38E-05,  avg # of iterations = 10.4

[...]

     total energy              =   -6201.36444684 Ry
     Harris-Foulkes estimate   =   -6201.36445330 Ry
     estimated scf accuracy    <       0.00000370 Ry

[...]

     iteration # 37     ecut=    70.00 Ry     beta= 0.70
     Davidson diagonalization with overlap
     ethr =  8.49E-10,  avg # of iterations =  4.8

     Magnetic moment per site:
     atom:    1    charge:   12.6700    magn:   -3.0392    constr:    0.0000
     atom:    2    charge:   12.6866    magn:   -2.9811    constr:    0.0000
     atom:    3    charge:   12.6866    magn:   -2.9811    constr:    0.0000
     atom:    4    charge:   12.6866    magn:   -2.9811    constr:    0.0000
     atom:    5    charge:   12.6866    magn:   -2.9811    constr:    0.0000
     atom:    6    charge:   12.8223    magn:   -0.8644    constr:    0.0000
     atom:    7    charge:   12.8223    magn:   -0.8644    constr:    0.0000
     atom:    8    charge:   12.8223    magn:   -0.8644    constr:    0.0000
     atom:    9    charge:   12.8223    magn:   -0.8644    constr:    0.0000
     atom:   10    charge:   12.8223    magn:   -0.8644    constr:    0.0000
     atom:   11    charge:   12.8223    magn:   -0.8644    constr:    0.0000
     atom:   12    charge:   12.8223    magn:   -0.8644    constr:    0.0000
     atom:   13    charge:   12.8223    magn:   -0.8644    constr:    0.0000
     atom:   14    charge:   12.8223    magn:   -0.8644    constr:    0.0000
     atom:   15    charge:   12.8223    magn:   -0.8644    constr:    0.0000
     atom:   16    charge:   12.8223    magn:   -0.8644    constr:    0.0000
     atom:   17    charge:   12.8223    magn:   -0.8644    constr:    0.0000
     atom:   18    charge:   12.7581    magn:    1.5431    constr:    0.0000
     atom:   19    charge:   12.7581    magn:    1.5431    constr:    0.0000
     atom:   20    charge:   12.7581    magn:    1.5431    constr:    0.0000
     atom:   21    charge:   12.7581    magn:    1.5431    constr:    0.0000
     atom:   22    charge:   12.7581    magn:    1.5431    constr:    0.0000
     atom:   23    charge:   12.7581    magn:    1.5431    constr:    0.0000
     atom:   24    charge:   12.7581    magn:    1.5431    constr:    0.0000
     atom:   25    charge:   12.7581    magn:    1.5431    constr:    0.0000
     atom:   26    charge:   12.7581    magn:    1.5431    constr:    0.0000
     atom:   27    charge:   12.7581    magn:    1.5431    constr:    0.0000
     atom:   28    charge:   12.7581    magn:    1.5431    constr:    0.0000
     atom:   29    charge:   12.7581    magn:    1.5431    constr:    0.0000

     End of self-consistent calculation

 ------ SPIN UP ------------

          k = 0.0000 0.0000 0.0000 ( 23623 PWs)   bands (ev):

   -62.6924 -62.6680 -62.6680 -62.6680 -62.6594 -62.6594 -62.6466 -62.6466
   -62.6466 -62.6447 -62.6447 -62.6447 -61.2451 -61.2217 -61.2217 -61.2217
   -61.1964 -61.1964 -61.1473 -61.1473 -61.1473 -61.1217 -61.1217 -61.1217
   -59.8259 -59.8259 -59.8259 -59.8258 -59.5775 -31.5162 -31.5162 -31.5162
   -31.5091 -31.5091 -31.5062 -31.5062 -31.5062 -31.4769 -31.4769 -31.4769
   -31.4478 -31.4478 -31.4447 -31.4191 -31.4191 -31.4171 -31.4171 -31.4171
   -31.4058 -31.3835 -31.3835 -31.3835 -31.3240 -31.3240 -31.3240 -31.3017
   -31.3017 -31.3017 -31.2359 -31.2359 -31.2359 -31.2252 -31.2101 -31.2101
   -31.2101 -30.3560 -30.2822 -30.2822 -30.2822 -30.2147 -30.2147 -30.0158
   -30.0158 -30.0158 -30.0108 -29.9942 -29.9942 -29.9942 -29.9730 -29.9730
   -29.9730 -29.9519 -29.9519 -29.8293 -29.8293 -29.8293 -29.8005 -29.7846
   -29.7846 -29.7846 -29.7826 -29.7826 -29.7773 -29.7773 -29.7773 -29.7722
   -29.7722 -29.7722 -29.7211 -29.7211 -29.7211 -28.6545 -28.6545 -28.6545
   -28.6533 -28.6533 -28.6528 -28.6528 -28.6528 -28.5636 -28.5636 -28.5636
   -28.5561 -28.3694 -28.3694 -28.3694   9.4928  12.6942  12.6942  12.6942
    12.8658  12.8658  12.8658  12.8891  12.9257  12.9257  12.9257  12.9951
    12.9951  13.6324  13.7162  13.7162  13.7162  13.8082  13.8082  13.9857
    13.9857  13.9857  14.1824  14.2297  14.2297  14.2297  14.3601  14.5628
    14.5628  14.5655  14.5655  14.5655  14.8173  14.8173  14.8173  14.9333
    14.9333  14.9333  14.9547  14.9547  14.9547  15.0591  15.0591  15.0888
    15.2945  15.2945  15.2945  15.4155  15.4155  15.4155  15.4398  15.4398
    15.4398  15.4832  15.5599  15.5599  15.5599  15.6393  15.6393  15.6393
    15.7391  15.7391  15.8926  15.9065  15.9065  15.9065  16.0121  16.0121
    16.0121  16.0444  16.0527  16.0527  16.1853  16.1853  16.1853  16.2806
    16.2806  16.2924  16.2924  16.2924  16.5354  16.5354  16.7438  16.7438
    16.7438  16.7878  16.7878  16.7878  17.0688  17.1113  17.1113  17.1113
    17.3013  17.3013  17.3823  17.3823  17.3823  17.5347  17.5347  17.6009
    17.6009  17.6009  17.6987  17.6987  17.6987  17.8068  17.8068  17.8068
    17.9206  17.9206  17.9206  17.9355  17.9355  18.1581  18.1581  18.1581
    18.2839  18.2839  18.2839  18.5782  18.5782  18.5782  18.6084  18.6084
    18.6084  18.6179  18.6179  18.7508  18.7508  18.7508  18.7978  18.7978
    18.8432  18.8577  18.8577  18.8577  18.9856  19.1458  19.1458  19.1458
    19.2801  19.3677  19.3677  19.3677  19.4424  19.4424

     occupation numbers
     1.0000   1.0000   1.0000   1.0000   1.0000   1.0000   1.0000   1.0000
     1.0000   1.0000   1.0000   1.0000   1.0000   1.0000   1.0000   1.0000
     1.0000   1.0000   1.0000   1.0000   1.0000   1.0000   1.0000   1.0000
     1.0000   1.0000   1.0000   1.0000   1.0000   1.0000   1.0000   1.0000
     1.0000   1.0000   1.0000   1.0000   1.0000   1.0000   1.0000   1.0000
     1.0000   1.0000   1.0000   1.0000   1.0000   1.0000   1.0000   1.0000
     1.0000   1.0000   1.0000   1.0000   1.0000   1.0000   1.0000   1.0000
     1.0000   1.0000   1.0000   1.0000   1.0000   1.0000   1.0000   1.0000
     1.0000   1.0000   1.0000   1.0000   1.0000   1.0000   1.0000   1.0000
     1.0000   1.0000   1.0000   1.0000   1.0000   1.0000   1.0000   1.0000
     1.0000   1.0000   1.0000   1.0000   1.0000   1.0000   1.0000   1.0000
     1.0000   1.0000   1.0000   1.0000   1.0000   1.0000   1.0000   1.0000
     1.0000   1.0000   1.0000   1.0000   1.0000   1.0000   1.0000   1.0000
     1.0000   1.0000   1.0000   1.0000   1.0000   1.0000   1.0000   1.0000
     1.0000   1.0000   1.0000   1.0000   1.0000   1.0000   1.0000   1.0000
     1.0000   1.0000   1.0000   1.0000   1.0000   1.0000   1.0000   1.0000
     1.0000   1.0000   1.0000   1.0000   1.0000   1.0000   1.0000   1.0000
     1.0000   1.0000   1.0000   1.0000   1.0000   1.0000   1.0000   1.0000
     1.0000   1.0000   1.0000   1.0000   1.0000   1.0000   1.0000   1.0000
     1.0000   1.0000   1.0000   1.0000   1.0000   1.0000   1.0000   1.0000
     1.0000   1.0000   1.0000   1.0000   1.0000   1.0000   1.0000   1.0000
     1.0000   1.0000   1.0000   1.0000   1.0000   1.0000   1.0000   1.0000
     1.0000   1.0000   1.0000   1.0000   1.0000   1.0000   1.0000   1.0000
     1.0000   1.0000   1.0000   1.0000   1.0000   1.0000   1.0000   1.0001
     1.0001   1.0002   1.0002   1.0002   1.0026   1.0026   1.0144   1.0144
     1.0144   1.0189   1.0189   1.0189   1.0256   1.0114   1.0114   1.0114
     0.8322   0.8322   0.6939   0.6939   0.6939   0.3852   0.3852   0.2588
     0.2588   0.2588   0.1093   0.1093   0.1093   0.0090   0.0090   0.0090
    -0.0317  -0.0317  -0.0317  -0.0335  -0.0335  -0.0201  -0.0201  -0.0201
    -0.0087  -0.0087  -0.0087  -0.0005  -0.0005  -0.0005  -0.0003  -0.0003
    -0.0003  -0.0003  -0.0003  -0.0000  -0.0000  -0.0000  -0.0000  -0.0000
    -0.0000  -0.0000  -0.0000  -0.0000  -0.0000  -0.0000  -0.0000  -0.0000
    -0.0000  -0.0000  -0.0000  -0.0000  -0.0000  -0.0000

[...]

          k =-0.0000-0.0000 0.5774 ( 23606 PWs)   bands (ev):

[...]

 ------ SPIN DOWN ----------

[...]

          k = 0.5774 0.2887 0.2887 ( 23626 PWs)   bands (ev):

[...]

          k =-0.0000-0.0000 0.5774 ( 23606 PWs)   bands (ev):

   -63.4437 -63.4435 -63.4435 -63.4435 -63.2827 -62.2919 -62.2684 -62.2680
   -62.2680 -62.2443 -62.2440 -62.1963 -62.1962 -62.1962 -62.1716 -62.1716
   -62.1716 -60.8169 -60.8112 -60.8003 -60.8003 -60.7971 -60.7811 -60.7807
   -60.7789 -60.7789 -60.7767 -60.7767 -60.7767 -32.1760 -32.1756 -32.1756
   -32.1742 -32.1737 -32.1737 -32.1728 -32.1725 -32.1528 -32.1527 -32.1527
   -32.1441 -31.9942 -31.9941 -31.9941 -31.2564 -31.1890 -31.1873 -31.1873
   -31.1392 -31.1381 -31.1323 -31.1065 -31.1065 -31.1041 -31.0740 -31.0740
   -31.0727 -31.0478 -31.0449 -31.0448 -31.0448 -31.0416 -30.9142 -30.9142
   -30.9117 -30.9089 -30.9084 -30.9084 -30.8996 -30.8959 -30.8959 -30.8817
   -30.8782 -30.8766 -30.7224 -30.7224 -30.7217 -30.6387 -30.6385 -30.6385
   -29.7262 -29.6728 -29.6646 -29.6646 -29.6359 -29.6247 -29.6247 -29.6228
   -29.6015 -29.5992 -29.5905 -29.5873 -29.5873 -29.5810 -29.5797 -29.5585
   -29.5487 -29.5487 -29.5423 -29.5398 -29.5366 -29.5366 -29.5163 -29.5033
   -29.5033 -29.5022 -29.4633 -29.4581 -29.4581 -29.4522 -29.4507 -29.4477
   -29.4477 -29.4240 -29.4153 -29.4153  10.3558  11.5155  11.5155  11.5918
    11.6833  12.5198  12.9588  13.0767  13.2369  13.2369  13.3883  13.4311
    13.4311  13.4670  13.6175  13.6175  13.6445  13.6561  13.7016  13.7660
    13.7660  13.8563  14.0514  14.2452  14.2452  14.2970  14.3826  14.3826
    14.3837  14.4636  14.4997  14.5040  14.5040  14.5895  14.6509  14.6509
    14.6782  14.7595  14.7816  14.8023  14.9187  14.9761  14.9761  14.9917
    15.0484  15.0484  15.0684  15.1586  15.1586  15.1680  15.2103  15.2485
    15.3125  15.3125  15.3286  15.4581  15.4744  15.4744  15.4783  15.5451
    15.6029  15.6205  15.6205  15.7099  15.7099  15.7479  15.8032  15.9223
    15.9308  16.0068  16.0068  16.0334  16.0693  16.0693  16.0694  16.1642
    16.1863  16.1863  16.1923  16.3082  16.3777  16.3777  16.3783  16.4799
    16.5426  16.5753  16.7290  16.7290  16.7357  16.8059  16.8286  16.8286
    16.8814  16.8846  16.9408  16.9408  16.9869  17.0640  17.1146  17.1146
    17.1392  17.2335  17.2807  17.2807  17.4539  17.4809  17.5236  17.5236
    17.6165  17.7078  17.8169  17.8386  17.9061  17.9061  18.0259  18.0776
    18.0776  18.0943  18.2303  18.2320  18.2320  18.2900  18.3279  18.3279
    18.3895  18.4420  18.4952  18.4952  18.4962  18.5287  18.6755  18.6755
    18.6922  18.7424  18.7814  18.7814  18.8392  18.8719  18.8815  18.8815
    18.9719  18.9819  18.9942  19.0279  19.0279  19.1587

     occupation numbers
     1.0000   1.0000   1.0000   1.0000   1.0000   1.0000   1.0000   1.0000
     1.0000   1.0000   1.0000   1.0000   1.0000   1.0000   1.0000   1.0000
     1.0000   1.0000   1.0000   1.0000   1.0000   1.0000   1.0000   1.0000
     1.0000   1.0000   1.0000   1.0000   1.0000   1.0000   1.0000   1.0000
     1.0000   1.0000   1.0000   1.0000   1.0000   1.0000   1.0000   1.0000
     1.0000   1.0000   1.0000   1.0000   1.0000   1.0000   1.0000   1.0000
     1.0000   1.0000   1.0000   1.0000   1.0000   1.0000   1.0000   1.0000
     1.0000   1.0000   1.0000   1.0000   1.0000   1.0000   1.0000   1.0000
     1.0000   1.0000   1.0000   1.0000   1.0000   1.0000   1.0000   1.0000
     1.0000   1.0000   1.0000   1.0000   1.0000   1.0000   1.0000   1.0000
     1.0000   1.0000   1.0000   1.0000   1.0000   1.0000   1.0000   1.0000
     1.0000   1.0000   1.0000   1.0000   1.0000   1.0000   1.0000   1.0000
     1.0000   1.0000   1.0000   1.0000   1.0000   1.0000   1.0000   1.0000
     1.0000   1.0000   1.0000   1.0000   1.0000   1.0000   1.0000   1.0000
     1.0000   1.0000   1.0000   1.0000   1.0000   1.0000   1.0000   1.0000
     1.0000   1.0000   1.0000   1.0000   1.0000   1.0000   1.0000   1.0000
     1.0000   1.0000   1.0000   1.0000   1.0000   1.0000   1.0000   1.0000
     1.0000   1.0000   1.0000   1.0000   1.0000   1.0000   1.0000   1.0000
     1.0000   1.0000   1.0000   1.0000   1.0000   1.0000   1.0000   1.0000
     1.0000   1.0000   1.0000   1.0000   1.0000   1.0000   1.0000   1.0000
     1.0000   1.0000   1.0000   1.0000   1.0000   1.0000   1.0000   1.0000
     1.0000   1.0000   1.0000   1.0000   1.0000   1.0000   1.0000   1.0000
     1.0000   1.0000   1.0000   1.0000   1.0000   1.0000   1.0000   1.0000
     1.0000   1.0000   1.0000   1.0000   1.0000   1.0000   1.0000   1.0000
     1.0000   1.0000   1.0000   1.0002   1.0005   1.0005   1.0005   1.0015
     1.0028   1.0038   1.0131   1.0131   1.0137   1.0208   1.0234   1.0234
     1.0292   1.0296   1.0343   1.0343   1.0354   1.0267   1.0100   1.0100
     0.9978   0.9204   0.8619   0.8619   0.5514   0.4955   0.4077   0.4077
     0.2316   0.0981   0.0031  -0.0081  -0.0293  -0.0293  -0.0337  -0.0291
    -0.0291  -0.0273  -0.0129  -0.0127  -0.0127  -0.0083  -0.0061  -0.0061
    -0.0035  -0.0021  -0.0012  -0.0012  -0.0012  -0.0008  -0.0001  -0.0001
    -0.0001  -0.0001  -0.0000  -0.0000  -0.0000  -0.0000  -0.0000  -0.0000
    -0.0000  -0.0000  -0.0000  -0.0000  -0.0000  -0.0000

     the Fermi energy is    17.4788 ev

!    total energy              =   -6201.36445380 Ry
     Harris-Foulkes estimate   =   -6201.36445386 Ry
     estimated scf accuracy    <       0.00000018 Ry

     The total energy is the sum of the following terms:

     one-electron contribution =   -2626.91687766 Ry
     hartree contribution      =    1552.22808344 Ry
     xc contribution           =    -807.97254528 Ry
     ewald contribution        =   -4318.71624771 Ry
     smearing contrib. (-TS)   =       0.01313341 Ry

     total magnetization       =    -7.36 Bohr mag/cell
     absolute magnetization    =    48.18 Bohr mag/cell

     convergence has been achieved in  37 iterations

     Writing output data file mn-3.save/

     General routines

     Parallel routines

   This run was terminated on:  19:30:25   1Aug2022

   JOB DONE.