     Program PWSCF v.6.4.1 starts on  1Aug2022 at 19:30:26

     R & G space division:  proc/nbgrp/npool/nimage =       6
     Reading input from mn-4.in

     Current dimensions of program PWSCF are:
     Max number of different atomic species (ntypx) = 10
     Max number of k-points (npk) =  40000
     Max angular momentum in pseudopotentials (lmaxx) =  3
               file Mn.pbe-spn-rrkjus_psl.0.3.1.UPF: wavefunction(s)  3D renormalized

     Subspace diagonalization in iterative solution of the eigenvalue problem:
     a serial algorithm will be used

     Message from routine setup:
     DEPRECATED: symmetry with ibrav=0, use correct ibrav instead

     bravais-lattice index     =            0
     lattice parameter (alat)  =      14.5833  a.u.
     unit-cell volume          =    2387.5141 (a.u.)^3
     number of atoms/cell      =           29
     number of atomic types    =            1
     number of electrons       =       435.00
     number of Kohn-Sham states=          262
     kinetic-energy cutoff     =      70.0000  Ry
     charge density cutoff     =     700.0000  Ry
     convergence threshold     =      1.0E-06
     mixing beta               =       0.7000
     number of iterations used =            8  plain     mixing
     Exchange-correlation      = PBE ( 1  4  3  4 0 0)

     celldm(1)=  14.583305  celldm(2)=   0.000000  celldm(3)=   0.000000
     celldm(4)=   0.000000  celldm(5)=   0.000000  celldm(6)=   0.000000

     crystal axes: (cart. coord. in units of alat)
               a(1) = (  -0.577350   0.577350   0.577350 )
               a(2) = (   0.577350  -0.577350   0.577350 )
               a(3) = (   0.577350   0.577350  -0.577350 )

     reciprocal axes: (cart. coord. in units 2 pi/alat)
               b(1) = (  0.000000  0.866025  0.866025 )
               b(2) = (  0.866025  0.000000  0.866025 )
               b(3) = (  0.866025  0.866025  0.000000 )

     PseudoPot. # 1 for Mn read from file:
     /home/cristian/Escritorio/Proyecto_Grafeno/pseudopotenciales/Mn.pbe-spn-rrkjus_psl.0.3.1.UPF
     MD5 check sum: e1cac159bdd2ba70c18e85765a5d4279
     Pseudo is Ultrasoft + core correction, Zval = 15.0
     Generated using "atomic" code by A. Dal Corso v.6.2.2
     Using radial grid of 1187 points,  6 beta functions with:
                l(1) =   0
                l(2) =   0
                l(3) =   1
                l(4) =   1
                l(5) =   2
                l(6) =   2
     Q(r) pseudized with 0 coefficients

     atomic species   valence    mass     pseudopotential
        Mn            15.00    54.93804     Mn( 1.00)

     Starting magnetic structure
     atomic species   magnetization
        Mn           0.700

     24 Sym. Ops. (no inversion) found

                                    s                        frac. trans.

      isym =  1     identity

 cryst.   s( 1) = (     1          0          0      )
                  (     0          1          0      )
                  (     0          0          1      )

 cart.    s( 1) = (  1.0000000  0.0000000  0.0000000 )
                  (  0.0000000  1.0000000  0.0000000 )
                  (  0.0000000  0.0000000  1.0000000 )

      isym =  2     180 deg rotation - cart. axis [0,0,1]

[...]

 cryst.   s( 9) = (     0          1          0      )
                  (     0          0          1      )
                  (     1          0          0      )

 cart.    s( 9) = (  0.0000000  0.0000000  1.0000000 )
                  (  1.0000000  0.0000000  0.0000000 )
                  (  0.0000000  1.0000000  0.0000000 )

[...]

 cryst.   s(10) = (     0          0          1      )
                  (     0          1          0      )
                  (    -1         -1         -1      )

 cart.    s(10) = (  0.0000000  0.0000000  1.0000000 )
                  ( -1.0000000  0.0000000  0.0000000 )
                  (  0.0000000 -1.0000000  0.0000000 )

[...]

      isym = 12     120 deg rotation - cart. axis [-1,-1,1]

[...]

      isym = 13     inv. 180 deg rotation - cart. axis [1,1,0]

[...]

      isym = 24     inv.  90 deg rotation - cart. axis [1,0,0]

 cryst.   s(24) = (     0          0          1      )
                  (     1          0          0      )
                  (    -1         -1         -1      )

 cart.    s(24) = ( -1.0000000  0.0000000  0.0000000 )
                  (  0.0000000  0.0000000  1.0000000 )
                  (  0.0000000 -1.0000000  0.0000000 )

   Cartesian axes

     site n.     atom                  positions (alat units)
         1           Mn  tau(   1) = (   0.0000000   0.0000000   0.0000000  )
         2           Mn  tau(   2) = (   0.3670447   0.3670447   0.3670447  )
         3           Mn  tau(   3) = (   0.2103056   0.2103056  -0.2103056  )
         4           Mn  tau(   4) = (   0.2103056  -0.2103056   0.2103056  )
         5           Mn  tau(   5) = (  -0.2103056   0.2103056   0.2103056  )
         6           Mn  tau(   6) = (   0.4739122   0.4739122  -0.2517940  )
         7           Mn  tau(   7) = (   0.1034381   0.1034381   0.3255563  )
         8           Mn  tau(   8) = (   0.1034381  -0.1034381   0.8291443  )
         9           Mn  tau(   9) = (  -0.1034381   0.1034381   0.8291443  )
        10           Mn  tau(  10) = (  -0.2517940   0.4739122   0.4739122  )
        11           Mn  tau(  11) = (   0.3255563   0.1034381   0.1034381  )
        12           Mn  tau(  12) = (   0.8291443   0.1034381  -0.1034381  )
        13           Mn  tau(  13) = (   0.8291443  -0.1034381   0.1034381  )
        14           Mn  tau(  14) = (   0.4739122  -0.2517940   0.4739122  )
        15           Mn  tau(  15) = (   0.1034381   0.3255563   0.1034381  )
        16           Mn  tau(  16) = (  -0.1034381   0.8291443   0.1034381  )
        17           Mn  tau(  17) = (   0.1034381   0.8291443  -0.1034381  )
        18           Mn  tau(  18) = (   0.1650529   0.1650529   0.6172683  )
        19           Mn  tau(  19) = (   0.4122974   0.4122974   0.0399180  )
        20           Mn  tau(  20) = (  -0.1650529   0.1650529   0.5374323  )
        21           Mn  tau(  21) = (   0.1650529  -0.1650529   0.5374323  )
        22           Mn  tau(  22) = (   0.6172683   0.1650529   0.1650529  )
        23           Mn  tau(  23) = (   0.0399180   0.4122974   0.4122974  )
        24           Mn  tau(  24) = (   0.5374323  -0.1650529   0.1650529  )
        25           Mn  tau(  25) = (   0.5374323   0.1650529  -0.1650529  )
        26           Mn  tau(  26) = (   0.1650529   0.6172683   0.1650529  )
        27           Mn  tau(  27) = (   0.4122974   0.0399180   0.4122974  )
        28           Mn  tau(  28) = (   0.1650529   0.5374323  -0.1650529  )
        29           Mn  tau(  29) = (  -0.1650529   0.5374323   0.1650529  )

   Crystallographic axes

     site n.     atom                  positions (cryst. coord.)
         1           Mn  tau(   1) = (  0.0000000  0.0000000  0.0000000  )
         2           Mn  tau(   2) = (  0.6357400  0.6357400  0.6357400  )
         3           Mn  tau(   3) = (  0.0000000  0.0000000  0.3642600  )
         4           Mn  tau(   4) = (  0.0000000  0.3642600  0.0000000  )
         5           Mn  tau(   5) = (  0.3642600  0.0000000  0.0000000  )
         6           Mn  tau(   6) = (  0.1923600  0.1923600  0.8208400  )
         7           Mn  tau(   7) = (  0.3715200  0.3715200  0.1791600  )
         8           Mn  tau(   8) = (  0.6284800  0.8076400  0.0000000  )
         9           Mn  tau(   9) = (  0.8076400  0.6284800  0.0000000  )
        10           Mn  tau(  10) = (  0.8208400  0.1923600  0.1923600  )
        11           Mn  tau(  11) = (  0.1791600  0.3715200  0.3715200  )
        12           Mn  tau(  12) = (  0.0000000  0.6284800  0.8076400  )
        13           Mn  tau(  13) = (  0.0000000  0.8076400  0.6284800  )
        14           Mn  tau(  14) = (  0.1923600  0.8208400  0.1923600  )
        15           Mn  tau(  15) = (  0.3715200  0.1791600  0.3715200  )
        16           Mn  tau(  16) = (  0.8076400  0.0000000  0.6284800  )
        17           Mn  tau(  17) = (  0.6284800  0.0000000  0.8076400  )
        18           Mn  tau(  18) = (  0.6775100  0.6775100  0.2858800  )
        19           Mn  tau(  19) = (  0.3916300  0.3916300  0.7141200  )
        20           Mn  tau(  20) = (  0.6083700  0.3224900  0.0000000  )
        21           Mn  tau(  21) = (  0.3224900  0.6083700  0.0000000  )
        22           Mn  tau(  22) = (  0.2858800  0.6775100  0.6775100  )
        23           Mn  tau(  23) = (  0.7141200  0.3916300  0.3916300  )
        24           Mn  tau(  24) = (  0.0000000  0.6083700  0.3224900  )
        25           Mn  tau(  25) = (  0.0000000  0.3224900  0.6083700  )
        26           Mn  tau(  26) = (  0.6775100  0.2858800  0.6775100  )
        27           Mn  tau(  27) = (  0.3916300  0.7141200  0.3916300  )
        28           Mn  tau(  28) = (  0.3224900  0.0000000  0.6083700  )
        29           Mn  tau(  29) = (  0.6083700  0.0000000  0.3224900  )

     number of k points=     8  Methfessel-Paxton smearing, width (Ry)=  0.0300
                       cart. coord. in units 2pi/alat
        k(    1) = (   0.0000000   0.0000000   0.0000000), wk =   0.0156250
        k(    2) = (   0.2165064   0.2165064   0.0000000), wk =   0.1875000
        k(    3) = (  -0.4330127  -0.4330127   0.0000000), wk =   0.0937500
        k(    4) = (   0.4330127   0.2165064   0.2165064), wk =   0.3750000
        k(    5) = (   0.4330127   0.4330127   0.4330127), wk =   0.0312500
        k(    6) = (   0.0000000   0.0000000   0.4330127), wk =   0.0937500
        k(    7) = (  -0.8660254  -0.2165064  -0.2165064), wk =   0.1875000
        k(    8) = (  -0.8660254  -0.8660254  -0.8660254), wk =   0.0156250

                       cryst. coord.
        k(    1) = (   0.0000000   0.0000000   0.0000000), wk =   0.0156250
        k(    2) = (   0.0000000   0.0000000   0.2500000), wk =   0.1875000
        k(    3) = (   0.0000000   0.0000000  -0.5000000), wk =   0.0937500
        k(    4) = (   0.0000000   0.2500000   0.2500000), wk =   0.3750000
        k(    5) = (   0.2500000   0.2500000   0.2500000), wk =   0.0312500
        k(    6) = (   0.2500000   0.2500000  -0.2500000), wk =   0.0937500
        k(    7) = (   0.2500000  -0.5000000  -0.5000000), wk =   0.1875000
        k(    8) = (  -0.5000000  -0.5000000  -0.5000000), wk =   0.0156250

     Check: negative core charge=   -0.000005

     Initial potential from superposition of free atoms

     starting charge  434.98555, renormalised to  435.00000
     Starting wfcs are  290 randomized atomic wfcs

     Self-consistent Calculation

     iteration #  1     ecut=    70.00 Ry     beta= 0.70
     Davidson diagonalization with overlap
     ethr =  1.00E-02,  avg # of iterations =  3.1

     total energy              =   -6195.45940260 Ry
     Harris-Foulkes estimate   =   -6169.32229402 Ry
     estimated scf accuracy    <      36.49384187 Ry

     total magnetization       =    89.00 Bohr mag/cell
     absolute magnetization    =    95.84 Bohr mag/cell

[...]

     total energy              =   -6201.36438040 Ry
     Harris-Foulkes estimate   =   -6201.36438074 Ry
     estimated scf accuracy    <       0.00000115 Ry

[...]

     iteration # 39     ecut=    70.00 Ry     beta= 0.70
     Davidson diagonalization with overlap
     ethr =  2.64E-10,  avg # of iterations =  2.7

     Magnetic moment per site:
     atom:    1    charge:   12.6697    magn:   -3.0378    constr:    0.0000
     atom:    2    charge:   12.6866    magn:   -2.9808    constr:    0.0000
     atom:    3    charge:   12.6866    magn:   -2.9808    constr:    0.0000
     atom:    4    charge:   12.6866    magn:   -2.9808    constr:    0.0000
     atom:    5    charge:   12.6866    magn:   -2.9808    constr:    0.0000
     atom:    6    charge:   12.8222    magn:   -0.8630    constr:    0.0000
     atom:    7    charge:   12.8222    magn:   -0.8630    constr:    0.0000
     atom:    8    charge:   12.8222    magn:   -0.8630    constr:    0.0000
     atom:    9    charge:   12.8222    magn:   -0.8630    constr:    0.0000
     atom:   10    charge:   12.8222    magn:   -0.8630    constr:    0.0000
     atom:   11    charge:   12.8222    magn:   -0.8630    constr:    0.0000
     atom:   12    charge:   12.8222    magn:   -0.8630    constr:    0.0000
     atom:   13    charge:   12.8222    magn:   -0.8630    constr:    0.0000
     atom:   14    charge:   12.8222    magn:   -0.8630    constr:    0.0000
     atom:   15    charge:   12.8222    magn:   -0.8630    constr:    0.0000
     atom:   16    charge:   12.8222    magn:   -0.8630    constr:    0.0000
     atom:   17    charge:   12.8222    magn:   -0.8630    constr:    0.0000
     atom:   18    charge:   12.7581    magn:    1.5451    constr:    0.0000
     atom:   19    charge:   12.7581    magn:    1.5451    constr:    0.0000
     atom:   20    charge:   12.7581    magn:    1.5451    constr:    0.0000
     atom:   21    charge:   12.7581    magn:    1.5451    constr:    0.0000
     atom:   22    charge:   12.7581    magn:    1.5451    constr:    0.0000
     atom:   23    charge:   12.7581    magn:    1.5451    constr:    0.0000
     atom:   24    charge:   12.7581    magn:    1.5451    constr:    0.0000
     atom:   25    charge:   12.7581    magn:    1.5451    constr:    0.0000
     atom:   26    charge:   12.7581    magn:    1.5451    constr:    0.0000
     atom:   27    charge:   12.7581    magn:    1.5451    constr:    0.0000
     atom:   28    charge:   12.7581    magn:    1.5451    constr:    0.0000
     atom:   29    charge:   12.7581    magn:    1.5451    constr:    0.0000

     End of self-consistent calculation

 ------ SPIN UP ------------

          k = 0.0000 0.0000 0.0000 ( 23623 PWs)   bands (ev):

   -62.6937 -62.6693 -62.6693 -62.6693 -62.6607 -62.6607 -62.6479 -62.6479
   -62.6479 -62.6460 -62.6460 -62.6460 -61.2458 -61.2224 -61.2224 -61.2224
   -61.1970 -61.1970 -61.1480 -61.1480 -61.1480 -61.1223 -61.1223 -61.1223
   -59.8260 -59.8260 -59.8260 -59.8258 -59.5780 -31.5179 -31.5179 -31.5179
   -31.5107 -31.5107 -31.5080 -31.5080 -31.5080 -31.4786 -31.4786 -31.4786
   -31.4491 -31.4491 -31.4459 -31.4201 -31.4201 -31.4182 -31.4182 -31.4182
   -31.4075 -31.3848 -31.3848 -31.3848 -31.3251 -31.3251 -31.3251 -31.3029
   -31.3029 -31.3029 -31.2369 -31.2369 -31.2369 -31.2261 -31.2112 -31.2112
   -31.2112 -30.3565 -30.2827 -30.2827 -30.2827 -30.2152 -30.2152 -30.0166
   -30.0166 -30.0166 -30.0117 -29.9948 -29.9948 -29.9948 -29.9736 -29.9736
   -29.9736 -29.9526 -29.9526 -29.8299 -29.8299 -29.8299 -29.8011 -29.7852
   -29.7852 -29.7852 -29.7834 -29.7834 -29.7781 -29.7781 -29.7781 -29.7730
   -29.7730 -29.7730 -29.7217 -29.7217 -29.7217 -28.6546 -28.6546 -28.6546
   -28.6534 -28.6534 -28.6529 -28.6529 -28.6529 -28.5636 -28.5636 -28.5636
   -28.5561 -28.3699 -28.3699 -28.3699   9.4927  12.6939  12.6939  12.6939
    12.8656  12.8656  12.8656  12.8889  12.9257  12.9257  12.9257  12.9949
    12.9949  13.6319  13.7157  13.7157  13.7157  13.8075  13.8075  13.9850
    13.9850  13.9850  14.1819  14.2291  14.2291  14.2291  14.3595  14.5623
    14.5623  14.5649  14.5649  14.5649  14.8164  14.8164  14.8164  14.9325
    14.9325  14.9325  14.9540  14.9540  14.9540  15.0586  15.0586  15.0886
    15.2938  15.2938  15.2938  15.4148  15.4148  15.4148  15.4391  15.4391
    15.4391  15.4819  15.5594  15.5594  15.5594  15.6386  15.6386  15.6386
    15.7387  15.7387  15.8919  15.9058  15.9058  15.9058  16.0114  16.0114
    16.0114  16.0434  16.0521  16.0521  16.1847  16.1847  16.1847  16.2799
    16.2799  16.2919  16.2919  16.2919  16.5349  16.5349  16.7431  16.7431
    16.7431  16.7870  16.7870  16.7870  17.0685  17.1107  17.1107  17.1107
    17.3006  17.3006  17.3814  17.3814  17.3814  17.5339  17.5339  17.6006
    17.6006  17.6006  17.6977  17.6977  17.6977  17.8059  17.8059  17.8059
    17.9198  17.9198  17.9198  17.9348  17.9348  18.1576  18.1576  18.1576
    18.2832  18.2832  18.2832  18.5775  18.5775  18.5775  18.6079  18.6079
    18.6079  18.6172  18.6172  18.7501  18.7501  18.7501  18.7975  18.7975
    18.8422  18.8570  18.8570  18.8570  18.9853  19.1452  19.1452  19.1452
    19.2795  19.3671  19.3671  19.3671  19.4419  19.4419

     occupation numbers
     1.0000   1.0000   1.0000   1.0000   1.0000   1.0000   1.0000   1.0000
     1.0000   1.0000   1.0000   1.0000   1.0000   1.0000   1.0000   1.0000
     1.0000   1.0000   1.0000   1.0000   1.0000   1.0000   1.0000   1.0000
     1.0000   1.0000   1.0000   1.0000   1.0000   1.0000   1.0000   1.0000
     1.0000   1.0000   1.0000   1.0000   1.0000   1.0000   1.0000   1.0000
     1.0000   1.0000   1.0000   1.0000   1.0000   1.0000   1.0000   1.0000
     1.0000   1.0000   1.0000   1.0000   1.0000   1.0000   1.0000   1.0000
     1.0000   1.0000   1.0000   1.0000   1.0000   1.0000   1.0000   1.0000
     1.0000   1.0000   1.0000   1.0000   1.0000   1.0000   1.0000   1.0000
     1.0000   1.0000   1.0000   1.0000   1.0000   1.0000   1.0000   1.0000
     1.0000   1.0000   1.0000   1.0000   1.0000   1.0000   1.0000   1.0000
     1.0000   1.0000   1.0000   1.0000   1.0000   1.0000   1.0000   1.0000
     1.0000   1.0000   1.0000   1.0000   1.0000   1.0000   1.0000   1.0000
     1.0000   1.0000   1.0000   1.0000   1.0000   1.0000   1.0000   1.0000
     1.0000   1.0000   1.0000   1.0000   1.0000   1.0000   1.0000   1.0000
     1.0000   1.0000   1.0000   1.0000   1.0000   1.0000   1.0000   1.0000
     1.0000   1.0000   1.0000   1.0000   1.0000   1.0000   1.0000   1.0000
     1.0000   1.0000   1.0000   1.0000   1.0000   1.0000   1.0000   1.0000
     1.0000   1.0000   1.0000   1.0000   1.0000   1.0000   1.0000   1.0000
     1.0000   1.0000   1.0000   1.0000   1.0000   1.0000   1.0000   1.0000
     1.0000   1.0000   1.0000   1.0000   1.0000   1.0000   1.0000   1.0000
     1.0000   1.0000   1.0000   1.0000   1.0000   1.0000   1.0000   1.0000
     1.0000   1.0000   1.0000   1.0000   1.0000   1.0000   1.0000   1.0000
     1.0000   1.0000   1.0000   1.0000   1.0000   1.0000   1.0000   1.0001
     1.0001   1.0002   1.0002   1.0002   1.0026   1.0026   1.0143   1.0143
     1.0143   1.0188   1.0188   1.0188   1.0257   1.0118   1.0118   1.0118
     0.8336   0.8336   0.6960   0.6960   0.6960   0.3872   0.3872   0.2598
     0.2598   0.2598   0.1108   0.1108   0.1108   0.0097   0.0097   0.0097
    -0.0316  -0.0316  -0.0316  -0.0334  -0.0334  -0.0202  -0.0202  -0.0202
    -0.0088  -0.0088  -0.0088  -0.0005  -0.0005  -0.0005  -0.0003  -0.0003
    -0.0003  -0.0003  -0.0003  -0.0000  -0.0000  -0.0000  -0.0000  -0.0000
    -0.0000  -0.0000  -0.0000  -0.0000  -0.0000  -0.0000  -0.0000  -0.0000
    -0.0000  -0.0000  -0.0000  -0.0000  -0.0000  -0.0000

[...]

          k =-0.4330-0.4330 0.0000 ( 23636 PWs)   bands (ev):

[...]

 ------ SPIN DOWN ----------

[...]

          k = 0.0000 0.0000 0.4330 ( 23658 PWs)   bands (ev):

[...]

          k =-0.8660-0.8660-0.8660 ( 23634 PWs)   bands (ev):

   -63.4434 -63.4432 -63.4432 -63.4432 -63.2815 -62.2906 -62.2670 -62.2670
   -62.2670 -62.2435 -62.2435 -62.1953 -62.1953 -62.1953 -62.1703 -62.1703
   -62.1703 -60.8119 -60.8119 -60.7988 -60.7988 -60.7988 -60.7797 -60.7774
   -60.7774 -60.7774 -60.7752 -60.7752 -60.7752 -32.1755 -32.1755 -32.1755
   -32.1733 -32.1733 -32.1733 -32.1719 -32.1719 -32.1532 -32.1532 -32.1532
   -32.1436 -31.9928 -31.9928 -31.9928 -31.2539 -31.1868 -31.1868 -31.1868
   -31.1382 -31.1382 -31.1353 -31.1042 -31.1042 -31.1042 -31.0710 -31.0710
   -31.0710 -31.0444 -31.0444 -31.0444 -31.0442 -31.0442 -30.9111 -30.9111
   -30.9111 -30.9082 -30.9082 -30.9082 -30.8977 -30.8977 -30.8977 -30.8792
   -30.8750 -30.8750 -30.7210 -30.7210 -30.7210 -30.6374 -30.6374 -30.6374
   -29.7348 -29.6699 -29.6699 -29.6699 -29.6374 -29.6240 -29.6240 -29.6240
   -29.5993 -29.5993 -29.5787 -29.5741 -29.5741 -29.5741 -29.5597 -29.5597
   -29.5498 -29.5498 -29.5498 -29.5320 -29.5320 -29.5320 -29.5030 -29.5030
   -29.5030 -29.4961 -29.4961 -29.4535 -29.4535 -29.4535 -29.4510 -29.4510
   -29.4510 -29.4157 -29.4157 -29.4157  11.3250  11.3250  11.3250  11.3558
    11.4981  11.4981  12.9903  13.3723  13.4024  13.4024  13.4024  13.4796
    13.4796  13.4796  13.4867  13.6826  13.6826  13.6826  13.6945  13.6945
    13.6945  13.9952  13.9952  14.3185  14.3185  14.3185  14.3680  14.3680
    14.3680  14.4955  14.4955  14.4955  14.5690  14.5690  14.6594  14.6594
    14.6594  14.7178  14.7178  14.8609  14.8609  14.9633  14.9633  14.9633
    15.1134  15.1134  15.1134  15.1175  15.1175  15.1175  15.1830  15.1830
    15.1830  15.2693  15.2693  15.4395  15.4395  15.4395  15.5323  15.5323
    15.7057  15.7057  15.7057  15.8496  15.8496  15.8496  15.8938  15.9745
    15.9745  15.9766  16.0224  16.0224  16.0224  16.0263  16.1141  16.1141
    16.1141  16.2685  16.2685  16.2685  16.5410  16.5410  16.5410  16.6145
    16.6145  16.6262  16.6262  16.6262  16.7454  16.7454  16.7454  16.8303
    16.8974  16.9109  16.9109  16.9765  16.9765  16.9765  17.0710  17.0710
    17.0710  17.1208  17.1208  17.1208  17.4416  17.4416  17.5375  17.5375
    17.5375  17.8565  17.8565  17.8565  17.8869  18.0314  18.0314  18.0427
    18.0427  18.0427  18.1413  18.1413  18.1413  18.2225  18.2225  18.3326
    18.3326  18.3326  18.4035  18.5570  18.5570  18.5570  18.7027  18.7027
    18.7027  18.8200  18.8200  18.8200  18.9134  18.9134  18.9134  18.9328
    18.9934  18.9934  19.0494  19.0494  19.0494  19.1102

     occupation numbers
     1.0000   1.0000   1.0000   1.0000   1.0000   1.0000   1.0000   1.0000
     1.0000   1.0000   1.0000   1.0000   1.0000   1.0000   1.0000   1.0000
     1.0000   1.0000   1.0000   1.0000   1.0000   1.0000   1.0000   1.0000
     1.0000   1.0000   1.0000   1.0000   1.0000   1.0000   1.0000   1.0000
     1.0000   1.0000   1.0000   1.0000   1.0000   1.0000   1.0000   1.0000
     1.0000   1.0000   1.0000   1.0000   1.0000   1.0000   1.0000   1.0000
     1.0000   1.0000   1.0000   1.0000   1.0000   1.0000   1.0000   1.0000
     1.0000   1.0000   1.0000   1.0000   1.0000   1.0000   1.0000   1.0000
     1.0000   1.0000   1.0000   1.0000   1.0000   1.0000   1.0000   1.0000
     1.0000   1.0000   1.0000   1.0000   1.0000   1.0000   1.0000   1.0000
     1.0000   1.0000   1.0000   1.0000   1.0000   1.0000   1.0000   1.0000
     1.0000   1.0000   1.0000   1.0000   1.0000   1.0000   1.0000   1.0000
     1.0000   1.0000   1.0000   1.0000   1.0000   1.0000   1.0000   1.0000
     1.0000   1.0000   1.0000   1.0000   1.0000   1.0000   1.0000   1.0000
     1.0000   1.0000   1.0000   1.0000   1.0000   1.0000   1.0000   1.0000
     1.0000   1.0000   1.0000   1.0000   1.0000   1.0000   1.0000   1.0000
     1.0000   1.0000   1.0000   1.0000   1.0000   1.0000   1.0000   1.0000
     1.0000   1.0000   1.0000   1.0000   1.0000   1.0000   1.0000   1.0000
     1.0000   1.0000   1.0000   1.0000   1.0000   1.0000   1.0000   1.0000
     1.0000   1.0000   1.0000   1.0000   1.0000   1.0000   1.0000   1.0000
     1.0000   1.0000   1.0000   1.0000   1.0000   1.0000   1.0000   1.0000
     1.0000   1.0000   1.0000   1.0000   1.0000   1.0000   1.0000   1.0000
     1.0000   1.0000   1.0000   1.0000   1.0000   1.0000   1.0000   1.0000
     1.0000   1.0000   1.0000   1.0000   1.0000   1.0000   1.0000   1.0000
     1.0000   1.0001   1.0001   1.0001   1.0027   1.0027   1.0027   1.0054
     1.0054   1.0059   1.0059   1.0059   1.0145   1.0145   1.0145   1.0236
     1.0308   1.0321   1.0321   1.0355   1.0355   1.0355   1.0251   1.0251
     1.0251   1.0073   1.0073   1.0073   0.5771   0.5771   0.3799   0.3799
     0.3799  -0.0155  -0.0155  -0.0155  -0.0251  -0.0333  -0.0333  -0.0324
    -0.0324  -0.0324  -0.0220  -0.0220  -0.0220  -0.0136  -0.0136  -0.0059
    -0.0059  -0.0059  -0.0031  -0.0006  -0.0006  -0.0006  -0.0001  -0.0001
    -0.0001  -0.0000  -0.0000  -0.0000  -0.0000  -0.0000  -0.0000  -0.0000
    -0.0000  -0.0000  -0.0000  -0.0000  -0.0000  -0.0000

     the Fermi energy is    17.4789 ev

!    total energy              =   -6201.36438067 Ry
     Harris-Foulkes estimate   =   -6201.36438071 Ry
     estimated scf accuracy    <       0.00000006 Ry

     The total energy is the sum of the following terms:

     one-electron contribution =   -2626.91143523 Ry
     hartree contribution      =    1552.22244243 Ry
     xc contribution           =    -807.97227821 Ry
     ewald contribution        =   -4318.71624771 Ry
     smearing contrib. (-TS)   =       0.01313805 Ry

     total magnetization       =    -7.31 Bohr mag/cell
     absolute magnetization    =    48.18 Bohr mag/cell

     convergence has been achieved in  39 iterations

     Writing output data file mn-4.save/

     General routines

     Parallel routines

   This run was terminated on:   1:22: 6   2Aug2022

   JOB DONE.