     Program PWSCF v.6.4.1 starts on  2Aug2022 at 19:20:48

     R & G space division:  proc/nbgrp/npool/nimage =       6
     Reading input from mn-6.in

     Current dimensions of program PWSCF are:
     Max number of different atomic species (ntypx) = 10
     Max number of k-points (npk) =  40000
     Max angular momentum in pseudopotentials (lmaxx) =  3
               file Mn.pbe-spn-rrkjus_psl.0.3.1.UPF: wavefunction(s)  3D renormalized

     Subspace diagonalization in iterative solution of the eigenvalue problem:
     a serial algorithm will be used

     Message from routine setup:
     DEPRECATED: symmetry with ibrav=0, use correct ibrav instead

     bravais-lattice index     =            0
     lattice parameter (alat)  =      14.5833  a.u.
     unit-cell volume          =    2387.5141 (a.u.)^3
     number of atoms/cell      =           29
     number of atomic types    =            1
     number of electrons       =       435.00
     number of Kohn-Sham states=          262
     kinetic-energy cutoff     =      70.0000  Ry
     charge density cutoff     =     700.0000  Ry
     convergence threshold     =      1.0E-06
     mixing beta               =       0.7000
     number of iterations used =            8  plain     mixing
     Exchange-correlation      = PBE ( 1  4  3  4 0 0)

     celldm(1)=  14.583305  celldm(2)=   0.000000  celldm(3)=   0.000000
     celldm(4)=   0.000000  celldm(5)=   0.000000  celldm(6)=   0.000000

     crystal axes: (cart. coord. in units of alat)
               a(1) = (  -0.577350   0.577350   0.577350 )
               a(2) = (   0.577350  -0.577350   0.577350 )
               a(3) = (   0.577350   0.577350  -0.577350 )

     reciprocal axes: (cart. coord. in units 2 pi/alat)
               b(1) = (  0.000000  0.866025  0.866025 )
               b(2) = (  0.866025  0.000000  0.866025 )
               b(3) = (  0.866025  0.866025  0.000000 )

     PseudoPot. # 1 for Mn read from file:
     /home/cristian/Escritorio/Proyecto_Grafeno/pseudopotenciales/Mn.pbe-spn-rrkjus_psl.0.3.1.UPF
     MD5 check sum: e1cac159bdd2ba70c18e85765a5d4279
     Pseudo is Ultrasoft + core correction, Zval = 15.0
     Generated using "atomic" code by A. Dal Corso v.6.2.2
     Using radial grid of 1187 points,  6 beta functions with:
                l(1) =   0
                l(2) =   0
                l(3) =   1
                l(4) =   1
                l(5) =   2
                l(6) =   2
     Q(r) pseudized with 0 coefficients

     atomic species   valence    mass     pseudopotential
        Mn            15.00    54.93804     Mn( 1.00)

     Starting magnetic structure
     atomic species   magnetization
        Mn           0.700

     24 Sym. Ops. (no inversion) found

                                    s                        frac. trans.

      isym =  1     identity

 cryst.   s( 1) = (     1          0          0      )
                  (     0          1          0      )
                  (     0          0          1      )

 cart.    s( 1) = (  1.0000000  0.0000000  0.0000000 )
                  (  0.0000000  1.0000000  0.0000000 )
                  (  0.0000000  0.0000000  1.0000000 )

      isym =  2     180 deg rotation - cart. axis [0,0,1]

[...]

 cryst.   s( 9) = (     0          1          0      )
                  (     0          0          1      )
                  (     1          0          0      )

 cart.    s( 9) = (  0.0000000  0.0000000  1.0000000 )
                  (  1.0000000  0.0000000  0.0000000 )
                  (  0.0000000  1.0000000  0.0000000 )

[...]

 cryst.   s(10) = (     0          0          1      )
                  (     0          1          0      )
                  (    -1         -1         -1      )

 cart.    s(10) = (  0.0000000  0.0000000  1.0000000 )
                  ( -1.0000000  0.0000000  0.0000000 )
                  (  0.0000000 -1.0000000  0.0000000 )

[...]

      isym = 12     120 deg rotation - cart. axis [-1,-1,1]

[...]

      isym = 13     inv. 180 deg rotation - cart. axis [1,1,0]

[...]

      isym = 24     inv.  90 deg rotation - cart. axis [1,0,0]

 cryst.   s(24) = (     0          0          1      )
                  (     1          0          0      )
                  (    -1         -1         -1      )

 cart.    s(24) = ( -1.0000000  0.0000000  0.0000000 )
                  (  0.0000000  0.0000000  1.0000000 )
                  (  0.0000000 -1.0000000  0.0000000 )

   Cartesian axes

     site n.     atom                  positions (alat units)
         1           Mn  tau(   1) = (   0.0000000   0.0000000   0.0000000  )
         2           Mn  tau(   2) = (   0.3670447   0.3670447   0.3670447  )
         3           Mn  tau(   3) = (   0.2103056   0.2103056  -0.2103056  )
         4           Mn  tau(   4) = (   0.2103056  -0.2103056   0.2103056  )
         5           Mn  tau(   5) = (  -0.2103056   0.2103056   0.2103056  )
         6           Mn  tau(   6) = (   0.4739122   0.4739122  -0.2517940  )
         7           Mn  tau(   7) = (   0.1034381   0.1034381   0.3255563  )
         8           Mn  tau(   8) = (   0.1034381  -0.1034381   0.8291443  )
         9           Mn  tau(   9) = (  -0.1034381   0.1034381   0.8291443  )
        10           Mn  tau(  10) = (  -0.2517940   0.4739122   0.4739122  )
        11           Mn  tau(  11) = (   0.3255563   0.1034381   0.1034381  )
        12           Mn  tau(  12) = (   0.8291443   0.1034381  -0.1034381  )
        13           Mn  tau(  13) = (   0.8291443  -0.1034381   0.1034381  )
        14           Mn  tau(  14) = (   0.4739122  -0.2517940   0.4739122  )
        15           Mn  tau(  15) = (   0.1034381   0.3255563   0.1034381  )
        16           Mn  tau(  16) = (  -0.1034381   0.8291443   0.1034381  )
        17           Mn  tau(  17) = (   0.1034381   0.8291443  -0.1034381  )
        18           Mn  tau(  18) = (   0.1650529   0.1650529   0.6172683  )
        19           Mn  tau(  19) = (   0.4122974   0.4122974   0.0399180  )
        20           Mn  tau(  20) = (  -0.1650529   0.1650529   0.5374323  )
        21           Mn  tau(  21) = (   0.1650529  -0.1650529   0.5374323  )
        22           Mn  tau(  22) = (   0.6172683   0.1650529   0.1650529  )
        23           Mn  tau(  23) = (   0.0399180   0.4122974   0.4122974  )
        24           Mn  tau(  24) = (   0.5374323  -0.1650529   0.1650529  )
        25           Mn  tau(  25) = (   0.5374323   0.1650529  -0.1650529  )
        26           Mn  tau(  26) = (   0.1650529   0.6172683   0.1650529  )
        27           Mn  tau(  27) = (   0.4122974   0.0399180   0.4122974  )
        28           Mn  tau(  28) = (   0.1650529   0.5374323  -0.1650529  )
        29           Mn  tau(  29) = (  -0.1650529   0.5374323   0.1650529  )

   Crystallographic axes

     site n.     atom                  positions (cryst. coord.)
         1           Mn  tau(   1) = (  0.0000000  0.0000000  0.0000000  )
         2           Mn  tau(   2) = (  0.6357400  0.6357400  0.6357400  )
         3           Mn  tau(   3) = (  0.0000000  0.0000000  0.3642600  )
         4           Mn  tau(   4) = (  0.0000000  0.3642600  0.0000000  )
         5           Mn  tau(   5) = (  0.3642600  0.0000000  0.0000000  )
         6           Mn  tau(   6) = (  0.1923600  0.1923600  0.8208400  )
         7           Mn  tau(   7) = (  0.3715200  0.3715200  0.1791600  )
         8           Mn  tau(   8) = (  0.6284800  0.8076400  0.0000000  )
         9           Mn  tau(   9) = (  0.8076400  0.6284800  0.0000000  )
        10           Mn  tau(  10) = (  0.8208400  0.1923600  0.1923600  )
        11           Mn  tau(  11) = (  0.1791600  0.3715200  0.3715200  )
        12           Mn  tau(  12) = (  0.0000000  0.6284800  0.8076400  )
        13           Mn  tau(  13) = (  0.0000000  0.8076400  0.6284800  )
        14           Mn  tau(  14) = (  0.1923600  0.8208400  0.1923600  )
        15           Mn  tau(  15) = (  0.3715200  0.1791600  0.3715200  )
        16           Mn  tau(  16) = (  0.8076400  0.0000000  0.6284800  )
        17           Mn  tau(  17) = (  0.6284800  0.0000000  0.8076400  )
        18           Mn  tau(  18) = (  0.6775100  0.6775100  0.2858800  )
        19           Mn  tau(  19) = (  0.3916300  0.3916300  0.7141200  )
        20           Mn  tau(  20) = (  0.6083700  0.3224900  0.0000000  )
        21           Mn  tau(  21) = (  0.3224900  0.6083700  0.0000000  )
        22           Mn  tau(  22) = (  0.2858800  0.6775100  0.6775100  )
        23           Mn  tau(  23) = (  0.7141200  0.3916300  0.3916300  )
        24           Mn  tau(  24) = (  0.0000000  0.6083700  0.3224900  )
        25           Mn  tau(  25) = (  0.0000000  0.3224900  0.6083700  )
        26           Mn  tau(  26) = (  0.6775100  0.2858800  0.6775100  )
        27           Mn  tau(  27) = (  0.3916300  0.7141200  0.3916300  )
        28           Mn  tau(  28) = (  0.3224900  0.0000000  0.6083700  )
        29           Mn  tau(  29) = (  0.6083700  0.0000000  0.3224900  )

     number of k points=    16  Methfessel-Paxton smearing, width (Ry)=  0.0300
                       cart. coord. in units 2pi/alat
        k(    1) = (   0.0000000   0.0000000   0.0000000), wk =   0.0046296
        k(    2) = (   0.1443376   0.1443376   0.0000000), wk =   0.0555556
        k(    3) = (   0.2886751   0.2886751   0.0000000), wk =   0.0555556
        k(    4) = (  -0.4330127  -0.4330127   0.0000000), wk =   0.0277778
        k(    5) = (   0.2886751   0.1443376   0.1443376), wk =   0.1111111
        k(    6) = (   0.4330127   0.2886751   0.1443376), wk =   0.2222222
        k(    7) = (   0.5773503   0.2886751   0.2886751), wk =   0.0370370
        k(    8) = (   0.2886751   0.2886751   0.2886751), wk =   0.0370370
        k(    9) = (   0.4330127   0.4330127   0.2886751), wk =   0.0555556
        k(   10) = (   0.0000000   0.0000000   0.2886751), wk =   0.0277778
        k(   11) = (  -0.0000000  -0.1443376   0.4330127), wk =   0.1111111
        k(   12) = (  -0.8660254  -0.2886751  -0.2886751), wk =   0.0555556
        k(   13) = (  -0.7216878  -0.1443376  -0.2886751), wk =   0.1111111
        k(   14) = (  -0.0000000  -0.0000000   0.5773503), wk =   0.0277778
        k(   15) = (  -0.8660254  -0.1443376  -0.1443376), wk =   0.0555556
        k(   16) = (  -0.8660254  -0.8660254  -0.8660254), wk =   0.0046296

                       cryst. coord.
        k(    1) = (   0.0000000   0.0000000   0.0000000), wk =   0.0046296
        k(    2) = (   0.0000000   0.0000000   0.1666667), wk =   0.0555556
        k(    3) = (   0.0000000   0.0000000   0.3333333), wk =   0.0555556
        k(    4) = (   0.0000000   0.0000000  -0.5000000), wk =   0.0277778
        k(    5) = (   0.0000000   0.1666667   0.1666667), wk =   0.1111111
        k(    6) = (   0.0000000   0.1666667   0.3333333), wk =   0.2222222
        k(    7) = (   0.0000000   0.3333333   0.3333333), wk =   0.0370370
        k(    8) = (   0.1666667   0.1666667   0.1666667), wk =   0.0370370
        k(    9) = (   0.1666667   0.1666667   0.3333333), wk =   0.0555556
        k(   10) = (   0.1666667   0.1666667  -0.1666667), wk =   0.0277778
        k(   11) = (   0.1666667   0.3333333  -0.3333333), wk =   0.1111111
        k(   12) = (   0.1666667  -0.5000000  -0.5000000), wk =   0.0555556
        k(   13) = (   0.1666667  -0.5000000  -0.3333333), wk =   0.1111111
        k(   14) = (   0.3333333   0.3333333  -0.3333333), wk =   0.0277778
        k(   15) = (   0.3333333  -0.5000000  -0.5000000), wk =   0.0555556
        k(   16) = (  -0.5000000  -0.5000000  -0.5000000), wk =   0.0046296

     Check: negative core charge=   -0.000005

     Initial potential from superposition of free atoms

     starting charge  434.98555, renormalised to  435.00000
     Starting wfcs are  290 randomized atomic wfcs

     Self-consistent Calculation

     iteration #  1     ecut=    70.00 Ry     beta= 0.70
     Davidson diagonalization with overlap
     ethr =  1.00E-02,  avg # of iterations =  3.1

     total energy              =   -6195.44630147 Ry
     Harris-Foulkes estimate   =   -6169.32278584 Ry
     estimated scf accuracy    <      36.51232389 Ry

     total magnetization       =    89.00 Bohr mag/cell
     absolute magnetization    =    95.85 Bohr mag/cell

[...]

     total energy              =   -6201.31049309 Ry
     Harris-Foulkes estimate   =   -6201.31049481 Ry
     estimated scf accuracy    <       0.00000380 Ry

[...]

     iteration # 54     ecut=    70.00 Ry     beta= 0.70
     Davidson diagonalization with overlap
     ethr =  8.74E-10,  avg # of iterations =  4.0

     Magnetic moment per site:
     atom:    1    charge:   12.6582    magn:    0.1142    constr:    0.0000
     atom:    2    charge:   12.6820    magn:   -2.9368    constr:    0.0000
     atom:    3    charge:   12.6820    magn:   -2.9368    constr:    0.0000
     atom:    4    charge:   12.6820    magn:   -2.9368    constr:    0.0000
     atom:    5    charge:   12.6820    magn:   -2.9368    constr:    0.0000
     atom:    6    charge:   12.8187    magn:   -0.7747    constr:    0.0000
     atom:    7    charge:   12.8187    magn:   -0.7747    constr:    0.0000
     atom:    8    charge:   12.8187    magn:   -0.7747    constr:    0.0000
     atom:    9    charge:   12.8187    magn:   -0.7747    constr:    0.0000
     atom:   10    charge:   12.8187    magn:   -0.7747    constr:    0.0000
     atom:   11    charge:   12.8187    magn:   -0.7747    constr:    0.0000
     atom:   12    charge:   12.8187    magn:   -0.7747    constr:    0.0000
     atom:   13    charge:   12.8187    magn:   -0.7747    constr:    0.0000
     atom:   14    charge:   12.8187    magn:   -0.7747    constr:    0.0000
     atom:   15    charge:   12.8187    magn:   -0.7747    constr:    0.0000
     atom:   16    charge:   12.8187    magn:   -0.7747    constr:    0.0000
     atom:   17    charge:   12.8187    magn:   -0.7747    constr:    0.0000
     atom:   18    charge:   12.7560    magn:    1.3907    constr:    0.0000
     atom:   19    charge:   12.7560    magn:    1.3907    constr:    0.0000
     atom:   20    charge:   12.7560    magn:    1.3907    constr:    0.0000
     atom:   21    charge:   12.7560    magn:    1.3907    constr:    0.0000
     atom:   22    charge:   12.7560    magn:    1.3907    constr:    0.0000
     atom:   23    charge:   12.7560    magn:    1.3907    constr:    0.0000
     atom:   24    charge:   12.7560    magn:    1.3907    constr:    0.0000
     atom:   25    charge:   12.7560    magn:    1.3907    constr:    0.0000
     atom:   26    charge:   12.7560    magn:    1.3907    constr:    0.0000
     atom:   27    charge:   12.7560    magn:    1.3907    constr:    0.0000
     atom:   28    charge:   12.7560    magn:    1.3907    constr:    0.0000
     atom:   29    charge:   12.7560    magn:    1.3907    constr:    0.0000

     End of self-consistent calculation

 ------ SPIN UP ------------

          k = 0.0000 0.0000 0.0000 ( 23623 PWs)   bands (ev):

   -62.6468 -62.6222 -62.6222 -62.6222 -62.6135 -62.6135 -62.6007 -62.6007
   -62.6007 -62.5988 -62.5988 -62.5988 -61.8778 -61.3483 -61.3256 -61.3256
   -61.3256 -61.3003 -61.3003 -61.2513 -61.2513 -61.2513 -61.2257 -61.2257
   -61.2257 -59.9212 -59.9212 -59.9212 -59.9210 -31.4779 -31.4779 -31.4779
   -31.4697 -31.4697 -31.4685 -31.4685 -31.4685 -31.4382 -31.4382 -31.4382
   -31.4001 -31.3996 -31.3996 -31.3713 -31.3713 -31.3684 -31.3684 -31.3684
   -31.3627 -31.3349 -31.3349 -31.3349 -31.2744 -31.2744 -31.2744 -31.2511
   -31.2511 -31.2511 -31.1880 -31.1880 -31.1880 -31.1765 -31.1618 -31.1618
   -31.1618 -30.6054 -30.6054 -30.6054 -30.4458 -30.3739 -30.3739 -30.3739
   -30.3081 -30.3081 -30.1114 -30.1087 -30.1087 -30.1087 -30.0906 -30.0906
   -30.0906 -30.0766 -30.0766 -30.0766 -30.0560 -30.0560 -29.9352 -29.9352
   -29.9352 -29.9073 -29.8835 -29.8835 -29.8835 -29.8829 -29.8829 -29.8749
   -29.8749 -29.8749 -29.8742 -29.8742 -29.8742 -29.8158 -29.8158 -29.8158
   -28.7334 -28.7334 -28.7334 -28.7322 -28.7322 -28.7318 -28.7318 -28.7318
   -28.6741 -28.6741 -28.6741 -28.6734   9.4824  12.6991  12.6991  12.6991
    12.8518  12.8523  12.8523  12.8523  12.9055  12.9055  12.9055  12.9807
    12.9807  13.6032  13.7078  13.7078  13.7078  13.7790  13.7790  13.9749
    13.9749  13.9749  14.1467  14.2394  14.2394  14.2394  14.3879  14.4972
    14.4972  14.4972  14.5642  14.5642  14.8085  14.8085  14.8085  14.8629
    14.8629  14.8629  14.9510  14.9510  14.9510  15.0451  15.0482  15.0482
    15.2663  15.2663  15.2663  15.4064  15.4064  15.4064  15.4083  15.4083
    15.4083  15.5338  15.5348  15.5348  15.5348  15.5924  15.5924  15.6451
    15.6451  15.6451  15.8615  15.8615  15.8734  15.9054  15.9054  15.9054
    15.9551  15.9551  15.9551  16.0379  16.1144  16.1144  16.1144  16.2129
    16.2129  16.2129  16.2363  16.2363  16.4977  16.4977  16.7288  16.7288
    16.7288  16.7346  16.7346  16.7346  16.9887  16.9887  16.9887  17.0373
    17.2457  17.2457  17.3855  17.3855  17.3855  17.4527  17.4527  17.5339
    17.5339  17.5339  17.6280  17.6280  17.6280  17.7130  17.7130  17.7130
    17.7847  17.7847  17.7847  17.8522  17.8522  17.9432  17.9432  17.9432
    18.0467  18.0467  18.1556  18.1556  18.1556  18.4934  18.4934  18.4934
    18.5254  18.5254  18.5254  18.5729  18.5729  18.6922  18.6922  18.6922
    18.7670  18.7914  18.7914  18.7914  18.9182  19.0877  19.0877  19.0877
    19.1060  19.1060  19.1060  19.1968  19.2961  19.2961

     occupation numbers
     1.0000   1.0000   1.0000   1.0000   1.0000   1.0000   1.0000   1.0000
     1.0000   1.0000   1.0000   1.0000   1.0000   1.0000   1.0000   1.0000
     1.0000   1.0000   1.0000   1.0000   1.0000   1.0000   1.0000   1.0000
     1.0000   1.0000   1.0000   1.0000   1.0000   1.0000   1.0000   1.0000
     1.0000   1.0000   1.0000   1.0000   1.0000   1.0000   1.0000   1.0000
     1.0000   1.0000   1.0000   1.0000   1.0000   1.0000   1.0000   1.0000
     1.0000   1.0000   1.0000   1.0000   1.0000   1.0000   1.0000   1.0000
     1.0000   1.0000   1.0000   1.0000   1.0000   1.0000   1.0000   1.0000
     1.0000   1.0000   1.0000   1.0000   1.0000   1.0000   1.0000   1.0000
     1.0000   1.0000   1.0000   1.0000   1.0000   1.0000   1.0000   1.0000
     1.0000   1.0000   1.0000   1.0000   1.0000   1.0000   1.0000   1.0000
     1.0000   1.0000   1.0000   1.0000   1.0000   1.0000   1.0000   1.0000
     1.0000   1.0000   1.0000   1.0000   1.0000   1.0000   1.0000   1.0000
     1.0000   1.0000   1.0000   1.0000   1.0000   1.0000   1.0000   1.0000
     1.0000   1.0000   1.0000   1.0000   1.0000   1.0000   1.0000   1.0000
     1.0000   1.0000   1.0000   1.0000   1.0000   1.0000   1.0000   1.0000
     1.0000   1.0000   1.0000   1.0000   1.0000   1.0000   1.0000   1.0000
     1.0000   1.0000   1.0000   1.0000   1.0000   1.0000   1.0000   1.0000
     1.0000   1.0000   1.0000   1.0000   1.0000   1.0000   1.0000   1.0000
     1.0000   1.0000   1.0000   1.0000   1.0000   1.0000   1.0000   1.0000
     1.0000   1.0000   1.0000   1.0000   1.0000   1.0000   1.0000   1.0000
     1.0000   1.0000   1.0000   1.0000   1.0000   1.0000   1.0000   1.0000
     1.0000   1.0000   1.0000   1.0000   1.0000   1.0000   1.0000   1.0000
     1.0000   1.0000   1.0000   1.0000   1.0000   1.0000   1.0000   1.0001
     1.0001   1.0001   1.0001   1.0001   1.0024   1.0024   1.0159   1.0159
     1.0159   1.0165   1.0165   1.0165   1.0337   1.0337   1.0337   1.0258
     0.8679   0.8679   0.6283   0.6283   0.6283   0.4906   0.4906   0.3267
     0.3267   0.3267   0.1643   0.1643   0.1643   0.0593   0.0593   0.0593
     0.0040   0.0040   0.0040  -0.0240  -0.0240  -0.0354  -0.0354  -0.0354
    -0.0291  -0.0291  -0.0171  -0.0171  -0.0171  -0.0009  -0.0009  -0.0009
    -0.0006  -0.0006  -0.0006  -0.0003  -0.0003  -0.0001  -0.0001  -0.0001
    -0.0000  -0.0000  -0.0000  -0.0000  -0.0000  -0.0000  -0.0000  -0.0000
    -0.0000  -0.0000  -0.0000  -0.0000  -0.0000  -0.0000

[...]

          k =-0.4330-0.4330 0.0000 ( 23636 PWs)   bands (ev):

[...]

 ------ SPIN DOWN ----------

[...]

          k = 0.0000 0.0000 0.2887 ( 23675 PWs)   bands (ev):

[...]

          k =-0.8660-0.8660-0.8660 ( 23634 PWs)   bands (ev):

   -63.4822 -63.4822 -63.4822 -63.4822 -62.2838 -62.2598 -62.2598 -62.2598
   -62.2364 -62.2364 -62.1881 -62.1881 -62.1881 -62.1630 -62.1630 -62.1630
   -61.7655 -60.9526 -60.9526 -60.9396 -60.9396 -60.9396 -60.9207 -60.9184
   -60.9184 -60.9184 -60.9162 -60.9162 -60.9162 -32.2110 -32.2110 -32.2110
   -32.2087 -32.2087 -32.2087 -32.2075 -32.2075 -32.1858 -32.1858 -32.1858
   -32.1825 -31.2567 -31.1878 -31.1878 -31.1878 -31.1337 -31.1337 -31.1243
   -31.1048 -31.1048 -31.1048 -31.0630 -31.0630 -31.0630 -31.0364 -31.0364
   -31.0364 -31.0356 -31.0356 -30.9007 -30.9007 -30.9007 -30.9006 -30.9006
   -30.9006 -30.8883 -30.8883 -30.8883 -30.8710 -30.8698 -30.8698 -30.7204
   -30.7204 -30.7204 -30.6386 -30.6386 -30.6386 -30.4750 -30.4750 -30.4750
   -29.8755 -29.8047 -29.8047 -29.8047 -29.7644 -29.7499 -29.7499 -29.7499
   -29.7326 -29.7326 -29.7118 -29.7004 -29.7004 -29.7004 -29.6935 -29.6935
   -29.6869 -29.6869 -29.6869 -29.6626 -29.6626 -29.6626 -29.6400 -29.6400
   -29.6400 -29.6335 -29.6335 -29.5933 -29.5933 -29.5933 -29.5898 -29.5898
   -29.5898 -29.5572 -29.5572 -29.5572  11.3133  11.3133  11.3133  11.4387
    11.4824  11.4824  12.9966  13.3891  13.3891  13.3891  13.3899  13.4894
    13.5979  13.5979  13.5979  13.6571  13.6571  13.6571  13.6648  13.6648
    13.6648  14.1531  14.1531  14.3146  14.3146  14.3146  14.3313  14.3313
    14.3313  14.4935  14.4935  14.4935  14.5658  14.5658  14.6878  14.6878
    14.7451  14.7451  14.7451  14.8376  14.8376  14.9143  14.9143  14.9143
    15.0739  15.0739  15.0739  15.1550  15.1550  15.1550  15.2918  15.2918
    15.2918  15.3313  15.3313  15.4468  15.4468  15.4468  15.6137  15.6137
    15.6752  15.6752  15.6752  15.8190  15.8190  15.8190  15.8917  15.9534
    15.9990  15.9990  15.9990  16.0138  16.0484  16.0484  16.0935  16.0935
    16.0935  16.3942  16.3942  16.3942  16.5594  16.5594  16.5594  16.5652
    16.5652  16.6945  16.6945  16.6945  16.6985  16.6985  16.6985  16.7465
    16.8839  17.0196  17.0196  17.0196  17.0314  17.0314  17.0314  17.2744
    17.2744  17.4248  17.4248  17.4248  17.5127  17.5127  17.5127  17.5564
    17.5564  17.7817  17.7817  17.7817  17.8329  17.9319  17.9319  17.9591
    17.9591  17.9591  18.1369  18.1369  18.1369  18.2264  18.2264  18.2689
    18.2689  18.2689  18.3681  18.5410  18.5410  18.5410  18.6671  18.6671
    18.6671  18.8069  18.8069  18.8069  18.8660  18.8708  18.8708  18.8708
    18.9434  18.9434  18.9574  18.9574  18.9574  19.0062

     occupation numbers
     1.0000   1.0000   1.0000   1.0000   1.0000   1.0000   1.0000   1.0000
     1.0000   1.0000   1.0000   1.0000   1.0000   1.0000   1.0000   1.0000
     1.0000   1.0000   1.0000   1.0000   1.0000   1.0000   1.0000   1.0000
     1.0000   1.0000   1.0000   1.0000   1.0000   1.0000   1.0000   1.0000
     1.0000   1.0000   1.0000   1.0000   1.0000   1.0000   1.0000   1.0000
     1.0000   1.0000   1.0000   1.0000   1.0000   1.0000   1.0000   1.0000
     1.0000   1.0000   1.0000   1.0000   1.0000   1.0000   1.0000   1.0000
     1.0000   1.0000   1.0000   1.0000   1.0000   1.0000   1.0000   1.0000
     1.0000   1.0000   1.0000   1.0000   1.0000   1.0000   1.0000   1.0000
     1.0000   1.0000   1.0000   1.0000   1.0000   1.0000   1.0000   1.0000
     1.0000   1.0000   1.0000   1.0000   1.0000   1.0000   1.0000   1.0000
     1.0000   1.0000   1.0000   1.0000   1.0000   1.0000   1.0000   1.0000
     1.0000   1.0000   1.0000   1.0000   1.0000   1.0000   1.0000   1.0000
     1.0000   1.0000   1.0000   1.0000   1.0000   1.0000   1.0000   1.0000
     1.0000   1.0000   1.0000   1.0000   1.0000   1.0000   1.0000   1.0000
     1.0000   1.0000   1.0000   1.0000   1.0000   1.0000   1.0000   1.0000
     1.0000   1.0000   1.0000   1.0000   1.0000   1.0000   1.0000   1.0000
     1.0000   1.0000   1.0000   1.0000   1.0000   1.0000   1.0000   1.0000
     1.0000   1.0000   1.0000   1.0000   1.0000   1.0000   1.0000   1.0000
     1.0000   1.0000   1.0000   1.0000   1.0000   1.0000   1.0000   1.0000
     1.0000   1.0000   1.0000   1.0000   1.0000   1.0000   1.0000   1.0000
     1.0000   1.0000   1.0000   1.0000   1.0000   1.0000   1.0000   1.0000
     1.0000   1.0000   1.0000   1.0000   1.0000   1.0000   1.0000   1.0000
     1.0000   1.0000   1.0000   1.0000   1.0000   1.0000   1.0000   1.0000
     1.0000   1.0008   1.0008   1.0008   1.0043   1.0043   1.0043   1.0046
     1.0046   1.0127   1.0127   1.0127   1.0131   1.0131   1.0131   1.0177
     1.0324   1.0296   1.0296   1.0296   1.0272   1.0272   1.0272   0.8266
     0.8266   0.5483   0.5483   0.5483   0.3681   0.3681   0.3681   0.2841
     0.2841   0.0057   0.0057   0.0057  -0.0181  -0.0352  -0.0352  -0.0353
    -0.0353  -0.0353  -0.0191  -0.0191  -0.0191  -0.0107  -0.0107  -0.0077
    -0.0077  -0.0077  -0.0032  -0.0005  -0.0005  -0.0005  -0.0001  -0.0001
    -0.0001  -0.0000  -0.0000  -0.0000  -0.0000  -0.0000  -0.0000  -0.0000
    -0.0000  -0.0000  -0.0000  -0.0000  -0.0000  -0.0000

     the Fermi energy is    17.4482 ev

!    total energy              =   -6201.31049612 Ry
     Harris-Foulkes estimate   =   -6201.31049610 Ry
     estimated scf accuracy    <       0.00000094 Ry

     The total energy is the sum of the following terms:

     one-electron contribution =   -2626.12883065 Ry
     hartree contribution      =    1550.93458249 Ry
     xc contribution           =    -807.40306335 Ry
     ewald contribution        =   -4318.71624771 Ry
     smearing contrib. (-TS)   =       0.00306309 Ry

     total magnetization       =    -4.67 Bohr mag/cell
     absolute magnetization    =    41.64 Bohr mag/cell

     convergence has been achieved in  54 iterations

     Writing output data file mn-6.save/

     General routines

     Parallel routines

   This run was terminated on:   8: 8:44   3Aug2022

   JOB DONE.