     Program PWSCF v.6.4.1 starts on  3Aug2022 at  8: 8:44

     R & G space division:  proc/nbgrp/npool/nimage =       6
     Reading input from mn-7.in

     Current dimensions of program PWSCF are:
     Max number of different atomic species (ntypx) = 10
     Max number of k-points (npk) =  40000
     Max angular momentum in pseudopotentials (lmaxx) =  3
               file Mn.pbe-spn-rrkjus_psl.0.3.1.UPF: wavefunction(s)  3D renormalized

     Subspace diagonalization in iterative solution of the eigenvalue problem:
     a serial algorithm will be used

     Message from routine setup:
     DEPRECATED: symmetry with ibrav=0, use correct ibrav instead

     bravais-lattice index     =            0
     lattice parameter (alat)  =      14.5833  a.u.
     unit-cell volume          =    2387.5141 (a.u.)^3
     number of atoms/cell      =           29
     number of atomic types    =            1
     number of electrons       =       435.00
     number of Kohn-Sham states=          262
     kinetic-energy cutoff     =      70.0000  Ry
     charge density cutoff     =     700.0000  Ry
     convergence threshold     =      1.0E-06
     mixing beta               =       0.7000
     number of iterations used =            8  plain     mixing
     Exchange-correlation      = PBE ( 1  4  3  4 0 0)

     celldm(1)=  14.583305  celldm(2)=   0.000000  celldm(3)=   0.000000
     celldm(4)=   0.000000  celldm(5)=   0.000000  celldm(6)=   0.000000

     crystal axes: (cart. coord. in units of alat)
               a(1) = (  -0.577350   0.577350   0.577350 )
               a(2) = (   0.577350  -0.577350   0.577350 )
               a(3) = (   0.577350   0.577350  -0.577350 )

     reciprocal axes: (cart. coord. in units 2 pi/alat)
               b(1) = (  0.000000  0.866025  0.866025 )
               b(2) = (  0.866025  0.000000  0.866025 )
               b(3) = (  0.866025  0.866025  0.000000 )

     PseudoPot. # 1 for Mn read from file:
     /home/cristian/Escritorio/Proyecto_Grafeno/pseudopotenciales/Mn.pbe-spn-rrkjus_psl.0.3.1.UPF
     MD5 check sum: e1cac159bdd2ba70c18e85765a5d4279
     Pseudo is Ultrasoft + core correction, Zval = 15.0
     Generated using "atomic" code by A. Dal Corso v.6.2.2
     Using radial grid of 1187 points,  6 beta functions with:
                l(1) =   0
                l(2) =   0
                l(3) =   1
                l(4) =   1
                l(5) =   2
                l(6) =   2
     Q(r) pseudized with 0 coefficients

     atomic species   valence    mass     pseudopotential
        Mn            15.00    54.93804     Mn( 1.00)

     Starting magnetic structure
     atomic species   magnetization
        Mn           0.700

     24 Sym. Ops. (no inversion) found

                                    s                        frac. trans.

      isym =  1     identity

 cryst.   s( 1) = (     1          0          0      )
                  (     0          1          0      )
                  (     0          0          1      )

 cart.    s( 1) = (  1.0000000  0.0000000  0.0000000 )
                  (  0.0000000  1.0000000  0.0000000 )
                  (  0.0000000  0.0000000  1.0000000 )

      isym =  2     180 deg rotation - cart. axis [0,0,1]

[...]

 cryst.   s( 9) = (     0          1          0      )
                  (     0          0          1      )
                  (     1          0          0      )

 cart.    s( 9) = (  0.0000000  0.0000000  1.0000000 )
                  (  1.0000000  0.0000000  0.0000000 )
                  (  0.0000000  1.0000000  0.0000000 )

[...]

 cryst.   s(10) = (     0          0          1      )
                  (     0          1          0      )
                  (    -1         -1         -1      )

 cart.    s(10) = (  0.0000000  0.0000000  1.0000000 )
                  ( -1.0000000  0.0000000  0.0000000 )
                  (  0.0000000 -1.0000000  0.0000000 )

[...]

      isym = 12     120 deg rotation - cart. axis [-1,-1,1]

[...]

      isym = 13     inv. 180 deg rotation - cart. axis [1,1,0]

[...]

      isym = 24     inv.  90 deg rotation - cart. axis [1,0,0]

 cryst.   s(24) = (     0          0          1      )
                  (     1          0          0      )
                  (    -1         -1         -1      )

 cart.    s(24) = ( -1.0000000  0.0000000  0.0000000 )
                  (  0.0000000  0.0000000  1.0000000 )
                  (  0.0000000 -1.0000000  0.0000000 )

   Cartesian axes

     site n.     atom                  positions (alat units)
         1           Mn  tau(   1) = (   0.0000000   0.0000000   0.0000000  )
         2           Mn  tau(   2) = (   0.3670447   0.3670447   0.3670447  )
         3           Mn  tau(   3) = (   0.2103056   0.2103056  -0.2103056  )
         4           Mn  tau(   4) = (   0.2103056  -0.2103056   0.2103056  )
         5           Mn  tau(   5) = (  -0.2103056   0.2103056   0.2103056  )
         6           Mn  tau(   6) = (   0.4739122   0.4739122  -0.2517940  )
         7           Mn  tau(   7) = (   0.1034381   0.1034381   0.3255563  )
         8           Mn  tau(   8) = (   0.1034381  -0.1034381   0.8291443  )
         9           Mn  tau(   9) = (  -0.1034381   0.1034381   0.8291443  )
        10           Mn  tau(  10) = (  -0.2517940   0.4739122   0.4739122  )
        11           Mn  tau(  11) = (   0.3255563   0.1034381   0.1034381  )
        12           Mn  tau(  12) = (   0.8291443   0.1034381  -0.1034381  )
        13           Mn  tau(  13) = (   0.8291443  -0.1034381   0.1034381  )
        14           Mn  tau(  14) = (   0.4739122  -0.2517940   0.4739122  )
        15           Mn  tau(  15) = (   0.1034381   0.3255563   0.1034381  )
        16           Mn  tau(  16) = (  -0.1034381   0.8291443   0.1034381  )
        17           Mn  tau(  17) = (   0.1034381   0.8291443  -0.1034381  )
        18           Mn  tau(  18) = (   0.1650529   0.1650529   0.6172683  )
        19           Mn  tau(  19) = (   0.4122974   0.4122974   0.0399180  )
        20           Mn  tau(  20) = (  -0.1650529   0.1650529   0.5374323  )
        21           Mn  tau(  21) = (   0.1650529  -0.1650529   0.5374323  )
        22           Mn  tau(  22) = (   0.6172683   0.1650529   0.1650529  )
        23           Mn  tau(  23) = (   0.0399180   0.4122974   0.4122974  )
        24           Mn  tau(  24) = (   0.5374323  -0.1650529   0.1650529  )
        25           Mn  tau(  25) = (   0.5374323   0.1650529  -0.1650529  )
        26           Mn  tau(  26) = (   0.1650529   0.6172683   0.1650529  )
        27           Mn  tau(  27) = (   0.4122974   0.0399180   0.4122974  )
        28           Mn  tau(  28) = (   0.1650529   0.5374323  -0.1650529  )
        29           Mn  tau(  29) = (  -0.1650529   0.5374323   0.1650529  )

   Crystallographic axes

     site n.     atom                  positions (cryst. coord.)
         1           Mn  tau(   1) = (  0.0000000  0.0000000  0.0000000  )
         2           Mn  tau(   2) = (  0.6357400  0.6357400  0.6357400  )
         3           Mn  tau(   3) = (  0.0000000  0.0000000  0.3642600  )
         4           Mn  tau(   4) = (  0.0000000  0.3642600  0.0000000  )
         5           Mn  tau(   5) = (  0.3642600  0.0000000  0.0000000  )
         6           Mn  tau(   6) = (  0.1923600  0.1923600  0.8208400  )
         7           Mn  tau(   7) = (  0.3715200  0.3715200  0.1791600  )
         8           Mn  tau(   8) = (  0.6284800  0.8076400  0.0000000  )
         9           Mn  tau(   9) = (  0.8076400  0.6284800  0.0000000  )
        10           Mn  tau(  10) = (  0.8208400  0.1923600  0.1923600  )
        11           Mn  tau(  11) = (  0.1791600  0.3715200  0.3715200  )
        12           Mn  tau(  12) = (  0.0000000  0.6284800  0.8076400  )
        13           Mn  tau(  13) = (  0.0000000  0.8076400  0.6284800  )
        14           Mn  tau(  14) = (  0.1923600  0.8208400  0.1923600  )
        15           Mn  tau(  15) = (  0.3715200  0.1791600  0.3715200  )
        16           Mn  tau(  16) = (  0.8076400  0.0000000  0.6284800  )
        17           Mn  tau(  17) = (  0.6284800  0.0000000  0.8076400  )
        18           Mn  tau(  18) = (  0.6775100  0.6775100  0.2858800  )
        19           Mn  tau(  19) = (  0.3916300  0.3916300  0.7141200  )
        20           Mn  tau(  20) = (  0.6083700  0.3224900  0.0000000  )
        21           Mn  tau(  21) = (  0.3224900  0.6083700  0.0000000  )
        22           Mn  tau(  22) = (  0.2858800  0.6775100  0.6775100  )
        23           Mn  tau(  23) = (  0.7141200  0.3916300  0.3916300  )
        24           Mn  tau(  24) = (  0.0000000  0.6083700  0.3224900  )
        25           Mn  tau(  25) = (  0.0000000  0.3224900  0.6083700  )
        26           Mn  tau(  26) = (  0.6775100  0.2858800  0.6775100  )
        27           Mn  tau(  27) = (  0.3916300  0.7141200  0.3916300  )
        28           Mn  tau(  28) = (  0.3224900  0.0000000  0.6083700  )
        29           Mn  tau(  29) = (  0.6083700  0.0000000  0.3224900  )

     number of k points=    20  Methfessel-Paxton smearing, width (Ry)=  0.0300
                       cart. coord. in units 2pi/alat
        k(    1) = (   0.0000000   0.0000000   0.0000000), wk =   0.0029155
        k(    2) = (   0.1237179   0.1237179   0.0000000), wk =   0.0349854
        k(    3) = (   0.2474358   0.2474358   0.0000000), wk =   0.0349854
        k(    4) = (   0.3711537   0.3711537   0.0000000), wk =   0.0349854
        k(    5) = (   0.2474358   0.1237179   0.1237179), wk =   0.0699708
        k(    6) = (   0.3711537   0.2474358   0.1237179), wk =   0.1399417
        k(    7) = (   0.4948717   0.3711537   0.1237179), wk =   0.0699708
        k(    8) = (   0.4948717   0.2474358   0.2474358), wk =   0.0699708
        k(    9) = (   0.2474358   0.2474358   0.2474358), wk =   0.0233236
        k(   10) = (   0.3711537   0.3711537   0.2474358), wk =   0.0699708
        k(   11) = (  -0.0000000  -0.0000000   0.2474358), wk =   0.0174927
        k(   12) = (   0.4948717   0.3711537   0.3711537), wk =   0.0233236
        k(   13) = (   0.0000000  -0.1237179   0.3711537), wk =   0.0699708
        k(   14) = (  -0.0000000  -0.2474358   0.4948717), wk =   0.0699708
        k(   15) = (   0.1237179  -0.1237179   0.4948717), wk =   0.0699708
        k(   16) = (  -0.7423075  -0.2474358  -0.2474358), wk =   0.0699708
        k(   17) = (   0.0000000   0.0000000   0.4948717), wk =   0.0174927
        k(   18) = (  -0.0000000  -0.1237179   0.6185896), wk =   0.0699708
        k(   19) = (  -0.7423075  -0.1237179  -0.1237179), wk =   0.0233236
        k(   20) = (  -0.0000000  -0.0000000   0.7423075), wk =   0.0174927

                       cryst. coord.
        k(    1) = (   0.0000000   0.0000000   0.0000000), wk =   0.0029155
        k(    2) = (   0.0000000   0.0000000   0.1428571), wk =   0.0349854
        k(    3) = (   0.0000000   0.0000000   0.2857143), wk =   0.0349854
        k(    4) = (   0.0000000   0.0000000   0.4285714), wk =   0.0349854
        k(    5) = (   0.0000000   0.1428571   0.1428571), wk =   0.0699708
        k(    6) = (   0.0000000   0.1428571   0.2857143), wk =   0.1399417
        k(    7) = (   0.0000000   0.1428571   0.4285714), wk =   0.0699708
        k(    8) = (   0.0000000   0.2857143   0.2857143), wk =   0.0699708
        k(    9) = (   0.1428571   0.1428571   0.1428571), wk =   0.0233236
        k(   10) = (   0.1428571   0.1428571   0.2857143), wk =   0.0699708
        k(   11) = (   0.1428571   0.1428571  -0.1428571), wk =   0.0174927
        k(   12) = (   0.1428571   0.2857143   0.2857143), wk =   0.0233236
        k(   13) = (   0.1428571   0.2857143  -0.2857143), wk =   0.0699708
        k(   14) = (   0.1428571   0.4285714  -0.4285714), wk =   0.0699708
        k(   15) = (   0.1428571   0.4285714  -0.2857143), wk =   0.0699708
        k(   16) = (   0.1428571  -0.4285714  -0.4285714), wk =   0.0699708
        k(   17) = (   0.2857143   0.2857143  -0.2857143), wk =   0.0174927
        k(   18) = (   0.2857143   0.4285714  -0.4285714), wk =   0.0699708
        k(   19) = (   0.2857143  -0.4285714  -0.4285714), wk =   0.0233236
        k(   20) = (   0.4285714   0.4285714  -0.4285714), wk =   0.0174927

     Check: negative core charge=   -0.000005

     Initial potential from superposition of free atoms

     starting charge  434.98555, renormalised to  435.00000
     Starting wfcs are  290 randomized atomic wfcs

     Self-consistent Calculation

     iteration #  1     ecut=    70.00 Ry     beta= 0.70
     Davidson diagonalization with overlap
     ethr =  1.00E-02,  avg # of iterations =  3.0

     total energy              =   -6195.45219513 Ry
     Harris-Foulkes estimate   =   -6169.32236570 Ry
     estimated scf accuracy    <      36.50529078 Ry

     total magnetization       =    89.00 Bohr mag/cell
     absolute magnetization    =    95.85 Bohr mag/cell

[...]

     total energy              =   -6201.31048513 Ry
     Harris-Foulkes estimate   =   -6201.31048623 Ry
     estimated scf accuracy    <       0.00000400 Ry

[...]

     iteration # 52     ecut=    70.00 Ry     beta= 0.70
     Davidson diagonalization with overlap
     ethr =  9.20E-10,  avg # of iterations =  3.5

     Magnetic moment per site:
     atom:    1    charge:   12.6587    magn:    0.1157    constr:    0.0000
     atom:    2    charge:   12.6821    magn:   -2.9379    constr:    0.0000
     atom:    3    charge:   12.6821    magn:   -2.9379    constr:    0.0000
     atom:    4    charge:   12.6821    magn:   -2.9379    constr:    0.0000
     atom:    5    charge:   12.6821    magn:   -2.9379    constr:    0.0000
     atom:    6    charge:   12.8186    magn:   -0.7765    constr:    0.0000
     atom:    7    charge:   12.8186    magn:   -0.7765    constr:    0.0000
     atom:    8    charge:   12.8186    magn:   -0.7765    constr:    0.0000
     atom:    9    charge:   12.8186    magn:   -0.7765    constr:    0.0000
     atom:   10    charge:   12.8186    magn:   -0.7765    constr:    0.0000
     atom:   11    charge:   12.8186    magn:   -0.7765    constr:    0.0000
     atom:   12    charge:   12.8186    magn:   -0.7765    constr:    0.0000
     atom:   13    charge:   12.8186    magn:   -0.7765    constr:    0.0000
     atom:   14    charge:   12.8186    magn:   -0.7765    constr:    0.0000
     atom:   15    charge:   12.8186    magn:   -0.7765    constr:    0.0000
     atom:   16    charge:   12.8186    magn:   -0.7765    constr:    0.0000
     atom:   17    charge:   12.8186    magn:   -0.7765    constr:    0.0000
     atom:   18    charge:   12.7559    magn:    1.3964    constr:    0.0000
     atom:   19    charge:   12.7559    magn:    1.3964    constr:    0.0000
     atom:   20    charge:   12.7559    magn:    1.3964    constr:    0.0000
     atom:   21    charge:   12.7559    magn:    1.3964    constr:    0.0000
     atom:   22    charge:   12.7559    magn:    1.3964    constr:    0.0000
     atom:   23    charge:   12.7559    magn:    1.3964    constr:    0.0000
     atom:   24    charge:   12.7559    magn:    1.3964    constr:    0.0000
     atom:   25    charge:   12.7559    magn:    1.3964    constr:    0.0000
     atom:   26    charge:   12.7559    magn:    1.3964    constr:    0.0000
     atom:   27    charge:   12.7559    magn:    1.3964    constr:    0.0000
     atom:   28    charge:   12.7559    magn:    1.3964    constr:    0.0000
     atom:   29    charge:   12.7559    magn:    1.3964    constr:    0.0000

     End of self-consistent calculation

 ------ SPIN UP ------------

          k = 0.0000 0.0000 0.0000 ( 23623 PWs)   bands (ev):

   -62.6492 -62.6247 -62.6247 -62.6247 -62.6160 -62.6160 -62.6032 -62.6032
   -62.6032 -62.6013 -62.6013 -62.6013 -61.8775 -61.3457 -61.3230 -61.3230
   -61.3230 -61.2977 -61.2977 -61.2488 -61.2488 -61.2488 -61.2232 -61.2232
   -61.2232 -59.9196 -59.9196 -59.9196 -59.9194 -31.4803 -31.4803 -31.4803
   -31.4721 -31.4721 -31.4709 -31.4709 -31.4709 -31.4406 -31.4406 -31.4406
   -31.4025 -31.4021 -31.4021 -31.3737 -31.3737 -31.3709 -31.3709 -31.3709
   -31.3653 -31.3374 -31.3374 -31.3374 -31.2769 -31.2769 -31.2769 -31.2537
   -31.2537 -31.2537 -31.1904 -31.1904 -31.1904 -31.1789 -31.1642 -31.1642
   -31.1642 -30.6051 -30.6051 -30.6051 -30.4434 -30.3714 -30.3714 -30.3714
   -30.3056 -30.3056 -30.1091 -30.1063 -30.1063 -30.1063 -30.0883 -30.0883
   -30.0883 -30.0742 -30.0742 -30.0742 -30.0536 -30.0536 -29.9327 -29.9327
   -29.9327 -29.9048 -29.8812 -29.8812 -29.8812 -29.8806 -29.8806 -29.8726
   -29.8726 -29.8726 -29.8718 -29.8718 -29.8718 -29.8132 -29.8132 -29.8132
   -28.7319 -28.7319 -28.7319 -28.7307 -28.7307 -28.7303 -28.7303 -28.7303
   -28.6725 -28.6725 -28.6725 -28.6718   9.4823  12.6985  12.6985  12.6985
    12.8516  12.8522  12.8522  12.8522  12.9056  12.9056  12.9056  12.9803
    12.9803  13.6030  13.7073  13.7073  13.7073  13.7785  13.7785  13.9743
    13.9743  13.9743  14.1468  14.2384  14.2384  14.2384  14.3864  14.4974
    14.4974  14.4974  14.5633  14.5633  14.8080  14.8080  14.8080  14.8631
    14.8631  14.8631  14.9498  14.9498  14.9498  15.0457  15.0475  15.0475
    15.2661  15.2661  15.2661  15.4061  15.4061  15.4061  15.4077  15.4077
    15.4077  15.5314  15.5350  15.5350  15.5350  15.5935  15.5935  15.6442
    15.6442  15.6442  15.8612  15.8612  15.8729  15.9048  15.9048  15.9048
    15.9544  15.9544  15.9544  16.0374  16.1140  16.1140  16.1140  16.2132
    16.2132  16.2132  16.2350  16.2350  16.4983  16.4983  16.7278  16.7278
    16.7278  16.7343  16.7343  16.7343  16.9879  16.9879  16.9879  17.0376
    17.2458  17.2458  17.3849  17.3849  17.3849  17.4532  17.4532  17.5352
    17.5352  17.5352  17.6280  17.6280  17.6280  17.7118  17.7118  17.7118
    17.7844  17.7844  17.7844  17.8522  17.8522  17.9426  17.9426  17.9426
    18.0479  18.0479  18.1553  18.1553  18.1553  18.4945  18.4945  18.4945
    18.5262  18.5262  18.5262  18.5735  18.5735  18.6932  18.6932  18.6932
    18.7686  18.7928  18.7928  18.7928  18.9184  19.0887  19.0887  19.0887
    19.1066  19.1066  19.1066  19.1986  19.2977  19.2977

     occupation numbers
     1.0000   1.0000   1.0000   1.0000   1.0000   1.0000   1.0000   1.0000
     1.0000   1.0000   1.0000   1.0000   1.0000   1.0000   1.0000   1.0000
     1.0000   1.0000   1.0000   1.0000   1.0000   1.0000   1.0000   1.0000
     1.0000   1.0000   1.0000   1.0000   1.0000   1.0000   1.0000   1.0000
     1.0000   1.0000   1.0000   1.0000   1.0000   1.0000   1.0000   1.0000
     1.0000   1.0000   1.0000   1.0000   1.0000   1.0000   1.0000   1.0000
     1.0000   1.0000   1.0000   1.0000   1.0000   1.0000   1.0000   1.0000
     1.0000   1.0000   1.0000   1.0000   1.0000   1.0000   1.0000   1.0000
     1.0000   1.0000   1.0000   1.0000   1.0000   1.0000   1.0000   1.0000
     1.0000   1.0000   1.0000   1.0000   1.0000   1.0000   1.0000   1.0000
     1.0000   1.0000   1.0000   1.0000   1.0000   1.0000   1.0000   1.0000
     1.0000   1.0000   1.0000   1.0000   1.0000   1.0000   1.0000   1.0000
     1.0000   1.0000   1.0000   1.0000   1.0000   1.0000   1.0000   1.0000
     1.0000   1.0000   1.0000   1.0000   1.0000   1.0000   1.0000   1.0000
     1.0000   1.0000   1.0000   1.0000   1.0000   1.0000   1.0000   1.0000
     1.0000   1.0000   1.0000   1.0000   1.0000   1.0000   1.0000   1.0000
     1.0000   1.0000   1.0000   1.0000   1.0000   1.0000   1.0000   1.0000
     1.0000   1.0000   1.0000   1.0000   1.0000   1.0000   1.0000   1.0000
     1.0000   1.0000   1.0000   1.0000   1.0000   1.0000   1.0000   1.0000
     1.0000   1.0000   1.0000   1.0000   1.0000   1.0000   1.0000   1.0000
     1.0000   1.0000   1.0000   1.0000   1.0000   1.0000   1.0000   1.0000
     1.0000   1.0000   1.0000   1.0000   1.0000   1.0000   1.0000   1.0000
     1.0000   1.0000   1.0000   1.0000   1.0000   1.0000   1.0000   1.0000
     1.0000   1.0000   1.0000   1.0000   1.0000   1.0000   1.0000   1.0001
     1.0001   1.0001   1.0001   1.0001   1.0024   1.0024   1.0157   1.0157
     1.0157   1.0164   1.0164   1.0164   1.0339   1.0339   1.0339   1.0260
     0.8692   0.8692   0.6316   0.6316   0.6316   0.4919   0.4919   0.3261
     0.3261   0.3261   0.1658   0.1658   0.1658   0.0615   0.0615   0.0615
     0.0047   0.0047   0.0047  -0.0237  -0.0237  -0.0354  -0.0354  -0.0354
    -0.0291  -0.0291  -0.0173  -0.0173  -0.0173  -0.0009  -0.0009  -0.0009
    -0.0006  -0.0006  -0.0006  -0.0003  -0.0003  -0.0001  -0.0001  -0.0001
    -0.0000  -0.0000  -0.0000  -0.0000  -0.0000  -0.0000  -0.0000  -0.0000
    -0.0000  -0.0000  -0.0000  -0.0000  -0.0000  -0.0000

[...]

          k =-0.0000-0.0000 0.2474 ( 23627 PWs)   bands (ev):

[...]

 ------ SPIN DOWN ----------

[...]

          k = 0.0000 0.0000 0.4949 ( 23618 PWs)   bands (ev):

[...]

          k =-0.0000-0.0000 0.7423 ( 23614 PWs)   bands (ev):

   -63.4826 -63.4826 -63.4826 -63.4825 -62.2832 -62.2593 -62.2591 -62.2591
   -62.2356 -62.2355 -62.1874 -62.1874 -62.1874 -62.1624 -62.1624 -62.1624
   -61.7638 -60.9477 -60.9464 -60.9339 -60.9339 -60.9331 -60.9149 -60.9131
   -60.9127 -60.9127 -60.9104 -60.9104 -60.9104 -32.2115 -32.2114 -32.2114
   -32.2093 -32.2092 -32.2092 -32.2081 -32.2080 -32.1860 -32.1859 -32.1859
   -32.1828 -31.2564 -31.1874 -31.1870 -31.1870 -31.1330 -31.1327 -31.1231
   -31.1044 -31.1044 -31.1037 -31.0629 -31.0629 -31.0625 -31.0370 -31.0356
   -31.0356 -31.0350 -31.0334 -30.9011 -30.9011 -30.9001 -30.8998 -30.8992
   -30.8992 -30.8880 -30.8869 -30.8869 -30.8704 -30.8695 -30.8693 -30.7198
   -30.7198 -30.7196 -30.6379 -30.6378 -30.6378 -30.4733 -30.4733 -30.4732
   -29.8678 -29.7997 -29.7979 -29.7979 -29.7589 -29.7447 -29.7447 -29.7446
   -29.7276 -29.7269 -29.7064 -29.7007 -29.6989 -29.6989 -29.6953 -29.6848
   -29.6791 -29.6791 -29.6750 -29.6607 -29.6585 -29.6585 -29.6390 -29.6341
   -29.6341 -29.6290 -29.6166 -29.5886 -29.5886 -29.5870 -29.5842 -29.5828
   -29.5828 -29.5528 -29.5510 -29.5510  10.9120  11.3492  11.3492  11.4882
    11.5173  11.8930  12.9928  13.3021  13.3588  13.3588  13.3949  13.4879
    13.5566  13.5566  13.6477  13.6477  13.6521  13.6629  13.6630  13.7009
    13.7009  14.1005  14.1509  14.2984  14.2984  14.3407  14.3440  14.3465
    14.3465  14.4477  14.4965  14.4965  14.5473  14.5993  14.6749  14.7055
    14.7420  14.7420  14.7660  14.8030  14.8466  14.9309  14.9309  14.9639
    15.0695  15.0695  15.1113  15.1570  15.1712  15.1712  15.2507  15.2978
    15.2978  15.3422  15.3780  15.4379  15.4429  15.4429  15.5616  15.6109
    15.6615  15.6615  15.6750  15.7782  15.7782  15.7893  15.8847  15.8972
    15.9898  16.0198  16.0198  16.0537  16.0640  16.0858  16.0880  16.0880
    16.1240  16.3606  16.3606  16.3976  16.5212  16.5212  16.5419  16.5439
    16.5456  16.6707  16.6707  16.6832  16.7024  16.7810  16.7873  16.7873
    16.8971  17.0205  17.0270  17.0270  17.0490  17.0490  17.0559  17.2456
    17.2903  17.3916  17.4252  17.4252  17.4880  17.5029  17.5029  17.5656
    17.5754  17.7506  17.8173  17.8173  17.8693  17.8977  17.9708  17.9839
    17.9839  17.9863  18.1500  18.1500  18.1573  18.2246  18.2345  18.2678
    18.2678  18.2880  18.4051  18.5172  18.5280  18.5280  18.6611  18.6749
    18.6749  18.7611  18.7798  18.7798  18.8505  18.8521  18.8714  18.8714
    18.9323  18.9483  18.9606  18.9606  18.9806  19.0742

     occupation numbers
     1.0000   1.0000   1.0000   1.0000   1.0000   1.0000   1.0000   1.0000
     1.0000   1.0000   1.0000   1.0000   1.0000   1.0000   1.0000   1.0000
     1.0000   1.0000   1.0000   1.0000   1.0000   1.0000   1.0000   1.0000
     1.0000   1.0000   1.0000   1.0000   1.0000   1.0000   1.0000   1.0000
     1.0000   1.0000   1.0000   1.0000   1.0000   1.0000   1.0000   1.0000
     1.0000   1.0000   1.0000   1.0000   1.0000   1.0000   1.0000   1.0000
     1.0000   1.0000   1.0000   1.0000   1.0000   1.0000   1.0000   1.0000
     1.0000   1.0000   1.0000   1.0000   1.0000   1.0000   1.0000   1.0000
     1.0000   1.0000   1.0000   1.0000   1.0000   1.0000   1.0000   1.0000
     1.0000   1.0000   1.0000   1.0000   1.0000   1.0000   1.0000   1.0000
     1.0000   1.0000   1.0000   1.0000   1.0000   1.0000   1.0000   1.0000
     1.0000   1.0000   1.0000   1.0000   1.0000   1.0000   1.0000   1.0000
     1.0000   1.0000   1.0000   1.0000   1.0000   1.0000   1.0000   1.0000
     1.0000   1.0000   1.0000   1.0000   1.0000   1.0000   1.0000   1.0000
     1.0000   1.0000   1.0000   1.0000   1.0000   1.0000   1.0000   1.0000
     1.0000   1.0000   1.0000   1.0000   1.0000   1.0000   1.0000   1.0000
     1.0000   1.0000   1.0000   1.0000   1.0000   1.0000   1.0000   1.0000
     1.0000   1.0000   1.0000   1.0000   1.0000   1.0000   1.0000   1.0000
     1.0000   1.0000   1.0000   1.0000   1.0000   1.0000   1.0000   1.0000
     1.0000   1.0000   1.0000   1.0000   1.0000   1.0000   1.0000   1.0000
     1.0000   1.0000   1.0000   1.0000   1.0000   1.0000   1.0000   1.0000
     1.0000   1.0000   1.0000   1.0000   1.0000   1.0000   1.0000   1.0000
     1.0000   1.0000   1.0000   1.0000   1.0000   1.0000   1.0000   1.0000
     1.0000   1.0000   1.0000   1.0000   1.0000   1.0000   1.0000   1.0000
     1.0000   1.0005   1.0005   1.0008   1.0030   1.0030   1.0036   1.0037
     1.0038   1.0107   1.0107   1.0117   1.0133   1.0214   1.0221   1.0221
     1.0334   1.0296   1.0283   1.0283   1.0230   1.0230   1.0209   0.8695
     0.8035   0.6181   0.5497   0.5497   0.4199   0.3897   0.3897   0.2693
     0.2518   0.0275  -0.0117  -0.0117  -0.0279  -0.0326  -0.0351  -0.0345
    -0.0345  -0.0343  -0.0178  -0.0178  -0.0171  -0.0109  -0.0101  -0.0079
    -0.0079  -0.0067  -0.0023  -0.0007  -0.0006  -0.0006  -0.0001  -0.0001
    -0.0001  -0.0000  -0.0000  -0.0000  -0.0000  -0.0000  -0.0000  -0.0000
    -0.0000  -0.0000  -0.0000  -0.0000  -0.0000  -0.0000

     the Fermi energy is    17.4492 ev

!    total energy              =   -6201.31048616 Ry
     Harris-Foulkes estimate   =   -6201.31048628 Ry
     estimated scf accuracy    <       0.00000024 Ry

     The total energy is the sum of the following terms:

     one-electron contribution =   -2626.11275018 Ry
     hartree contribution      =    1550.92240147 Ry
     xc contribution           =    -807.40683151 Ry
     ewald contribution        =   -4318.71624771 Ry
     smearing contrib. (-TS)   =       0.00294177 Ry

     total magnetization       =    -4.62 Bohr mag/cell
     absolute magnetization    =    41.75 Bohr mag/cell

     convergence has been achieved in  52 iterations

     Writing output data file mn-7.save/

     General routines

     Parallel routines

   This run was terminated on:   0: 6:21   4Aug2022

   JOB DONE.