     Program PWSCF v.6.4.1 starts on  4Aug2022 at  0: 6:21

     R & G space division:  proc/nbgrp/npool/nimage =       6
     Reading input from mn-8.in

     Current dimensions of program PWSCF are:
     Max number of different atomic species (ntypx) = 10
     Max number of k-points (npk) =  40000
     Max angular momentum in pseudopotentials (lmaxx) =  3
               file Mn.pbe-spn-rrkjus_psl.0.3.1.UPF: wavefunction(s)  3D renormalized

     Subspace diagonalization in iterative solution of the eigenvalue problem:
     a serial algorithm will be used

     Message from routine setup:
     DEPRECATED: symmetry with ibrav=0, use correct ibrav instead

     bravais-lattice index     =            0
     lattice parameter (alat)  =      14.5833  a.u.
     unit-cell volume          =    2387.5141 (a.u.)^3
     number of atoms/cell      =           29
     number of atomic types    =            1
     number of electrons       =       435.00
     number of Kohn-Sham states=          262
     kinetic-energy cutoff     =      70.0000  Ry
     charge density cutoff     =     700.0000  Ry
     convergence threshold     =      1.0E-06
     mixing beta               =       0.7000
     number of iterations used =            8  plain     mixing
     Exchange-correlation      = PBE ( 1  4  3  4 0 0)

     celldm(1)=  14.583305  celldm(2)=   0.000000  celldm(3)=   0.000000
     celldm(4)=   0.000000  celldm(5)=   0.000000  celldm(6)=   0.000000

     crystal axes: (cart. coord. in units of alat)
               a(1) = (  -0.577350   0.577350   0.577350 )
               a(2) = (   0.577350  -0.577350   0.577350 )
               a(3) = (   0.577350   0.577350  -0.577350 )

     reciprocal axes: (cart. coord. in units 2 pi/alat)
               b(1) = (  0.000000  0.866025  0.866025 )
               b(2) = (  0.866025  0.000000  0.866025 )
               b(3) = (  0.866025  0.866025  0.000000 )

     PseudoPot. # 1 for Mn read from file:
     /home/cristian/Escritorio/Proyecto_Grafeno/pseudopotenciales/Mn.pbe-spn-rrkjus_psl.0.3.1.UPF
     MD5 check sum: e1cac159bdd2ba70c18e85765a5d4279
     Pseudo is Ultrasoft + core correction, Zval = 15.0
     Generated using "atomic" code by A. Dal Corso v.6.2.2
     Using radial grid of 1187 points,  6 beta functions with:
                l(1) =   0
                l(2) =   0
                l(3) =   1
                l(4) =   1
                l(5) =   2
                l(6) =   2
     Q(r) pseudized with 0 coefficients

     atomic species   valence    mass     pseudopotential
        Mn            15.00    54.93804     Mn( 1.00)

     Starting magnetic structure
     atomic species   magnetization
        Mn           0.700

     24 Sym. Ops. (no inversion) found

                                    s                        frac. trans.

      isym =  1     identity

 cryst.   s( 1) = (     1          0          0      )
                  (     0          1          0      )
                  (     0          0          1      )

 cart.    s( 1) = (  1.0000000  0.0000000  0.0000000 )
                  (  0.0000000  1.0000000  0.0000000 )
                  (  0.0000000  0.0000000  1.0000000 )

      isym =  2     180 deg rotation - cart. axis [0,0,1]

[...]

 cryst.   s( 9) = (     0          1          0      )
                  (     0          0          1      )
                  (     1          0          0      )

 cart.    s( 9) = (  0.0000000  0.0000000  1.0000000 )
                  (  1.0000000  0.0000000  0.0000000 )
                  (  0.0000000  1.0000000  0.0000000 )

[...]

 cryst.   s(10) = (     0          0          1      )
                  (     0          1          0      )
                  (    -1         -1         -1      )

 cart.    s(10) = (  0.0000000  0.0000000  1.0000000 )
                  ( -1.0000000  0.0000000  0.0000000 )
                  (  0.0000000 -1.0000000  0.0000000 )

[...]

      isym = 12     120 deg rotation - cart. axis [-1,-1,1]

[...]

      isym = 13     inv. 180 deg rotation - cart. axis [1,1,0]

[...]

      isym = 24     inv.  90 deg rotation - cart. axis [1,0,0]

 cryst.   s(24) = (     0          0          1      )
                  (     1          0          0      )
                  (    -1         -1         -1      )

 cart.    s(24) = ( -1.0000000  0.0000000  0.0000000 )
                  (  0.0000000  0.0000000  1.0000000 )
                  (  0.0000000 -1.0000000  0.0000000 )

   Cartesian axes

     site n.     atom                  positions (alat units)
         1           Mn  tau(   1) = (   0.0000000   0.0000000   0.0000000  )
         2           Mn  tau(   2) = (   0.3670447   0.3670447   0.3670447  )
         3           Mn  tau(   3) = (   0.2103056   0.2103056  -0.2103056  )
         4           Mn  tau(   4) = (   0.2103056  -0.2103056   0.2103056  )
         5           Mn  tau(   5) = (  -0.2103056   0.2103056   0.2103056  )
         6           Mn  tau(   6) = (   0.4739122   0.4739122  -0.2517940  )
         7           Mn  tau(   7) = (   0.1034381   0.1034381   0.3255563  )
         8           Mn  tau(   8) = (   0.1034381  -0.1034381   0.8291443  )
         9           Mn  tau(   9) = (  -0.1034381   0.1034381   0.8291443  )
        10           Mn  tau(  10) = (  -0.2517940   0.4739122   0.4739122  )
        11           Mn  tau(  11) = (   0.3255563   0.1034381   0.1034381  )
        12           Mn  tau(  12) = (   0.8291443   0.1034381  -0.1034381  )
        13           Mn  tau(  13) = (   0.8291443  -0.1034381   0.1034381  )
        14           Mn  tau(  14) = (   0.4739122  -0.2517940   0.4739122  )
        15           Mn  tau(  15) = (   0.1034381   0.3255563   0.1034381  )
        16           Mn  tau(  16) = (  -0.1034381   0.8291443   0.1034381  )
        17           Mn  tau(  17) = (   0.1034381   0.8291443  -0.1034381  )
        18           Mn  tau(  18) = (   0.1650529   0.1650529   0.6172683  )
        19           Mn  tau(  19) = (   0.4122974   0.4122974   0.0399180  )
        20           Mn  tau(  20) = (  -0.1650529   0.1650529   0.5374323  )
        21           Mn  tau(  21) = (   0.1650529  -0.1650529   0.5374323  )
        22           Mn  tau(  22) = (   0.6172683   0.1650529   0.1650529  )
        23           Mn  tau(  23) = (   0.0399180   0.4122974   0.4122974  )
        24           Mn  tau(  24) = (   0.5374323  -0.1650529   0.1650529  )
        25           Mn  tau(  25) = (   0.5374323   0.1650529  -0.1650529  )
        26           Mn  tau(  26) = (   0.1650529   0.6172683   0.1650529  )
        27           Mn  tau(  27) = (   0.4122974   0.0399180   0.4122974  )
        28           Mn  tau(  28) = (   0.1650529   0.5374323  -0.1650529  )
        29           Mn  tau(  29) = (  -0.1650529   0.5374323   0.1650529  )

   Crystallographic axes

     site n.     atom                  positions (cryst. coord.)
         1           Mn  tau(   1) = (  0.0000000  0.0000000  0.0000000  )
         2           Mn  tau(   2) = (  0.6357400  0.6357400  0.6357400  )
         3           Mn  tau(   3) = (  0.0000000  0.0000000  0.3642600  )
         4           Mn  tau(   4) = (  0.0000000  0.3642600  0.0000000  )
         5           Mn  tau(   5) = (  0.3642600  0.0000000  0.0000000  )
         6           Mn  tau(   6) = (  0.1923600  0.1923600  0.8208400  )
         7           Mn  tau(   7) = (  0.3715200  0.3715200  0.1791600  )
         8           Mn  tau(   8) = (  0.6284800  0.8076400  0.0000000  )
         9           Mn  tau(   9) = (  0.8076400  0.6284800  0.0000000  )
        10           Mn  tau(  10) = (  0.8208400  0.1923600  0.1923600  )
        11           Mn  tau(  11) = (  0.1791600  0.3715200  0.3715200  )
        12           Mn  tau(  12) = (  0.0000000  0.6284800  0.8076400  )
        13           Mn  tau(  13) = (  0.0000000  0.8076400  0.6284800  )
        14           Mn  tau(  14) = (  0.1923600  0.8208400  0.1923600  )
        15           Mn  tau(  15) = (  0.3715200  0.1791600  0.3715200  )
        16           Mn  tau(  16) = (  0.8076400  0.0000000  0.6284800  )
        17           Mn  tau(  17) = (  0.6284800  0.0000000  0.8076400  )
        18           Mn  tau(  18) = (  0.6775100  0.6775100  0.2858800  )
        19           Mn  tau(  19) = (  0.3916300  0.3916300  0.7141200  )
        20           Mn  tau(  20) = (  0.6083700  0.3224900  0.0000000  )
        21           Mn  tau(  21) = (  0.3224900  0.6083700  0.0000000  )
        22           Mn  tau(  22) = (  0.2858800  0.6775100  0.6775100  )
        23           Mn  tau(  23) = (  0.7141200  0.3916300  0.3916300  )
        24           Mn  tau(  24) = (  0.0000000  0.6083700  0.3224900  )
        25           Mn  tau(  25) = (  0.0000000  0.3224900  0.6083700  )
        26           Mn  tau(  26) = (  0.6775100  0.2858800  0.6775100  )
        27           Mn  tau(  27) = (  0.3916300  0.7141200  0.3916300  )
        28           Mn  tau(  28) = (  0.3224900  0.0000000  0.6083700  )
        29           Mn  tau(  29) = (  0.6083700  0.0000000  0.3224900  )

     number of k points=    29  Methfessel-Paxton smearing, width (Ry)=  0.0300
                       cart. coord. in units 2pi/alat
        k(    1) = (   0.0000000   0.0000000   0.0000000), wk =   0.0019531
        k(    2) = (   0.1082532   0.1082532   0.0000000), wk =   0.0234375
        k(    3) = (   0.2165064   0.2165064   0.0000000), wk =   0.0234375
        k(    4) = (   0.3247595   0.3247595   0.0000000), wk =   0.0234375
        k(    5) = (  -0.4330127  -0.4330127   0.0000000), wk =   0.0117188
        k(    6) = (   0.2165064   0.1082532   0.1082532), wk =   0.0468750
        k(    7) = (   0.3247595   0.2165064   0.1082532), wk =   0.0937500
        k(    8) = (   0.4330127   0.3247595   0.1082532), wk =   0.0937500
        k(    9) = (   0.4330127   0.2165064   0.2165064), wk =   0.0468750
        k(   10) = (   0.5412659   0.3247595   0.2165064), wk =   0.0468750
        k(   11) = (   0.2165064   0.2165064   0.2165064), wk =   0.0156250
        k(   12) = (   0.3247595   0.3247595   0.2165064), wk =   0.0468750
        k(   13) = (   0.4330127   0.4330127   0.2165064), wk =   0.0234375
        k(   14) = (   0.0000000   0.0000000   0.2165064), wk =   0.0117188
        k(   15) = (   0.4330127   0.3247595   0.3247595), wk =   0.0468750
        k(   16) = (   0.0000000  -0.1082532   0.3247595), wk =   0.0468750
        k(   17) = (   0.0000000  -0.2165064   0.4330127), wk =   0.0468750
        k(   18) = (   0.1082532  -0.1082532   0.4330127), wk =   0.0468750
        k(   19) = (  -0.8660254  -0.3247595  -0.3247595), wk =   0.0234375
        k(   20) = (  -0.7577722  -0.2165064  -0.3247595), wk =   0.0937500
        k(   21) = (  -0.6495191  -0.2165064  -0.2165064), wk =   0.0156250
        k(   22) = (   0.4330127   0.4330127   0.4330127), wk =   0.0039062
        k(   23) = (   0.0000000   0.0000000   0.4330127), wk =   0.0117188
        k(   24) = (   0.0000000  -0.1082532   0.5412659), wk =   0.0468750
        k(   25) = (  -0.8660254  -0.2165064  -0.2165064), wk =   0.0234375
        k(   26) = (  -0.7577722  -0.1082532  -0.2165064), wk =   0.0468750
[...]
        k(   28) = (  -0.8660254  -0.1082532  -0.1082532), wk =   0.0234375
        k(   29) = (  -0.8660254  -0.8660254  -0.8660254), wk =   0.0019531

                       cryst. coord.
        k(    1) = (   0.0000000   0.0000000   0.0000000), wk =   0.0019531
        k(    2) = (   0.0000000   0.0000000   0.1250000), wk =   0.0234375
        k(    3) = (   0.0000000   0.0000000   0.2500000), wk =   0.0234375
        k(    4) = (   0.0000000   0.0000000   0.3750000), wk =   0.0234375
        k(    5) = (   0.0000000   0.0000000  -0.5000000), wk =   0.0117188
        k(    6) = (   0.0000000   0.1250000   0.1250000), wk =   0.0468750
        k(    7) = (   0.0000000   0.1250000   0.2500000), wk =   0.0937500
        k(    8) = (   0.0000000   0.1250000   0.3750000), wk =   0.0937500
        k(    9) = (   0.0000000   0.2500000   0.2500000), wk =   0.0468750
        k(   10) = (   0.0000000   0.2500000   0.3750000), wk =   0.0468750
        k(   11) = (   0.1250000   0.1250000   0.1250000), wk =   0.0156250
        k(   12) = (   0.1250000   0.1250000   0.2500000), wk =   0.0468750
        k(   13) = (   0.1250000   0.1250000   0.3750000), wk =   0.0234375
        k(   14) = (   0.1250000   0.1250000  -0.1250000), wk =   0.0117188
        k(   15) = (   0.1250000   0.2500000   0.2500000), wk =   0.0468750
        k(   16) = (   0.1250000   0.2500000  -0.2500000), wk =   0.0468750
        k(   17) = (   0.1250000   0.3750000  -0.3750000), wk =   0.0468750
        k(   18) = (   0.1250000   0.3750000  -0.2500000), wk =   0.0468750
        k(   19) = (   0.1250000  -0.5000000  -0.5000000), wk =   0.0234375
        k(   20) = (   0.1250000  -0.5000000  -0.3750000), wk =   0.0937500
        k(   21) = (   0.1250000  -0.3750000  -0.3750000), wk =   0.0156250
        k(   22) = (   0.2500000   0.2500000   0.2500000), wk =   0.0039062
        k(   23) = (   0.2500000   0.2500000  -0.2500000), wk =   0.0117188
        k(   24) = (   0.2500000   0.3750000  -0.3750000), wk =   0.0468750
        k(   25) = (   0.2500000  -0.5000000  -0.5000000), wk =   0.0234375
        k(   26) = (   0.2500000  -0.5000000  -0.3750000), wk =   0.0468750
        k(   27) = (   0.3750000   0.3750000  -0.3750000), wk =   0.0117188
        k(   28) = (   0.3750000  -0.5000000  -0.5000000), wk =   0.0234375
        k(   29) = (  -0.5000000  -0.5000000  -0.5000000), wk =   0.0019531

     Check: negative core charge=   -0.000005

     Initial potential from superposition of free atoms

     starting charge  434.98555, renormalised to  435.00000
     Starting wfcs are  290 randomized atomic wfcs

     Self-consistent Calculation

     iteration #  1     ecut=    70.00 Ry     beta= 0.70
     Davidson diagonalization with overlap
     ethr =  1.00E-02,  avg # of iterations =  3.1

     total energy              =   -6195.45105956 Ry
     Harris-Foulkes estimate   =   -6169.32244199 Ry
     estimated scf accuracy    <      36.51364541 Ry

     total magnetization       =    89.00 Bohr mag/cell
     absolute magnetization    =    95.84 Bohr mag/cell

[...]

     total energy              =   -6201.31049464 Ry
     Harris-Foulkes estimate   =   -6201.31049489 Ry
     estimated scf accuracy    <       0.00000241 Ry

[...]

     iteration # 46     ecut=    70.00 Ry     beta= 0.70
     Davidson diagonalization with overlap
     ethr =  5.54E-10,  avg # of iterations =  1.0

     Magnetic moment per site:
     atom:    1    charge:   12.6587    magn:    0.1153    constr:    0.0000
     atom:    2    charge:   12.6820    magn:   -2.9385    constr:    0.0000
     atom:    3    charge:   12.6820    magn:   -2.9385    constr:    0.0000
     atom:    4    charge:   12.6820    magn:   -2.9385    constr:    0.0000
     atom:    5    charge:   12.6820    magn:   -2.9385    constr:    0.0000
     atom:    6    charge:   12.8187    magn:   -0.7781    constr:    0.0000
     atom:    7    charge:   12.8187    magn:   -0.7781    constr:    0.0000
     atom:    8    charge:   12.8187    magn:   -0.7781    constr:    0.0000
     atom:    9    charge:   12.8187    magn:   -0.7781    constr:    0.0000
     atom:   10    charge:   12.8187    magn:   -0.7781    constr:    0.0000
     atom:   11    charge:   12.8187    magn:   -0.7781    constr:    0.0000
     atom:   12    charge:   12.8187    magn:   -0.7781    constr:    0.0000
     atom:   13    charge:   12.8187    magn:   -0.7781    constr:    0.0000
     atom:   14    charge:   12.8187    magn:   -0.7781    constr:    0.0000
     atom:   15    charge:   12.8187    magn:   -0.7781    constr:    0.0000
     atom:   16    charge:   12.8187    magn:   -0.7781    constr:    0.0000
     atom:   17    charge:   12.8187    magn:   -0.7781    constr:    0.0000
     atom:   18    charge:   12.7559    magn:    1.3968    constr:    0.0000
     atom:   19    charge:   12.7559    magn:    1.3968    constr:    0.0000
     atom:   20    charge:   12.7559    magn:    1.3968    constr:    0.0000
     atom:   21    charge:   12.7559    magn:    1.3968    constr:    0.0000
     atom:   22    charge:   12.7559    magn:    1.3968    constr:    0.0000
     atom:   23    charge:   12.7559    magn:    1.3968    constr:    0.0000
     atom:   24    charge:   12.7559    magn:    1.3968    constr:    0.0000
     atom:   25    charge:   12.7559    magn:    1.3968    constr:    0.0000
     atom:   26    charge:   12.7559    magn:    1.3968    constr:    0.0000
     atom:   27    charge:   12.7559    magn:    1.3968    constr:    0.0000
     atom:   28    charge:   12.7559    magn:    1.3968    constr:    0.0000
     atom:   29    charge:   12.7559    magn:    1.3968    constr:    0.0000

     End of self-consistent calculation

 ------ SPIN UP ------------

          k = 0.0000 0.0000 0.0000 ( 23623 PWs)   bands (ev):

   -62.6492 -62.6246 -62.6246 -62.6246 -62.6159 -62.6159 -62.6032 -62.6032
   -62.6032 -62.6012 -62.6012 -62.6012 -61.8774 -61.3444 -61.3217 -61.3217
   -61.3217 -61.2964 -61.2964 -61.2475 -61.2475 -61.2475 -61.2219 -61.2219
   -61.2219 -59.9184 -59.9184 -59.9184 -59.9181 -31.4802 -31.4802 -31.4802
   -31.4720 -31.4720 -31.4709 -31.4709 -31.4709 -31.4405 -31.4405 -31.4405
   -31.4025 -31.4021 -31.4021 -31.3736 -31.3736 -31.3708 -31.3708 -31.3708
   -31.3653 -31.3374 -31.3374 -31.3374 -31.2769 -31.2769 -31.2769 -31.2537
   -31.2537 -31.2537 -31.1903 -31.1903 -31.1903 -31.1788 -31.1641 -31.1641
   -31.1641 -30.6050 -30.6050 -30.6050 -30.4423 -30.3703 -30.3703 -30.3703
   -30.3045 -30.3045 -30.1080 -30.1050 -30.1050 -30.1050 -30.0870 -30.0870
   -30.0870 -30.0727 -30.0727 -30.0727 -30.0523 -30.0523 -29.9313 -29.9313
   -29.9313 -29.9034 -29.8801 -29.8801 -29.8801 -29.8793 -29.8793 -29.8715
   -29.8715 -29.8715 -29.8706 -29.8706 -29.8706 -29.8120 -29.8120 -29.8120
   -28.7306 -28.7306 -28.7306 -28.7295 -28.7295 -28.7291 -28.7291 -28.7291
   -28.6714 -28.6714 -28.6714 -28.6707   9.4823  12.6986  12.6986  12.6986
    12.8515  12.8523  12.8523  12.8523  12.9057  12.9057  12.9057  12.9804
    12.9804  13.6032  13.7075  13.7075  13.7075  13.7787  13.7787  13.9745
    13.9745  13.9745  14.1471  14.2385  14.2385  14.2385  14.3865  14.4978
    14.4978  14.4978  14.5636  14.5636  14.8083  14.8083  14.8083  14.8635
    14.8635  14.8635  14.9500  14.9500  14.9500  15.0462  15.0477  15.0477
    15.2665  15.2665  15.2665  15.4064  15.4064  15.4064  15.4080  15.4080
    15.4080  15.5315  15.5353  15.5353  15.5353  15.5940  15.5940  15.6445
    15.6445  15.6445  15.8614  15.8614  15.8731  15.9051  15.9051  15.9051
    15.9545  15.9545  15.9545  16.0378  16.1143  16.1143  16.1143  16.2137
    16.2137  16.2137  16.2351  16.2351  16.4989  16.4989  16.7279  16.7279
    16.7279  16.7349  16.7349  16.7349  16.9882  16.9882  16.9882  17.0380
    17.2463  17.2463  17.3853  17.3853  17.3853  17.4538  17.4538  17.5361
    17.5361  17.5361  17.6284  17.6284  17.6284  17.7121  17.7121  17.7121
    17.7850  17.7850  17.7850  17.8528  17.8528  17.9430  17.9430  17.9430
    18.0487  18.0487  18.1558  18.1558  18.1558  18.4952  18.4952  18.4952
    18.5271  18.5271  18.5271  18.5743  18.5743  18.6940  18.6940  18.6940
    18.7697  18.7936  18.7936  18.7936  18.9189  19.0895  19.0895  19.0895
    19.1073  19.1073  19.1073  19.1998  19.2987  19.2987

     occupation numbers
     1.0000   1.0000   1.0000   1.0000   1.0000   1.0000   1.0000   1.0000
     1.0000   1.0000   1.0000   1.0000   1.0000   1.0000   1.0000   1.0000
     1.0000   1.0000   1.0000   1.0000   1.0000   1.0000   1.0000   1.0000
     1.0000   1.0000   1.0000   1.0000   1.0000   1.0000   1.0000   1.0000
     1.0000   1.0000   1.0000   1.0000   1.0000   1.0000   1.0000   1.0000
     1.0000   1.0000   1.0000   1.0000   1.0000   1.0000   1.0000   1.0000
     1.0000   1.0000   1.0000   1.0000   1.0000   1.0000   1.0000   1.0000
     1.0000   1.0000   1.0000   1.0000   1.0000   1.0000   1.0000   1.0000
     1.0000   1.0000   1.0000   1.0000   1.0000   1.0000   1.0000   1.0000
     1.0000   1.0000   1.0000   1.0000   1.0000   1.0000   1.0000   1.0000
     1.0000   1.0000   1.0000   1.0000   1.0000   1.0000   1.0000   1.0000
     1.0000   1.0000   1.0000   1.0000   1.0000   1.0000   1.0000   1.0000
     1.0000   1.0000   1.0000   1.0000   1.0000   1.0000   1.0000   1.0000
     1.0000   1.0000   1.0000   1.0000   1.0000   1.0000   1.0000   1.0000
     1.0000   1.0000   1.0000   1.0000   1.0000   1.0000   1.0000   1.0000
     1.0000   1.0000   1.0000   1.0000   1.0000   1.0000   1.0000   1.0000
     1.0000   1.0000   1.0000   1.0000   1.0000   1.0000   1.0000   1.0000
     1.0000   1.0000   1.0000   1.0000   1.0000   1.0000   1.0000   1.0000
     1.0000   1.0000   1.0000   1.0000   1.0000   1.0000   1.0000   1.0000
     1.0000   1.0000   1.0000   1.0000   1.0000   1.0000   1.0000   1.0000
     1.0000   1.0000   1.0000   1.0000   1.0000   1.0000   1.0000   1.0000
     1.0000   1.0000   1.0000   1.0000   1.0000   1.0000   1.0000   1.0000
     1.0000   1.0000   1.0000   1.0000   1.0000   1.0000   1.0000   1.0000
     1.0000   1.0000   1.0000   1.0000   1.0000   1.0000   1.0000   1.0001
     1.0001   1.0001   1.0001   1.0001   1.0024   1.0024   1.0157   1.0157
     1.0157   1.0164   1.0164   1.0164   1.0339   1.0339   1.0339   1.0259
     0.8687   0.8687   0.6311   0.6311   0.6311   0.4907   0.4907   0.3247
     0.3247   0.3247   0.1655   0.1655   0.1655   0.0613   0.0613   0.0613
     0.0045   0.0045   0.0045  -0.0239  -0.0239  -0.0354  -0.0354  -0.0354
    -0.0290  -0.0290  -0.0172  -0.0172  -0.0172  -0.0009  -0.0009  -0.0009
    -0.0006  -0.0006  -0.0006  -0.0003  -0.0003  -0.0001  -0.0001  -0.0001
    -0.0000  -0.0000  -0.0000  -0.0000  -0.0000  -0.0000  -0.0000  -0.0000
    -0.0000  -0.0000  -0.0000  -0.0000  -0.0000  -0.0000

[...]

          k =-0.4330-0.4330 0.0000 ( 23636 PWs)   bands (ev):

[...]

 ------ SPIN DOWN ----------

[...]

          k = 0.0000 0.0000 0.6495 ( 23618 PWs)   bands (ev):

[...]

          k =-0.8660-0.8660-0.8660 ( 23634 PWs)   bands (ev):

   -63.4828 -63.4828 -63.4828 -63.4828 -62.2841 -62.2602 -62.2602 -62.2602
   -62.2367 -62.2367 -62.1884 -62.1884 -62.1884 -62.1634 -62.1634 -62.1634
   -61.7637 -60.9466 -60.9466 -60.9337 -60.9337 -60.9337 -60.9148 -60.9125
   -60.9125 -60.9125 -60.9102 -60.9102 -60.9102 -32.2118 -32.2118 -32.2118
   -32.2095 -32.2095 -32.2095 -32.2083 -32.2083 -32.1861 -32.1861 -32.1861
   -32.1828 -31.2570 -31.1881 -31.1881 -31.1881 -31.1339 -31.1339 -31.1245
   -31.1050 -31.1050 -31.1050 -31.0635 -31.0635 -31.0635 -31.0369 -31.0369
   -31.0369 -31.0360 -31.0360 -30.9010 -30.9010 -30.9010 -30.9009 -30.9009
   -30.9009 -30.8887 -30.8887 -30.8887 -30.8714 -30.8702 -30.8702 -30.7206
   -30.7206 -30.7206 -30.6388 -30.6388 -30.6388 -30.4733 -30.4733 -30.4733
   -29.8696 -29.7990 -29.7990 -29.7990 -29.7591 -29.7446 -29.7446 -29.7446
   -29.7272 -29.7272 -29.7061 -29.6951 -29.6951 -29.6951 -29.6877 -29.6877
   -29.6811 -29.6811 -29.6811 -29.6570 -29.6570 -29.6570 -29.6343 -29.6343
   -29.6343 -29.6276 -29.6276 -29.5873 -29.5873 -29.5873 -29.5841 -29.5841
   -29.5841 -29.5513 -29.5513 -29.5513  11.3135  11.3135  11.3135  11.4390
    11.4828  11.4828  12.9966  13.3892  13.3892  13.3892  13.3901  13.4898
    13.5982  13.5982  13.5982  13.6578  13.6578  13.6578  13.6651  13.6651
    13.6651  14.1536  14.1536  14.3149  14.3149  14.3149  14.3314  14.3314
    14.3314  14.4936  14.4936  14.4936  14.5666  14.5666  14.6876  14.6876
    14.7448  14.7448  14.7448  14.8384  14.8384  14.9158  14.9158  14.9158
    15.0751  15.0751  15.0751  15.1555  15.1555  15.1555  15.2932  15.2932
    15.2932  15.3324  15.3324  15.4470  15.4470  15.4470  15.6136  15.6136
    15.6762  15.6762  15.6762  15.8196  15.8196  15.8196  15.8918  15.9541
    15.9998  15.9998  15.9998  16.0141  16.0492  16.0492  16.0940  16.0940
    16.0940  16.3955  16.3955  16.3955  16.5608  16.5608  16.5608  16.5671
    16.5671  16.6963  16.6963  16.6963  16.6989  16.6989  16.6989  16.7497
    16.8849  17.0209  17.0209  17.0209  17.0331  17.0331  17.0331  17.2763
    17.2763  17.4265  17.4265  17.4265  17.5133  17.5133  17.5133  17.5573
    17.5573  17.7846  17.7846  17.7846  17.8356  17.9358  17.9358  17.9623
    17.9623  17.9623  18.1394  18.1394  18.1394  18.2276  18.2276  18.2713
    18.2713  18.2713  18.3692  18.5432  18.5432  18.5432  18.6684  18.6684
    18.6684  18.8105  18.8105  18.8105  18.8691  18.8726  18.8726  18.8726
    18.9467  18.9467  18.9613  18.9613  18.9613  19.0102

     occupation numbers
     1.0000   1.0000   1.0000   1.0000   1.0000   1.0000   1.0000   1.0000
     1.0000   1.0000   1.0000   1.0000   1.0000   1.0000   1.0000   1.0000
     1.0000   1.0000   1.0000   1.0000   1.0000   1.0000   1.0000   1.0000
     1.0000   1.0000   1.0000   1.0000   1.0000   1.0000   1.0000   1.0000
     1.0000   1.0000   1.0000   1.0000   1.0000   1.0000   1.0000   1.0000
     1.0000   1.0000   1.0000   1.0000   1.0000   1.0000   1.0000   1.0000
     1.0000   1.0000   1.0000   1.0000   1.0000   1.0000   1.0000   1.0000
     1.0000   1.0000   1.0000   1.0000   1.0000   1.0000   1.0000   1.0000
     1.0000   1.0000   1.0000   1.0000   1.0000   1.0000   1.0000   1.0000
     1.0000   1.0000   1.0000   1.0000   1.0000   1.0000   1.0000   1.0000
     1.0000   1.0000   1.0000   1.0000   1.0000   1.0000   1.0000   1.0000
     1.0000   1.0000   1.0000   1.0000   1.0000   1.0000   1.0000   1.0000
     1.0000   1.0000   1.0000   1.0000   1.0000   1.0000   1.0000   1.0000
     1.0000   1.0000   1.0000   1.0000   1.0000   1.0000   1.0000   1.0000
     1.0000   1.0000   1.0000   1.0000   1.0000   1.0000   1.0000   1.0000
     1.0000   1.0000   1.0000   1.0000   1.0000   1.0000   1.0000   1.0000
     1.0000   1.0000   1.0000   1.0000   1.0000   1.0000   1.0000   1.0000
     1.0000   1.0000   1.0000   1.0000   1.0000   1.0000   1.0000   1.0000
     1.0000   1.0000   1.0000   1.0000   1.0000   1.0000   1.0000   1.0000
     1.0000   1.0000   1.0000   1.0000   1.0000   1.0000   1.0000   1.0000
     1.0000   1.0000   1.0000   1.0000   1.0000   1.0000   1.0000   1.0000
     1.0000   1.0000   1.0000   1.0000   1.0000   1.0000   1.0000   1.0000
     1.0000   1.0000   1.0000   1.0000   1.0000   1.0000   1.0000   1.0000
     1.0000   1.0000   1.0000   1.0000   1.0000   1.0000   1.0000   1.0000
     1.0000   1.0008   1.0008   1.0008   1.0043   1.0043   1.0043   1.0046
     1.0046   1.0128   1.0128   1.0128   1.0130   1.0130   1.0130   1.0179
     1.0324   1.0295   1.0295   1.0295   1.0271   1.0271   1.0271   0.8256
     0.8256   0.5473   0.5473   0.5473   0.3693   0.3693   0.3693   0.2846
     0.2846   0.0047   0.0047   0.0047  -0.0186  -0.0353  -0.0353  -0.0353
    -0.0353  -0.0353  -0.0190  -0.0190  -0.0190  -0.0107  -0.0107  -0.0076
    -0.0076  -0.0076  -0.0032  -0.0005  -0.0005  -0.0005  -0.0001  -0.0001
    -0.0001  -0.0000  -0.0000  -0.0000  -0.0000  -0.0000  -0.0000  -0.0000
    -0.0000  -0.0000  -0.0000  -0.0000  -0.0000  -0.0000

     the Fermi energy is    17.4494 ev

!    total energy              =   -6201.31049475 Ry
     Harris-Foulkes estimate   =   -6201.31049485 Ry
     estimated scf accuracy    <       0.00000020 Ry

     The total energy is the sum of the following terms:

     one-electron contribution =   -2626.11345813 Ry
     hartree contribution      =    1550.92460059 Ry
     xc contribution           =    -807.40836807 Ry
     ewald contribution        =   -4318.71624771 Ry
     smearing contrib. (-TS)   =       0.00297855 Ry

     total magnetization       =    -4.64 Bohr mag/cell
     absolute magnetization    =    41.78 Bohr mag/cell

     convergence has been achieved in  46 iterations

     Writing output data file mn-8.save/

     General routines

     Parallel routines

   This run was terminated on:   0:48:19   5Aug2022

   JOB DONE.