     Program PWSCF v.6.4.1 starts on 20May2022 at  0:14:57

     R & G space division:  proc/nbgrp/npool/nimage =       6
     Reading input from gr-v.in

     Current dimensions of program PWSCF are:
     Max number of different atomic species (ntypx) = 10
     Max number of k-points (npk) =  40000
     Max angular momentum in pseudopotentials (lmaxx) =  3
               file H.pbe-rrkjus.UPF: wavefunction(s)  1S renormalized
               file H.pbe-rrkjus.UPF: wavefunction(s)  1S renormalized
               file V.pbe-spnl-rrkjus_psl.1.0.0.UPF: wavefunction(s)  3P 3D renormalized

     Parameters for DFT-D3 Dispersion Correction:
       Reference C6 values for interpolation:

         atom   Coordination number   C6
         H1         0.912             6.05
         H1         0.000            15.18
         H2         0.912             6.05
         H2         0.000            15.18
         C          0.000            98.23
         C          0.987            86.49
         C          1.998            58.72
         C          2.999            51.56
         C          3.984            36.41
         V          0.000          2232.20
         V          1.914           580.29
         V          2.911           538.67

       Values used:

         atom   Coordination number  R0_AB[au]  C6      C8
         H1         1.138            2.062      6.10     73.74
         H2         1.024            2.062      6.16     74.47
         V          8.406            3.516    538.67  59684.75
         C          3.308            2.750     48.41   1400.23
         C          3.308            2.750     48.41   1400.04
         C          3.308            2.750     48.41   1400.12
         C          3.309            2.750     48.38   1399.27
         C          3.308            2.750     48.41   1400.12
         C          3.308            2.750     48.41   1400.04
         C          3.308            2.750     48.41   1400.23
         C          3.308            2.750     48.42   1400.26
         C          3.308            2.750     48.41   1400.23
         C          3.308            2.750     48.42   1400.26
         C          3.308            2.750     48.41   1400.23
         C          3.309            2.750     48.38   1399.27
         C          3.314            2.750     48.28   1396.30
         C          3.984            2.750     36.68   1060.91
         C          3.511            2.750     42.95   1242.07
         C          3.984            2.750     36.68   1060.90
         C          3.314            2.750     48.28   1396.30
         C          3.309            2.750     48.38   1399.26
         C          3.308            2.750     48.41   1400.23
         C          3.308            2.750     48.42   1400.26
         C          3.308            2.750     48.41   1400.23
         C          3.308            2.750     48.41   1400.04
         C          3.314            2.750     48.28   1396.30
         C          3.984            2.750     36.68   1060.91
         C          3.310            2.750     48.37   1398.95
         C          3.311            2.750     48.35   1398.50
         C          3.985            2.750     36.68   1060.89
         C          3.314            2.750     48.28   1396.29
         C          3.308            2.750     48.41   1400.03
         C          3.308            2.750     48.41   1400.11
         C          3.308            2.750     48.42   1400.26
         C          3.308            2.750     48.41   1400.12
         C          3.309            2.750     48.38   1399.27
         C          3.511            2.750     42.95   1242.07
         C          3.984            2.750     36.68   1060.90
         C          3.311            2.750     48.35   1398.50
         C          3.985            2.750     36.68   1060.89
         C          3.512            2.750     42.94   1241.93
         C          3.309            2.750     48.38   1399.26
         C          3.308            2.750     48.41   1400.11
         C          3.308            2.750     48.42   1400.26
         C          3.308            2.750     48.42   1400.28
         C          3.308            2.750     48.42   1400.26
         C          3.308            2.750     48.41   1400.12
         C          3.308            2.750     48.41   1400.04
         C          3.314            2.750     48.28   1396.30
         C          3.309            2.750     48.38   1399.26
         C          3.314            2.750     48.28   1396.29
         C          3.308            2.750     48.41   1400.03

         Molecular C6 ( Ry / a.u.^6 ) =    130679.30

     Subspace diagonalization in iterative solution of the eigenvalue problem:
     a serial algorithm will be used

     bravais-lattice index     =            4
     lattice parameter (alat)  =      23.2937  a.u.
     unit-cell volume          =    8879.8548 (a.u.)^3
     number of atoms/cell      =           52
     number of atomic types    =            4
     number of electrons       =       211.00
     number of Kohn-Sham states=          127
     kinetic-energy cutoff     =      70.0000  Ry
     charge density cutoff     =     490.0000  Ry
     convergence threshold     =      1.0E-06
     mixing beta               =       0.3000
     number of iterations used =            8  plain     mixing
     Exchange-correlation      = PBE ( 1  4  3  4 0 0)
     nstep                     =           50

     celldm(1)=  23.293684  celldm(2)=   0.000000  celldm(3)=   0.811261
     celldm(4)=   0.000000  celldm(5)=   0.000000  celldm(6)=   0.000000

     crystal axes: (cart. coord. in units of alat)
               a(1) = (   1.000000   0.000000   0.000000 )
               a(2) = (  -0.500000   0.866025   0.000000 )
               a(3) = (   0.000000   0.000000   0.811261 )

     reciprocal axes: (cart. coord. in units 2 pi/alat)
               b(1) = (  1.000000  0.577350 -0.000000 )
               b(2) = (  0.000000  1.154701  0.000000 )
               b(3) = (  0.000000 -0.000000  1.232649 )

     PseudoPot. # 1 for H  read from file:
     /home/cristian/Escritorio/Proyecto_Grafeno/pseudopotenciales/H.pbe-rrkjus.UPF
     MD5 check sum: 7cc9d459525c9a0585f487a71c3c9563
     Pseudo is Ultrasoft, Zval =  1.0
     Generated by new atomic code, or converted to UPF format
     Using radial grid of 1061 points,  2 beta functions with:
                l(1) =   0
                l(2) =   0
     Q(r) pseudized with 0 coefficients

     PseudoPot. # 2 for H  read from file:
     /home/cristian/Escritorio/Proyecto_Grafeno/pseudopotenciales/H.pbe-rrkjus.UPF
     MD5 check sum: 7cc9d459525c9a0585f487a71c3c9563
     Pseudo is Ultrasoft, Zval =  1.0
     Generated by new atomic code, or converted to UPF format
     Using radial grid of 1061 points,  2 beta functions with:
                l(1) =   0
                l(2) =   0
     Q(r) pseudized with 0 coefficients

     PseudoPot. # 3 for V  read from file:
     /home/cristian/Escritorio/Proyecto_Grafeno/pseudopotenciales/V.pbe-spnl-rrkjus_psl.1.0.0.UPF
     MD5 check sum: 79b3eb63147daf0b665d9f1bcc691206
     Pseudo is Ultrasoft + core correction, Zval = 13.0
     Generated using "atomic" code by A. Dal Corso v.6.2.2
     Using radial grid of 1181 points,  6 beta functions with:
                l(1) =   0
                l(2) =   0
                l(3) =   1
                l(4) =   1
                l(5) =   2
                l(6) =   2
     Q(r) pseudized with 0 coefficients

     PseudoPot. # 4 for C  read from file:
     /home/cristian/Escritorio/Proyecto_Grafeno/pseudopotenciales/C.pbe-n-rrkjus_psl.1.0.0.UPF
     MD5 check sum: 1fdd950c42eb37d8afe3dd2f8d12311e
     Pseudo is Ultrasoft + core correction, Zval =  4.0
     Generated using "atomic" code by A. Dal Corso v.6.3MaX
     Using radial grid of 1073 points,  4 beta functions with:
                l(1) =   0
                l(2) =   0
                l(3) =   1
                l(4) =   1
     Q(r) pseudized with 0 coefficients

     atomic species   valence    mass     pseudopotential
        H1             1.00     1.00794     H ( 1.00)
        H2             1.00     1.00794     H ( 1.00)
        V             13.00    50.94150     V ( 1.00)
        C              4.00    12.01070     C ( 1.00)

     No symmetry found

   Cartesian axes

     site n.     atom                  positions (alat units)
         1           H1  tau(   1) = (   0.2000000   0.4617962   0.1784775  )
         2           H2  tau(   2) = (   0.2000000   0.5228088   0.1784775  )
         3           V   tau(   3) = (   0.2000000   0.4618802   0.0000000  )
         4           C   tau(   4) = (   0.0000000   0.0000000   0.0000000  )
         5           C   tau(   5) = (   0.0000000   0.1154701   0.0000000  )
         6           C   tau(   6) = (  -0.1000000   0.1732051   0.0000000  )
         7           C   tau(   7) = (  -0.1000000   0.2886751   0.0000000  )
         8           C   tau(   8) = (  -0.2000000   0.3464102   0.0000000  )
         9           C   tau(   9) = (  -0.2000000   0.4618802   0.0000000  )
        10           C   tau(  10) = (  -0.3000000   0.5196152   0.0000000  )
        11           C   tau(  11) = (  -0.3000000   0.6350853   0.0000000  )
        12           C   tau(  12) = (  -0.4000000   0.6928203   0.0000000  )
        13           C   tau(  13) = (  -0.4000000   0.8082904   0.0000000  )
        14           C   tau(  14) = (   0.2000000   0.0000000   0.0000000  )
        15           C   tau(  15) = (   0.2000000   0.1154701   0.0000000  )
        16           C   tau(  16) = (   0.1000000   0.1732051   0.0000000  )
        17           C   tau(  17) = (   0.1000000   0.2886751   0.0000000  )
        18           C   tau(  18) = (   0.0000000   0.3464102   0.0000000  )
        19           C   tau(  19) = (   0.0000000   0.4618802   0.0000000  )
        20           C   tau(  20) = (  -0.1000000   0.5196152   0.0000000  )
        21           C   tau(  21) = (  -0.1000000   0.6350853   0.0000000  )
        22           C   tau(  22) = (  -0.2000000   0.6928203   0.0000000  )
        23           C   tau(  23) = (  -0.2000000   0.8082904   0.0000000  )
        24           C   tau(  24) = (   0.4000000   0.0000000   0.0000000  )
        25           C   tau(  25) = (   0.4000000   0.1154701   0.0000000  )
        26           C   tau(  26) = (   0.3000000   0.1732051   0.0000000  )
        27           C   tau(  27) = (   0.3000000   0.2886751   0.0000000  )
        28           C   tau(  28) = (   0.2000000   0.3464102   0.0000000  )
        29           C   tau(  29) = (   0.1000000   0.5196152   0.0000000  )
        30           C   tau(  30) = (   0.1000000   0.6350853   0.0000000  )
        31           C   tau(  31) = (   0.0000000   0.6928203   0.0000000  )
        32           C   tau(  32) = (   0.0000000   0.8082904   0.0000000  )
        33           C   tau(  33) = (   0.6000000   0.0000000   0.0000000  )
        34           C   tau(  34) = (   0.6000000   0.1154701   0.0000000  )
        35           C   tau(  35) = (   0.5000000   0.1732051   0.0000000  )
[...]
     atom   30 type  4   force =    -0.02052894    0.04412592   -0.00041112
     atom   31 type  4   force =     0.01752629   -0.00224905    0.00002260
     atom   32 type  4   force =     0.00471451    0.00981743   -0.00014516
     atom   33 type  4   force =    -0.00672852    0.00248823   -0.00013876
     atom   34 type  4   force =     0.00264926    0.00122272    0.00001555
     atom   35 type  4   force =    -0.00183822   -0.00745630   -0.00005198
     atom   36 type  4   force =    -0.01411356    0.00809430    0.00012376
     atom   37 type  4   force =     0.03277119   -0.02036335    0.00210107
     atom   38 type  4   force =     0.04740457   -0.00517648    0.00094281
     atom   39 type  4   force =     0.77160560    0.44567124   -0.02784375
     atom   40 type  4   force =     0.02052984    0.04412855   -0.00041165
     atom   41 type  4   force =     0.00000173    0.03832769    0.00368343
     atom   42 type  4   force =     0.00000096   -0.01511957    0.00028785
     atom   43 type  4   force =     0.00672619    0.00248698   -0.00013882
     atom   44 type  4   force =    -0.00264735    0.00122385    0.00001559
     atom   45 type  4   force =    -0.00000012    0.00003618    0.00005783
     atom   46 type  4   force =     0.00000049   -0.00280290    0.00003260
     atom   47 type  4   force =     0.00574152    0.00508507   -0.00005800
     atom   48 type  4   force =     0.00613054   -0.00947764   -0.00020821
     atom   49 type  4   force =    -0.01099178   -0.01379650    0.00014577
     atom   50 type  4   force =     0.01066547    0.00589267    0.00025906
     atom   51 type  4   force =    -0.01752881   -0.00225342    0.00002257
     atom   52 type  4   force =    -0.00471700    0.00981608   -0.00014528

     Total force =     1.546796     Total SCF correction =     0.000946

     BFGS Geometry Optimization

     number of scf cycles    =   1
     number of bfgs steps    =   0

     energy   new            =    -755.5960984288 Ry

     new trust radius        =       0.5000000000 bohr
     new conv_thr            =       0.0000010000 Ry

ATOMIC_POSITIONS (angstrom)
H1       2.465297442   5.686545949   2.201979000
H2       2.465297509   6.446979919   2.198821992
V        2.465303629   5.696387869   0.016045556
C        0.000000000   0.000000000   0.000000000    0   0   0
C        0.000000000   1.423340089   0.000000000    0   0   0
C       -1.232648675   2.135010133   0.000000000    0   0   0
C       -1.232648675   3.558350222   0.000000000    0   0   0
C       -2.465297350   4.270020266   0.000000000    0   0   0
C       -2.465297350   5.693360355   0.000000000    0   0   0
C       -3.697946025   6.405030399   0.000000000    0   0   0
C       -3.697946025   7.828370488   0.000000000    0   0   0
C       -4.930594700   8.540040532   0.000000000    0   0   0
C       -4.930594700   9.963380621   0.000000000    0   0   0
C        2.465297350   0.000000000   0.000000000    0   0   0
C        2.465297350   1.423340089   0.000000000    0   0   0
C        1.232648675   2.135010133   0.000000000    0   0   0
C        1.223012010   3.545983633  -0.000110874
C        0.000000000   4.270020266   0.000000000    0   0   0
C       -0.014068237   5.691824611   0.000279918
C       -1.232648675   6.405030399   0.000000000    0   0   0
C       -1.232648675   7.828370488   0.000000000    0   0   0
C       -2.465297350   8.540040532   0.000000000    0   0   0
C       -2.465297350   9.963380621   0.000000000    0   0   0
C        4.930594700   0.000000000   0.000000000    0   0   0
C        4.930594700   1.423340089   0.000000000    0   0   0
C        3.697946025   2.135010133   0.000000000    0   0   0
C        3.707582409   3.545983527  -0.000110924
C        2.465297467   4.007148345  -0.002839501
C        1.003643206   6.537300332  -0.008263749
C        1.226555953   7.841466485  -0.000122016
C        0.000000000   8.540040532   0.000000000    0   0   0
C        0.000000000   9.963380621   0.000000000    0   0   0
C        7.395892050   0.000000000   0.000000000    0   0   0
C        7.395892050   1.423340089   0.000000000    0   0   0
C        6.163243375   2.135010133   0.000000000    0   0   0
C        6.163243375   3.558350222   0.000000000    0   0   0
C        4.930594700   4.270020266   0.000000000    0   0   0
C        4.944663757   5.691824044   0.000279813
C        3.926948490   6.537299802  -0.008263662
C        3.704039014   7.841467267  -0.000122172
C        2.465297350   8.540040532   0.000000000    0   0   0
C        2.465297350   9.963380621   0.000000000    0   0   0
C        9.861189400   0.000000000   0.000000000    0   0   0
C        9.861189400   1.423340089   0.000000000    0   0   0
C        8.628540725   2.135010133   0.000000000    0   0   0
C        8.628540725   3.558350222   0.000000000    0   0   0
C        7.395892050   4.270020266   0.000000000    0   0   0
C        7.395892050   5.693360355   0.000000000    0   0   0
C        6.163243375   6.405030399   0.000000000    0   0   0
C        6.163243375   7.828370488   0.000000000    0   0   0
C        4.930594700   8.540040532   0.000000000    0   0   0
C        4.930594700   9.963380621   0.000000000    0   0   0

     Writing output data file gr-12.save/
     NEW-OLD atomic charge density approx. for the potential

[...]

     energy   old            =    -755.5960984288 Ry
     energy   new            =    -756.1915162579 Ry

     CASE: energy  _new < energy  _old

[...]

     WARNING: bfgs curvature condition failed, Theta= 0.666
     new trust radius        =       0.2090276437 bohr
     new conv_thr            =       0.0000010000 Ry

[...]

     WARNING: info=115 for Hessian
     uphill step: resetting bfgs history

[...]

     iteration #  1     ecut=    70.00 Ry     beta= 0.30
     Davidson diagonalization with overlap
     c_bands:  1 eigenvalues not converged
     ethr =  1.00E-06,  avg # of iterations = 15.0

[...]

     iteration #  1     ecut=    70.00 Ry     beta= 0.30
     Davidson diagonalization with overlap
     c_bands:  1 eigenvalues not converged
     ethr =  1.00E-06,  avg # of iterations = 14.2

[...]

     Threshold (ethr) on eigenvalues was too large:
     Diagonalizing with lowered threshold

     Davidson diagonalization with overlap
     ethr =  4.60E-08,  avg # of iterations =  1.0

[...]

     Self-consistent Calculation

[...]

     Threshold (ethr) on eigenvalues was too large:
     Diagonalizing with lowered threshold

     Davidson diagonalization with overlap
     ethr =  6.35E-08,  avg # of iterations =  1.0

[...]

     total energy              =    -756.61297427 Ry
     Harris-Foulkes estimate   =    -756.61297427 Ry
     estimated scf accuracy    <       0.00000001 Ry

     iteration #  8     ecut=    70.00 Ry     beta= 0.30
     Davidson diagonalization with overlap
     ethr =  7.07E-12,  avg # of iterations =  2.5

[...]

     End of self-consistent calculation

[...]

          k = 0.5000-0.2887 0.0000 ( 87818 PWs)   bands (ev):

[...]

          k =-0.5000-0.2887 0.0000 ( 87818 PWs)   bands (ev):

   -64.3438 -38.5083 -38.3409 -38.0448 -19.3977 -19.2910 -18.9273 -18.7709
   -18.0316 -17.9754 -17.9728 -17.7536 -17.4942 -17.2667 -16.6392 -16.6147
   -16.5173 -16.1551 -15.3183 -15.3027 -15.1741 -15.1103 -14.9037 -14.8149
   -14.7977 -14.4905 -13.9470 -13.5945 -13.3849 -12.9428 -12.5023 -12.4714
   -12.2595 -12.1672 -11.8558 -11.4430 -11.0763 -11.0589 -10.8544 -10.5128
   -10.2736 -10.1921 -10.1023  -9.8668  -9.8479  -9.2579  -8.9892  -8.7885
    -8.6975  -8.6722  -8.5560  -8.3375  -8.0046  -7.6497  -7.5855  -7.4767
    -7.4241  -7.3818  -7.2735  -7.2483  -7.0817  -7.0289  -6.9120  -6.8332
    -6.7999  -6.7849  -6.6749  -6.3695  -6.3425  -5.9661  -5.9413  -5.8672
    -5.8465  -5.7993  -5.7505  -5.6815  -5.6656  -5.5906  -5.5314  -5.3601
    -5.1822  -5.0302  -4.7626  -4.4110  -4.3528  -4.3141  -4.2939  -4.2491
    -4.1352  -3.9632  -3.6612  -3.3312  -3.1910  -3.1815  -2.8284  -2.7818
    -2.7456  -2.6488  -2.6033  -2.5412  -2.1643  -2.1355  -1.8063  -1.1322
    -0.9054   0.0175   0.2110   1.0377   1.1044   1.4497   1.5789   1.8811
     1.9521   2.0278   2.1979   2.2822   2.4132   2.5874   2.6629   2.7728
     3.1846   3.2584   3.5462   3.7926   3.8532   4.2108   4.2230

     the Fermi energy is     0.0300 ev

!    total energy              =    -756.61297426 Ry
     Harris-Foulkes estimate   =    -756.61297427 Ry
     estimated scf accuracy    <          3.2E-09 Ry

     The total energy is the sum of the following terms:

     one-electron contribution =   -2480.90830523 Ry
     hartree contribution      =    1286.86680918 Ry
     xc contribution           =    -249.14975611 Ry
     ewald contribution        =     686.71782574 Ry
     DFT-D3 Dispersion         =      -0.13962832 Ry
     smearing contrib. (-TS)   =       0.00008047 Ry

     convergence has been achieved in   8 iterations

[...]

     Forces acting on atoms (cartesian axes, Ry/au):

     atom    1 type  1   force =     0.00000587    0.00096102    0.00030806
     atom    2 type  2   force =    -0.00000091   -0.00106394   -0.00034274
     atom    3 type  3   force =    -0.00001826   -0.00021737   -0.00019847
     atom    4 type  4   force =     0.00039103   -0.00053892   -0.00219602
     atom    5 type  4   force =    -0.00329369   -0.00204769   -0.00705175
     atom    6 type  4   force =     0.00036404   -0.00139447    0.00125842
     atom    7 type  4   force =     0.00415607   -0.00002073   -0.01079010
     atom    8 type  4   force =    -0.00310158    0.00204156   -0.00108469
     atom    9 type  4   force =    -0.00682397   -0.00092558   -0.00221409
     atom   10 type  4   force =     0.00000255   -0.00051052    0.00015018
     atom   11 type  4   force =    -0.00000210   -0.00268906   -0.00012986
     atom   12 type  4   force =    -0.00084810    0.00067275    0.00021386
     atom   13 type  4   force =    -0.00260694   -0.00156027   -0.00014978
     atom   14 type  4   force =    -0.00000085    0.00825199   -0.00104933
     atom   15 type  4   force =     0.00001147   -0.01019853    0.00350644
     atom   16 type  4   force =    -0.00947133   -0.01194243    0.00240320
     atom   17 type  4   force =     0.00013895    0.00005734    0.00009336
     atom   18 type  4   force =    -0.00873203   -0.01424130    0.02204462
     atom   19 type  4   force =    -0.00032317   -0.00021432   -0.00063824
     atom   20 type  4   force =    -0.02901478   -0.00157435   -0.00797184
     atom   21 type  4   force =     0.00016543    0.00265801    0.00116001
     atom   22 type  4   force =     0.00085292    0.00067209    0.00021121
     atom   23 type  4   force =     0.00260253   -0.00155896   -0.00014947
     atom   24 type  4   force =    -0.00039043   -0.00053678   -0.00219769
     atom   25 type  4   force =     0.00328323   -0.00203078   -0.00704992
     atom   26 type  4   force =     0.00943257   -0.01191745    0.00240465
     atom   27 type  4   force =     0.00016710   -0.00009098    0.00003130
     atom   28 type  4   force =    -0.00022772    0.00015134    0.00001217
     atom   29 type  4   force =     0.00059550   -0.00042375    0.00008336
     atom   30 type  4   force =    -0.00005634   -0.00015481    0.00047601
     atom   31 type  4   force =    -0.01742763    0.02518813   -0.00117112
     atom   32 type  4   force =    -0.00289678    0.00186338   -0.00277530
     atom   33 type  4   force =     0.00005338    0.00294412   -0.00000951
     atom   34 type  4   force =     0.00172270   -0.00121589    0.00147359
     atom   35 type  4   force =    -0.00035436   -0.00139821    0.00126064
     atom   36 type  4   force =    -0.00416849   -0.00003254   -0.01078249
     atom   37 type  4   force =     0.00870686   -0.01425973    0.02203117
     atom   38 type  4   force =     0.00009012   -0.00007353   -0.00059962
     atom   39 type  4   force =    -0.00037219   -0.00075126    0.00007942
     atom   40 type  4   force =     0.00003110    0.00011277    0.00044581
     atom   41 type  4   force =     0.00000272    0.01012838    0.01669836
     atom   42 type  4   force =     0.00000490   -0.00228964   -0.00614528
     atom   43 type  4   force =    -0.00005472    0.00295528   -0.00001254
     atom   44 type  4   force =    -0.00172771   -0.00122315    0.00147301
     atom   45 type  4   force =     0.00000096   -0.00086391   -0.00020015
     atom   46 type  4   force =     0.00000044    0.00007566    0.00116423
     atom   47 type  4   force =     0.00309911    0.00204030   -0.00108805
     atom   48 type  4   force =     0.00683585   -0.00092032   -0.00220710
     atom   49 type  4   force =     0.02905468   -0.00158123   -0.00798403
     atom   50 type  4   force =    -0.00017747    0.00267279    0.00115783
     atom   51 type  4   force =     0.01742917    0.02516424   -0.00118405
     atom   52 type  4   force =     0.00289027    0.00185125   -0.00276768

     Total force =     0.002268     Total SCF correction =     0.000147

     number of scf cycles    =  50
     number of bfgs steps    =  49

     energy   old            =    -756.6129558502 Ry
     energy   new            =    -756.6129742638 Ry

     CASE: energy  _new < energy  _old

     new trust radius        =       0.0150057066 bohr
     new conv_thr            =       0.0000000100 Ry

ATOMIC_POSITIONS (angstrom)
H1       2.465276151   4.946162175   3.078002731
H2       2.465319934   5.704254321   3.334825004
V        2.465411265   5.800476217   1.324885114
C        0.000000000   0.000000000   0.000000000    0   0   0
C        0.000000000   1.423340089   0.000000000    0   0   0
C       -1.232648675   2.135010133   0.000000000    0   0   0
C       -1.232648675   3.558350222   0.000000000    0   0   0
C       -2.465297350   4.270020266   0.000000000    0   0   0
C       -2.465297350   5.693360355   0.000000000    0   0   0
C       -3.697946025   6.405030399   0.000000000    0   0   0
C       -3.697946025   7.828370488   0.000000000    0   0   0
C       -4.930594700   8.540040532   0.000000000    0   0   0
C       -4.930594700   9.963380621   0.000000000    0   0   0
C        2.465297350   0.000000000   0.000000000    0   0   0
C        2.465297350   1.423340089   0.000000000    0   0   0
C        1.232648675   2.135010133   0.000000000    0   0   0
C        1.226515520   3.545797621   0.088760561
C        0.000000000   4.270020266   0.000000000    0   0   0
C       -0.020618990   5.692343344   0.027331552
C       -1.232648675   6.405030399   0.000000000    0   0   0
C       -1.232648675   7.828370488   0.000000000    0   0   0
C       -2.465297350   8.540040532   0.000000000    0   0   0
C       -2.465297350   9.963380621   0.000000000    0   0   0
C        4.930594700   0.000000000   0.000000000    0   0   0
C        4.930594700   1.423340089   0.000000000    0   0   0
C        3.697946025   2.135010133   0.000000000    0   0   0
C        3.704165031   3.545760117   0.088755680
C        2.465222043   4.185996082   0.358273758
C        1.160812808   6.436973189   0.173900213
C        1.224039243   7.837657095   0.040515465
C        0.000000000   8.540040532   0.000000000    0   0   0
C        0.000000000   9.963380621   0.000000000    0   0   0
C        7.395892050   0.000000000   0.000000000    0   0   0
C        7.395892050   1.423340089   0.000000000    0   0   0
C        6.163243375   2.135010133   0.000000000    0   0   0
C        6.163243375   3.558350222   0.000000000    0   0   0
C        4.930594700   4.270020266   0.000000000    0   0   0
C        4.951223378   5.692333115   0.027232217
C        3.769752234   6.436962257   0.173656064
C        3.706554651   7.837667524   0.040427509
C        2.465297350   8.540040532   0.000000000    0   0   0
C        2.465297350   9.963380621   0.000000000    0   0   0
C        9.861189400   0.000000000   0.000000000    0   0   0
C        9.861189400   1.423340089   0.000000000    0   0   0
C        8.628540725   2.135010133   0.000000000    0   0   0
C        8.628540725   3.558350222   0.000000000    0   0   0
C        7.395892050   4.270020266   0.000000000    0   0   0
C        7.395892050   5.693360355   0.000000000    0   0   0
C        6.163243375   6.405030399   0.000000000    0   0   0
C        6.163243375   7.828370488   0.000000000    0   0   0
C        4.930594700   8.540040532   0.000000000    0   0   0
C        4.930594700   9.963380621   0.000000000    0   0   0

     Writing output data file gr-12.save/
     NEW-OLD atomic charge density approx. for the potential

     Check: negative core charge=   -0.000002

     negative rho (up, down):  1.252E-03 0.000E+00

     Writing output data file gr-12.save/

     General routines

     Parallel routines

   This run was terminated on:  22:11:43  20May2022

   JOB DONE.