     Program PWSCF v.6.4.1 starts on 13May2022 at 18:42:58

     R & G space division:  proc/nbgrp/npool/nimage =       6
     Reading input from gr-cu-3.in

     Current dimensions of program PWSCF are:
     Max number of different atomic species (ntypx) = 10
     Max number of k-points (npk) =  40000
     Max angular momentum in pseudopotentials (lmaxx) =  3
               file H.pbe-rrkjus.UPF: wavefunction(s)  1S renormalized
               file H.pbe-rrkjus.UPF: wavefunction(s)  1S renormalized
               file Cu.pbe-dn-rrkjus_psl.1.0.0.UPF: wavefunction(s)  3D renormalized

     Parameters for DFT-D3 Dispersion Correction:
       Reference C6 values for interpolation:

         atom   Coordination number   C6
         H1         0.912             6.05
         H1         0.000            15.18
         H2         0.912             6.05
         H2         0.000            15.18
         C          0.000            98.23
         C          0.987            86.49
         C          1.998            58.72
         C          2.999            51.56
         C          3.984            36.41
         Cu         0.000           674.36
         Cu         0.958           349.99

       Values used:

         atom   Coordination number  R0_AB[au]  C6      C8
         H1         0.895            2.062      6.32     76.45
         H2         0.895            2.062      6.32     76.46
         Cu         3.632            3.119    349.99  28675.33
         C          3.308            2.750     48.42   1400.29
         C          3.309            2.750     48.39   1399.62
         C          3.308            2.750     48.41   1400.15
         C          3.311            2.750     48.34   1398.12
         C          3.308            2.750     48.40   1399.87
         C          3.314            2.750     48.30   1396.82
         C          3.308            2.750     48.42   1400.26
         C          3.308            2.750     48.42   1400.29
         C          3.308            2.750     48.42   1400.26
         C          3.308            2.750     48.42   1400.30
         C          3.308            2.750     48.42   1400.28
         C          3.310            2.750     48.37   1399.05
         C          3.323            2.750     48.11   1391.43
         C          3.400            2.750     46.21   1336.54
         C          3.326            2.750     48.03   1389.12
         C          3.360            2.750     47.25   1366.47
         C          3.339            2.750     47.74   1380.71
         C          3.317            2.750     48.23   1395.03
         C          3.308            2.750     48.42   1400.26
         C          3.308            2.750     48.42   1400.30
         C          3.308            2.750     48.42   1400.29
         C          3.309            2.750     48.39   1399.61
         C          3.322            2.750     48.11   1391.47
         C          3.400            2.750     46.22   1336.74
         C          3.252            2.750     49.38   1428.01
         C          3.285            2.750     48.85   1412.72
         C          3.315            2.750     48.28   1396.20
         C          3.333            2.750     47.88   1384.63
         C          3.310            2.750     48.37   1398.86
         C          3.308            2.750     48.41   1400.10
         C          3.308            2.750     48.42   1400.31
         C          3.308            2.750     48.41   1400.15
         C          3.311            2.750     48.34   1398.19
         C          3.326            2.750     48.03   1389.22
         C          3.360            2.750     47.25   1366.57
         C          3.284            2.750     48.85   1412.87
         C          3.315            2.750     48.28   1396.21
         C          3.299            2.750     48.59   1405.29
         C          3.311            2.750     48.36   1398.59
         C          3.308            2.750     48.41   1400.10
         C          3.308            2.750     48.42   1400.31
         C          3.308            2.750     48.42   1400.31
         C          3.308            2.750     48.42   1400.30
         C          3.308            2.750     48.40   1399.88
         C          3.313            2.750     48.30   1396.91
         C          3.339            2.750     47.74   1380.79
         C          3.316            2.750     48.24   1395.13
         C          3.333            2.750     47.88   1384.73
         C          3.310            2.750     48.37   1398.91

         Molecular C6 ( Ry / a.u.^6 ) =    131984.20

     Subspace diagonalization in iterative solution of the eigenvalue problem:
     a serial algorithm will be used

     bravais-lattice index     =            4
     lattice parameter (alat)  =      23.2937  a.u.
     unit-cell volume          =    8879.8548 (a.u.)^3
     number of atoms/cell      =           52
     number of atomic types    =            4
     number of electrons       =       209.00
     number of Kohn-Sham states=          126
     kinetic-energy cutoff     =      70.0000  Ry
     charge density cutoff     =     490.0000  Ry
     convergence threshold     =      1.0E-06
     mixing beta               =       0.3000
     number of iterations used =            8  plain     mixing
     Exchange-correlation      = PBE ( 1  4  3  4 0 0)
     nstep                     =           50

     celldm(1)=  23.293684  celldm(2)=   0.000000  celldm(3)=   0.811261
     celldm(4)=   0.000000  celldm(5)=   0.000000  celldm(6)=   0.000000

     crystal axes: (cart. coord. in units of alat)
               a(1) = (   1.000000   0.000000   0.000000 )
               a(2) = (  -0.500000   0.866025   0.000000 )
               a(3) = (   0.000000   0.000000   0.811261 )

     reciprocal axes: (cart. coord. in units 2 pi/alat)
               b(1) = (  1.000000  0.577350 -0.000000 )
               b(2) = (  0.000000  1.154701  0.000000 )
               b(3) = (  0.000000 -0.000000  1.232649 )

     PseudoPot. # 1 for H  read from file:
     /home/cristian/Escritorio/Proyecto_Grafeno/pseudopotenciales/H.pbe-rrkjus.UPF
     MD5 check sum: 7cc9d459525c9a0585f487a71c3c9563
     Pseudo is Ultrasoft, Zval =  1.0
     Generated by new atomic code, or converted to UPF format
     Using radial grid of 1061 points,  2 beta functions with:
                l(1) =   0
                l(2) =   0
     Q(r) pseudized with 0 coefficients

     PseudoPot. # 2 for H  read from file:
     /home/cristian/Escritorio/Proyecto_Grafeno/pseudopotenciales/H.pbe-rrkjus.UPF
     MD5 check sum: 7cc9d459525c9a0585f487a71c3c9563
     Pseudo is Ultrasoft, Zval =  1.0
     Generated by new atomic code, or converted to UPF format
     Using radial grid of 1061 points,  2 beta functions with:
                l(1) =   0
                l(2) =   0
     Q(r) pseudized with 0 coefficients

     PseudoPot. # 3 for Cu read from file:
     /home/cristian/Escritorio/Proyecto_Grafeno/pseudopotenciales/Cu.pbe-dn-rrkjus_psl.1.0.0.UPF
     MD5 check sum: ba3d6c84e19846e79d48cdc68ff7152b
     Pseudo is Ultrasoft + core correction, Zval = 11.0
     Generated using "atomic" code by A. Dal Corso v.6.3
     Using radial grid of 1199 points,  6 beta functions with:
                l(1) =   0
                l(2) =   0
                l(3) =   1
                l(4) =   1
                l(5) =   2
                l(6) =   2
     Q(r) pseudized with 0 coefficients

     PseudoPot. # 4 for C  read from file:
     /home/cristian/Escritorio/Proyecto_Grafeno/pseudopotenciales/C.pbe-n-rrkjus_psl.1.0.0.UPF
     MD5 check sum: 1fdd950c42eb37d8afe3dd2f8d12311e
     Pseudo is Ultrasoft + core correction, Zval =  4.0
     Generated using "atomic" code by A. Dal Corso v.6.3MaX
     Using radial grid of 1073 points,  4 beta functions with:
                l(1) =   0
                l(2) =   0
                l(3) =   1
                l(4) =   1
     Q(r) pseudized with 0 coefficients

     atomic species   valence    mass     pseudopotential
        H1             1.00     1.00794     H ( 1.00)
        H2             1.00     1.00794     H ( 1.00)
        Cu            11.00    63.54600     Cu( 1.00)
        C              4.00    12.01070     C ( 1.00)

     No symmetry found

   Cartesian axes

     site n.     atom                  positions (alat units)
         1           H1  tau(   1) = (   0.2000074   0.4661580   0.2080692  )
         2           H2  tau(   2) = (   0.2000126   0.5270645   0.2134435  )
         3           Cu  tau(   3) = (   0.1999777   0.4483134  -0.0937399  )
         4           C   tau(   4) = (   0.0000000   0.0000000   0.0000000  )
         5           C   tau(   5) = (   0.0000000   0.1154701   0.0000000  )
         6           C   tau(   6) = (  -0.1000000   0.1732051   0.0000000  )
         7           C   tau(   7) = (  -0.1000000   0.2886751   0.0000000  )
         8           C   tau(   8) = (  -0.2000000   0.3464102   0.0000000  )
         9           C   tau(   9) = (  -0.2000000   0.4618802   0.0000000  )
        10           C   tau(  10) = (  -0.3000000   0.5196152   0.0000000  )
        11           C   tau(  11) = (  -0.3000000   0.6350853   0.0000000  )
        12           C   tau(  12) = (  -0.4000000   0.6928203   0.0000000  )
        13           C   tau(  13) = (  -0.4000000   0.8082904   0.0000000  )
        14           C   tau(  14) = (   0.2000000   0.0000000   0.0000000  )
        15           C   tau(  15) = (   0.2000000   0.1154701   0.0000000  )
        16           C   tau(  16) = (   0.1000000   0.1732051   0.0000000  )
        17           C   tau(  17) = (   0.0995308   0.2883994   0.0070736  )
        18           C   tau(  18) = (   0.0000000   0.3464102   0.0000000  )
        19           C   tau(  19) = (  -0.0019174   0.4620273  -0.0037735  )
        20           C   tau(  20) = (  -0.1000000   0.5196152   0.0000000  )
        21           C   tau(  21) = (  -0.1000000   0.6350853   0.0000000  )
        22           C   tau(  22) = (  -0.2000000   0.6928203   0.0000000  )
        23           C   tau(  23) = (  -0.2000000   0.8082904   0.0000000  )
        24           C   tau(  24) = (   0.4000000   0.0000000   0.0000000  )
        25           C   tau(  25) = (   0.4000000   0.1154701   0.0000000  )
        26           C   tau(  26) = (   0.3000000   0.1732051   0.0000000  )
        27           C   tau(  27) = (   0.3004602   0.2883841   0.0070828  )
        28           C   tau(  28) = (   0.1999849   0.3409122   0.0166227  )
        29           C   tau(  29) = (   0.0908731   0.5235876  -0.0207356  )
        30           C   tau(  30) = (   0.0996765   0.6358446  -0.0030186  )
        31           C   tau(  31) = (   0.0000000   0.6928203   0.0000000  )
        32           C   tau(  32) = (   0.0000000   0.8082904   0.0000000  )
        33           C   tau(  33) = (   0.6000000   0.0000000   0.0000000  )
        34           C   tau(  34) = (   0.6000000   0.1154701   0.0000000  )
        35           C   tau(  35) = (   0.5000000   0.1732051   0.0000000  )
        36           C   tau(  36) = (   0.5000000   0.2886751   0.0000000  )
[...]
C       -3.697946025   7.828370488   0.000000000    0   0   0
C       -4.930594700   8.540040532   0.000000000    0   0   0
C       -4.930594700   9.963380621   0.000000000    0   0   0
C        2.465297350   0.000000000   0.000000000    0   0   0
C        2.465297350   1.423340089   0.000000000    0   0   0
C        1.232648675   2.135010133   0.000000000    0   0   0
C        1.228859063   3.560850884   0.082013906
C        0.000000000   4.270020266   0.000000000    0   0   0
C       -0.020823578   5.691858698  -0.049639338
C       -1.232648675   6.405030399   0.000000000    0   0   0
C       -1.232648675   7.828370488   0.000000000    0   0   0
C       -2.465297350   8.540040532   0.000000000    0   0   0
C       -2.465297350   9.963380621   0.000000000    0   0   0
C        4.930594700   0.000000000   0.000000000    0   0   0
C        4.930594700   1.423340089   0.000000000    0   0   0
C        3.697946025   2.135010133   0.000000000    0   0   0
C        3.701610037   3.560923494   0.082124582
C        2.465306060   4.207218714   0.197518755
C        1.117671381   6.449060567  -0.260234690
C        1.231101557   7.830643716  -0.040943065
C        0.000000000   8.540040532   0.000000000    0   0   0
C        0.000000000   9.963380621   0.000000000    0   0   0
C        7.395892050   0.000000000   0.000000000    0   0   0
C        7.395892050   1.423340089   0.000000000    0   0   0
C        6.163243375   2.135010133   0.000000000    0   0   0
C        6.163243375   3.558350222   0.000000000    0   0   0
C        4.930594700   4.270020266   0.000000000    0   0   0
C        4.951525945   5.691789192  -0.050232473
C        3.812715594   6.449235247  -0.262147648
C        3.699509484   7.830569431  -0.041752306
C        2.465297350   8.540040532   0.000000000    0   0   0
C        2.465297350   9.963380621   0.000000000    0   0   0
C        9.861189400   0.000000000   0.000000000    0   0   0
C        9.861189400   1.423340089   0.000000000    0   0   0
C        8.628540725   2.135010133   0.000000000    0   0   0
C        8.628540725   3.558350222   0.000000000    0   0   0
C        7.395892050   4.270020266   0.000000000    0   0   0
C        7.395892050   5.693360355   0.000000000    0   0   0
C        6.163243375   6.405030399   0.000000000    0   0   0
C        6.163243375   7.828370488   0.000000000    0   0   0
C        4.930594700   8.540040532   0.000000000    0   0   0
C        4.930594700   9.963380621   0.000000000    0   0   0

     Writing output data file gr-12.save/
     NEW-OLD atomic charge density approx. for the potential

[...]

     energy   old            =    -733.6568208411 Ry
     energy   new            =    -733.6581632071 Ry

     CASE: energy  _new < energy  _old

[...]

     Threshold (ethr) on eigenvalues was too large:
     Diagonalizing with lowered threshold

     Davidson diagonalization with overlap
     ethr =  8.11E-08,  avg # of iterations =  1.0

[...]

     CASE: energy  _new > energy  _old

[...]

     number of scf cycles    =  37
     number of bfgs steps    =  35

     energy   old            =    -733.6668827786 Ry
     energy   new            =    -733.6668943434 Ry

     CASE: energy  _new < energy  _old

     new trust radius        =       0.0062732487 bohr
     new conv_thr            =       0.0000000100 Ry

ATOMIC_POSITIONS (angstrom)
H1       2.465450496   5.965716526   2.344124360
H2       2.465543335   6.416671912   2.949695165
Cu       2.465876974   5.605939440  -1.308311960
C        0.000000000   0.000000000   0.000000000    0   0   0
C        0.000000000   1.423340089   0.000000000    0   0   0
C       -1.232648675   2.135010133   0.000000000    0   0   0
C       -1.232648675   3.558350222   0.000000000    0   0   0
C       -2.465297350   4.270020266   0.000000000    0   0   0
C       -2.465297350   5.693360355   0.000000000    0   0   0
C       -3.697946025   6.405030399   0.000000000    0   0   0
C       -3.697946025   7.828370488   0.000000000    0   0   0
C       -4.930594700   8.540040532   0.000000000    0   0   0
C       -4.930594700   9.963380621   0.000000000    0   0   0
C        2.465297350   0.000000000   0.000000000    0   0   0
C        2.465297350   1.423340089   0.000000000    0   0   0
C        1.232648675   2.135010133   0.000000000    0   0   0
C        1.231591611   3.566721398  -0.000363308
C        0.000000000   4.270020266   0.000000000    0   0   0
C       -0.025960639   5.688362509  -0.090260514
C       -1.232648675   6.405030399   0.000000000    0   0   0
C       -1.232648675   7.828370488   0.000000000    0   0   0
C       -2.465297350   8.540040532   0.000000000    0   0   0
C       -2.465297350   9.963380621   0.000000000    0   0   0
C        4.930594700   0.000000000   0.000000000    0   0   0
C        4.930594700   1.423340089   0.000000000    0   0   0
C        3.697946025   2.135010133   0.000000000    0   0   0
C        3.699034482   3.566695929  -0.000330781
C        2.465309687   4.226865722  -0.009499228
C        1.104799851   6.448387986  -0.358151689
C        1.229530693   7.827697707  -0.084144370
C        0.000000000   8.540040532   0.000000000    0   0   0
C        0.000000000   9.963380621   0.000000000    0   0   0
C        7.395892050   0.000000000   0.000000000    0   0   0
C        7.395892050   1.423340089   0.000000000    0   0   0
C        6.163243375   2.135010133   0.000000000    0   0   0
C        6.163243375   3.558350222   0.000000000    0   0   0
C        4.930594700   4.270020266   0.000000000    0   0   0
C        4.956648479   5.688362173  -0.089873617
C        3.826089449   6.448484240  -0.357423967
C        3.701107370   7.827815730  -0.083987936
C        2.465297350   8.540040532   0.000000000    0   0   0
C        2.465297350   9.963380621   0.000000000    0   0   0
C        9.861189400   0.000000000   0.000000000    0   0   0
C        9.861189400   1.423340089   0.000000000    0   0   0
C        8.628540725   2.135010133   0.000000000    0   0   0
C        8.628540725   3.558350222   0.000000000    0   0   0
C        7.395892050   4.270020266   0.000000000    0   0   0
C        7.395892050   5.693360355   0.000000000    0   0   0
C        6.163243375   6.405030399   0.000000000    0   0   0
C        6.163243375   7.828370488   0.000000000    0   0   0
C        4.930594700   8.540040532   0.000000000    0   0   0
C        4.930594700   9.963380621   0.000000000    0   0   0

     Writing output data file gr-12.save/
     NEW-OLD atomic charge density approx. for the potential

     Check: negative core charge=   -0.000002

[...]

     Self-consistent Calculation

[...]

     Threshold (ethr) on eigenvalues was too large:
     Diagonalizing with lowered threshold

     Davidson diagonalization with overlap
     ethr =  9.17E-09,  avg # of iterations =  2.5

[...]

     total energy              =    -733.66691952 Ry
     Harris-Foulkes estimate   =    -733.66691953 Ry
     estimated scf accuracy    <       0.00000005 Ry

     iteration #  7     ecut=    70.00 Ry     beta= 0.30
     Davidson diagonalization with overlap
     ethr =  2.32E-11,  avg # of iterations =  1.8

[...]

     End of self-consistent calculation

[...]

          k = 0.5000-0.2887 0.0000 ( 87818 PWs)   bands (ev):

[...]

          k =-0.5000-0.2887 0.0000 ( 87818 PWs)   bands (ev):

   -19.6144 -19.5226 -19.1619 -19.0174 -18.2672 -18.2278 -18.1935 -17.9841
   -17.7477 -17.5291 -16.8679 -16.8256 -16.7957 -16.4630 -15.5504 -15.5296
   -15.4083 -15.3471 -15.1660 -15.0691 -15.0457 -14.7110 -14.2742 -13.8576
   -13.6560 -13.2069 -12.7444 -12.7108 -12.4930 -12.4232 -12.1344 -11.7341
   -11.3199 -11.3027 -11.1100 -10.7824 -10.5106 -10.4179 -10.3294 -10.1426
   -10.1369  -9.5457  -9.0713  -8.9229  -8.8968  -8.8254  -8.6340  -8.3600
    -7.9608  -7.8579  -7.7347  -7.6636  -7.6282  -7.5117  -7.4760  -7.3294
    -7.2647  -7.1550  -7.1022  -7.0717  -7.0018  -6.9432  -6.7071  -6.6573
    -6.3669  -6.2719  -6.2271  -6.1165  -6.1033  -6.0521  -6.0105  -5.9877
    -5.9340  -5.8006  -5.7814  -5.7246  -5.5621  -5.5164  -5.3573  -5.0940
    -5.0485  -4.8679  -4.6859  -4.6128  -4.4571  -4.4465  -4.4203  -4.2735
    -4.2350  -4.1580  -4.0949  -3.7842  -3.5894  -3.0446  -2.9932  -2.9694
    -2.8911  -2.8203  -2.8101  -2.7121  -2.6351  -1.7865  -1.3419  -0.9226
    -0.2785  -0.0367   0.7130   0.8408   1.3636   1.5641   1.7102   1.7367
     1.7740   2.1174   2.3179   2.3853   2.4389   3.0314   3.2693   3.4138
     3.5784   3.9223   3.9998   4.0195   4.0732   4.5778

     the Fermi energy is    -0.2663 ev

!    total energy              =    -733.66691953 Ry
     Harris-Foulkes estimate   =    -733.66691953 Ry
     estimated scf accuracy    <          9.9E-09 Ry

     The total energy is the sum of the following terms:

     one-electron contribution =   -2403.48440899 Ry
     hartree contribution      =    1259.60305350 Ry
     xc contribution           =    -273.05236541 Ry
     ewald contribution        =     683.41101817 Ry
     DFT-D3 Dispersion         =      -0.14427126 Ry
     smearing contrib. (-TS)   =       0.00005447 Ry

     convergence has been achieved in   7 iterations

     negative rho (up, down):  5.592E-04 0.000E+00

     Forces acting on atoms (cartesian axes, Ry/au):

     atom    1 type  1   force =     0.00000240    0.00015843   -0.00018609
     atom    2 type  2   force =     0.00000103   -0.00038241   -0.00011196
     atom    3 type  3   force =    -0.00023381   -0.00065013    0.00081732
     atom    4 type  4   force =     0.00203635   -0.00114865    0.00109381
     atom    5 type  4   force =    -0.00101060    0.00319505   -0.00025746
     atom    6 type  4   force =    -0.00336924   -0.00362895    0.00186266
     atom    7 type  4   force =     0.01057761    0.00297688    0.00630176
     atom    8 type  4   force =    -0.00429153    0.00238232   -0.00208469
     atom    9 type  4   force =    -0.00566943   -0.00279442    0.00686708
     atom   10 type  4   force =     0.00000170    0.00123112    0.00209593
     atom   11 type  4   force =     0.00000231    0.00042688    0.00049470
     atom   12 type  4   force =    -0.00063859   -0.00238848    0.00153533
     atom   13 type  4   force =     0.00056865    0.00153475    0.00009288
     atom   14 type  4   force =     0.00000561   -0.00472488   -0.00033236
     atom   15 type  4   force =     0.00000024    0.00841943    0.00042857
     atom   16 type  4   force =    -0.00100050   -0.00889658    0.00189592
     atom   17 type  4   force =    -0.00014463    0.00006581   -0.00040921
     atom   18 type  4   force =    -0.03596653   -0.00710280   -0.01212027
     atom   19 type  4   force =     0.00046404    0.00018126    0.00047279
     atom   20 type  4   force =    -0.03987268    0.00570596    0.00141950
     atom   21 type  4   force =    -0.00088029    0.00246825   -0.00319053
     atom   22 type  4   force =     0.00064443   -0.00239176    0.00154018
     atom   23 type  4   force =    -0.00056967    0.00153762    0.00009326
     atom   24 type  4   force =    -0.00203361   -0.00115196    0.00109751
     atom   25 type  4   force =     0.00101686    0.00318677   -0.00025819
     atom   26 type  4   force =     0.00102276   -0.00892964    0.00189613
     atom   27 type  4   force =     0.00009164    0.00009510   -0.00043313
     atom   28 type  4   force =     0.00002406    0.00003769   -0.00067780
     atom   29 type  4   force =     0.00010528    0.00027899   -0.00007810
     atom   30 type  4   force =     0.00015944    0.00009617    0.00027022
     atom   31 type  4   force =    -0.01156386    0.00821156    0.00023658
     atom   32 type  4   force =     0.00325070    0.00276701    0.00656208
     atom   33 type  4   force =    -0.00224492    0.00122691   -0.00030426
     atom   34 type  4   force =    -0.00095591    0.00122854   -0.00088061
     atom   35 type  4   force =     0.00337387   -0.00363746    0.00185502
     atom   36 type  4   force =    -0.01058775    0.00297848    0.00628501
     atom   37 type  4   force =     0.03604716   -0.00718217   -0.01202222
     atom   38 type  4   force =    -0.00041051    0.00013240    0.00044880
     atom   39 type  4   force =    -0.00036150    0.00031258   -0.00011355
     atom   40 type  4   force =    -0.00016231   -0.00000544    0.00031313
     atom   41 type  4   force =    -0.00002284   -0.00841930   -0.03178767
     atom   42 type  4   force =    -0.00000726   -0.00895723    0.01122666
     atom   43 type  4   force =     0.00224847    0.00122329   -0.00029577
     atom   44 type  4   force =     0.00095527    0.00122900   -0.00088012
     atom   45 type  4   force =     0.00000234    0.00078030    0.00050040
     atom   46 type  4   force =     0.00000180   -0.00061594   -0.00116851
     atom   47 type  4   force =     0.00430190    0.00238856   -0.00207727
     atom   48 type  4   force =     0.00570431   -0.00278907    0.00684401
     atom   49 type  4   force =     0.04007006    0.00573308    0.00149789
     atom   50 type  4   force =     0.00088252    0.00246621   -0.00318607
     atom   51 type  4   force =     0.01166349    0.00835462    0.00025820
     atom   52 type  4   force =    -0.00322832    0.00278623    0.00655254

     Total force =     0.001911     Total SCF correction =     0.000187

     bfgs converged in  38 scf cycles and  36 bfgs steps
     (criteria: energy <  1.0E-04 Ry, force <  1.0E-03 Ry/Bohr)

     End of BFGS Geometry Optimization

     Final energy   =    -733.6669195295 Ry
Begin final coordinates

ATOMIC_POSITIONS (angstrom)
H1       2.465450496   5.965716526   2.344124360
H2       2.465543335   6.416671912   2.949695165
Cu       2.465876974   5.605939440  -1.308311960
C        0.000000000   0.000000000   0.000000000    0   0   0
C        0.000000000   1.423340089   0.000000000    0   0   0
C       -1.232648675   2.135010133   0.000000000    0   0   0
C       -1.232648675   3.558350222   0.000000000    0   0   0
C       -2.465297350   4.270020266   0.000000000    0   0   0
C       -2.465297350   5.693360355   0.000000000    0   0   0
C       -3.697946025   6.405030399   0.000000000    0   0   0
C       -3.697946025   7.828370488   0.000000000    0   0   0
C       -4.930594700   8.540040532   0.000000000    0   0   0
C       -4.930594700   9.963380621   0.000000000    0   0   0
C        2.465297350   0.000000000   0.000000000    0   0   0
C        2.465297350   1.423340089   0.000000000    0   0   0
C        1.232648675   2.135010133   0.000000000    0   0   0
C        1.231591611   3.566721398  -0.000363308
C        0.000000000   4.270020266   0.000000000    0   0   0
C       -0.025960639   5.688362509  -0.090260514
C       -1.232648675   6.405030399   0.000000000    0   0   0
C       -1.232648675   7.828370488   0.000000000    0   0   0
C       -2.465297350   8.540040532   0.000000000    0   0   0
C       -2.465297350   9.963380621   0.000000000    0   0   0
C        4.930594700   0.000000000   0.000000000    0   0   0
C        4.930594700   1.423340089   0.000000000    0   0   0
C        3.697946025   2.135010133   0.000000000    0   0   0
C        3.699034482   3.566695929  -0.000330781
C        2.465309687   4.226865722  -0.009499228
C        1.104799851   6.448387986  -0.358151689
C        1.229530693   7.827697707  -0.084144370
C        0.000000000   8.540040532   0.000000000    0   0   0
C        0.000000000   9.963380621   0.000000000    0   0   0
C        7.395892050   0.000000000   0.000000000    0   0   0
C        7.395892050   1.423340089   0.000000000    0   0   0
C        6.163243375   2.135010133   0.000000000    0   0   0
C        6.163243375   3.558350222   0.000000000    0   0   0
C        4.930594700   4.270020266   0.000000000    0   0   0
C        4.956648479   5.688362173  -0.089873617
C        3.826089449   6.448484240  -0.357423967
C        3.701107370   7.827815730  -0.083987936
C        2.465297350   8.540040532   0.000000000    0   0   0
C        2.465297350   9.963380621   0.000000000    0   0   0
C        9.861189400   0.000000000   0.000000000    0   0   0
C        9.861189400   1.423340089   0.000000000    0   0   0
C        8.628540725   2.135010133   0.000000000    0   0   0
C        8.628540725   3.558350222   0.000000000    0   0   0
C        7.395892050   4.270020266   0.000000000    0   0   0
C        7.395892050   5.693360355   0.000000000    0   0   0
C        6.163243375   6.405030399   0.000000000    0   0   0
C        6.163243375   7.828370488   0.000000000    0   0   0
C        4.930594700   8.540040532   0.000000000    0   0   0
C        4.930594700   9.963380621   0.000000000    0   0   0
End final coordinates

     Writing output data file gr-12.save/

     General routines

     Parallel routines

   This run was terminated on:  10:32:19  14May2022

   JOB DONE.