     Program PWSCF v.6.4.1 starts on 20May2022 at 23:21:21

     R & G space division:  proc/nbgrp/npool/nimage =       6
     Reading input from gr-mn.in

     Current dimensions of program PWSCF are:
     Max number of different atomic species (ntypx) = 10
     Max number of k-points (npk) =  40000
     Max angular momentum in pseudopotentials (lmaxx) =  3
               file H.pbe-rrkjus.UPF: wavefunction(s)  1S renormalized
               file H.pbe-rrkjus.UPF: wavefunction(s)  1S renormalized
               file Mn.pbe-spn-rrkjus_psl.0.3.1.UPF: wavefunction(s)  3D renormalized

     Parameters for DFT-D3 Dispersion Correction:
       Reference C6 values for interpolation:

         atom   Coordination number   C6
         H1         0.912             6.05
         H1         0.000            15.18
         H2         0.912             6.05
         H2         0.000            15.18
         C          0.000            98.23
         C          0.987            86.49
         C          1.998            58.72
         C          2.999            51.56
         C          3.984            36.41
         Mn         0.000          1605.50
         Mn         1.641           479.11
         Mn         9.885           227.69

       Values used:

         atom   Coordination number  R0_AB[au]  C6      C8
         H1         0.975            2.062      6.21     75.03
         H2         0.938            2.062      6.25     75.58
         Mn         6.030            3.351    227.69  23017.67
         C          3.308            2.750     48.42   1400.28
         C          3.308            2.750     48.41   1400.19
         C          3.308            2.750     48.41   1400.23
         C          3.308            2.750     48.40   1399.86
         C          3.308            2.750     48.41   1400.23
         C          3.308            2.750     48.41   1400.19
         C          3.308            2.750     48.42   1400.28
         C          3.308            2.750     48.42   1400.29
         C          3.308            2.750     48.42   1400.28
         C          3.308            2.750     48.42   1400.29
         C          3.308            2.750     48.42   1400.28
         C          3.308            2.750     48.40   1399.86
         C          3.310            2.750     48.36   1398.69
         C          3.699            2.750     38.64   1117.47
         C          3.385            2.750     46.61   1347.99
         C          3.699            2.750     38.64   1117.44
         C          3.310            2.750     48.36   1398.68
         C          3.308            2.750     48.40   1399.86
         C          3.308            2.750     48.42   1400.28
         C          3.308            2.750     48.42   1400.29
         C          3.308            2.750     48.42   1400.28
         C          3.308            2.750     48.41   1400.19
         C          3.310            2.750     48.36   1398.69
         C          3.699            2.750     38.64   1117.47
         C          3.310            2.750     48.37   1398.96
         C          3.311            2.750     48.36   1398.51
         C          3.699            2.750     38.63   1117.35
         C          3.310            2.750     48.36   1398.67
         C          3.308            2.750     48.41   1400.19
         C          3.308            2.750     48.41   1400.23
         C          3.308            2.750     48.42   1400.29
         C          3.308            2.750     48.41   1400.23
         C          3.308            2.750     48.40   1399.86
         C          3.385            2.750     46.61   1347.99
         C          3.699            2.750     38.64   1117.44
         C          3.311            2.750     48.36   1398.51
         C          3.699            2.750     38.63   1117.35
         C          3.385            2.750     46.60   1347.86
         C          3.308            2.750     48.40   1399.85
         C          3.308            2.750     48.41   1400.23
         C          3.308            2.750     48.42   1400.29
         C          3.308            2.750     48.42   1400.30
         C          3.308            2.750     48.42   1400.30
         C          3.308            2.750     48.41   1400.23
         C          3.308            2.750     48.41   1400.19
         C          3.310            2.750     48.36   1398.68
         C          3.308            2.750     48.40   1399.86
         C          3.310            2.750     48.36   1398.67
         C          3.308            2.750     48.41   1400.19

         Molecular C6 ( Ry / a.u.^6 ) =    126732.55

     Subspace diagonalization in iterative solution of the eigenvalue problem:
     a serial algorithm will be used

     bravais-lattice index     =            4
     lattice parameter (alat)  =      23.2937  a.u.
     unit-cell volume          =    8879.8548 (a.u.)^3
     number of atoms/cell      =           52
     number of atomic types    =            4
     number of electrons       =       213.00
     number of Kohn-Sham states=          128
     kinetic-energy cutoff     =      70.0000  Ry
     charge density cutoff     =     490.0000  Ry
     convergence threshold     =      1.0E-06
     mixing beta               =       0.3000
     number of iterations used =            8  plain     mixing
     Exchange-correlation      = PBE ( 1  4  3  4 0 0)
     nstep                     =           50

     celldm(1)=  23.293684  celldm(2)=   0.000000  celldm(3)=   0.811261
     celldm(4)=   0.000000  celldm(5)=   0.000000  celldm(6)=   0.000000

     crystal axes: (cart. coord. in units of alat)
               a(1) = (   1.000000   0.000000   0.000000 )
               a(2) = (  -0.500000   0.866025   0.000000 )
               a(3) = (   0.000000   0.000000   0.811261 )

     reciprocal axes: (cart. coord. in units 2 pi/alat)
               b(1) = (  1.000000  0.577350 -0.000000 )
               b(2) = (  0.000000  1.154701  0.000000 )
               b(3) = (  0.000000 -0.000000  1.232649 )

     PseudoPot. # 1 for H  read from file:
     /home/cristian/Escritorio/Proyecto_Grafeno/pseudopotenciales/H.pbe-rrkjus.UPF
     MD5 check sum: 7cc9d459525c9a0585f487a71c3c9563
     Pseudo is Ultrasoft, Zval =  1.0
     Generated by new atomic code, or converted to UPF format
     Using radial grid of 1061 points,  2 beta functions with:
                l(1) =   0
                l(2) =   0
     Q(r) pseudized with 0 coefficients

     PseudoPot. # 2 for H  read from file:
     /home/cristian/Escritorio/Proyecto_Grafeno/pseudopotenciales/H.pbe-rrkjus.UPF
     MD5 check sum: 7cc9d459525c9a0585f487a71c3c9563
     Pseudo is Ultrasoft, Zval =  1.0
     Generated by new atomic code, or converted to UPF format
     Using radial grid of 1061 points,  2 beta functions with:
                l(1) =   0
                l(2) =   0
     Q(r) pseudized with 0 coefficients

     PseudoPot. # 3 for Mn read from file:
     /home/cristian/Escritorio/Proyecto_Grafeno/pseudopotenciales/Mn.pbe-spn-rrkjus_psl.0.3.1.UPF
     MD5 check sum: e1cac159bdd2ba70c18e85765a5d4279
     Pseudo is Ultrasoft + core correction, Zval = 15.0
     Generated using "atomic" code by A. Dal Corso v.6.2.2
     Using radial grid of 1187 points,  6 beta functions with:
                l(1) =   0
                l(2) =   0
                l(3) =   1
                l(4) =   1
                l(5) =   2
                l(6) =   2
     Q(r) pseudized with 0 coefficients

     PseudoPot. # 4 for C  read from file:
     /home/cristian/Escritorio/Proyecto_Grafeno/pseudopotenciales/C.pbe-n-rrkjus_psl.1.0.0.UPF
     MD5 check sum: 1fdd950c42eb37d8afe3dd2f8d12311e
     Pseudo is Ultrasoft + core correction, Zval =  4.0
     Generated using "atomic" code by A. Dal Corso v.6.3MaX
     Using radial grid of 1073 points,  4 beta functions with:
                l(1) =   0
                l(2) =   0
                l(3) =   1
                l(4) =   1
     Q(r) pseudized with 0 coefficients

     atomic species   valence    mass     pseudopotential
        H1             1.00     1.00794     H ( 1.00)
        H2             1.00     1.00794     H ( 1.00)
        Mn            15.00    54.93804     Mn( 1.00)
        C              4.00    12.01070     C ( 1.00)

     No symmetry found

   Cartesian axes

     site n.     atom                  positions (alat units)
         1           H1  tau(   1) = (   0.2000000   0.4617962   0.1784775  )
         2           H2  tau(   2) = (   0.2000000   0.5228088   0.1784775  )
         3           Mn  tau(   3) = (   0.2000000   0.4618802   0.0000000  )
         4           C   tau(   4) = (   0.0000000   0.0000000   0.0000000  )
         5           C   tau(   5) = (   0.0000000   0.1154701   0.0000000  )
         6           C   tau(   6) = (  -0.1000000   0.1732051   0.0000000  )
         7           C   tau(   7) = (  -0.1000000   0.2886751   0.0000000  )
         8           C   tau(   8) = (  -0.2000000   0.3464102   0.0000000  )
         9           C   tau(   9) = (  -0.2000000   0.4618802   0.0000000  )
        10           C   tau(  10) = (  -0.3000000   0.5196152   0.0000000  )
        11           C   tau(  11) = (  -0.3000000   0.6350853   0.0000000  )
        12           C   tau(  12) = (  -0.4000000   0.6928203   0.0000000  )
        13           C   tau(  13) = (  -0.4000000   0.8082904   0.0000000  )
        14           C   tau(  14) = (   0.2000000   0.0000000   0.0000000  )
        15           C   tau(  15) = (   0.2000000   0.1154701   0.0000000  )
        16           C   tau(  16) = (   0.1000000   0.1732051   0.0000000  )
        17           C   tau(  17) = (   0.1000000   0.2886751   0.0000000  )
        18           C   tau(  18) = (   0.0000000   0.3464102   0.0000000  )
        19           C   tau(  19) = (   0.0000000   0.4618802   0.0000000  )
        20           C   tau(  20) = (  -0.1000000   0.5196152   0.0000000  )
        21           C   tau(  21) = (  -0.1000000   0.6350853   0.0000000  )
        22           C   tau(  22) = (  -0.2000000   0.6928203   0.0000000  )
        23           C   tau(  23) = (  -0.2000000   0.8082904   0.0000000  )
        24           C   tau(  24) = (   0.4000000   0.0000000   0.0000000  )
        25           C   tau(  25) = (   0.4000000   0.1154701   0.0000000  )
        26           C   tau(  26) = (   0.3000000   0.1732051   0.0000000  )
        27           C   tau(  27) = (   0.3000000   0.2886751   0.0000000  )
        28           C   tau(  28) = (   0.2000000   0.3464102   0.0000000  )
        29           C   tau(  29) = (   0.1000000   0.5196152   0.0000000  )
        30           C   tau(  30) = (   0.1000000   0.6350853   0.0000000  )
        31           C   tau(  31) = (   0.0000000   0.6928203   0.0000000  )
        32           C   tau(  32) = (   0.0000000   0.8082904   0.0000000  )
        33           C   tau(  33) = (   0.6000000   0.0000000   0.0000000  )
        34           C   tau(  34) = (   0.6000000   0.1154701   0.0000000  )
        35           C   tau(  35) = (   0.5000000   0.1732051   0.0000000  )
[...]
C        1.232648675   2.135010133   0.000000000    0   0   0
C        1.217497143   3.547805354   0.000977022
C        0.000000000   4.270020266   0.000000000    0   0   0
C       -0.015938624   5.683818959   0.002034263
C       -1.232648675   6.405030399   0.000000000    0   0   0
C       -1.232648675   7.828370488   0.000000000    0   0   0
C       -2.465297350   8.540040532   0.000000000    0   0   0
C       -2.465297350   9.963380621   0.000000000    0   0   0
C        4.930594700   0.000000000   0.000000000    0   0   0
C        4.930594700   1.423340089   0.000000000    0   0   0
C        3.697946025   2.135010133   0.000000000    0   0   0
C        3.713098736   3.547795826   0.000975745
C        2.465281909   4.005842491  -0.014738806
C        1.004651125   6.536661205  -0.022462628
C        1.231128795   7.847037130   0.001344899
C        0.000000000   8.540040532   0.000000000    0   0   0
C        0.000000000   9.963380621   0.000000000    0   0   0
C        7.395892050   0.000000000   0.000000000    0   0   0
C        7.395892050   1.423340089   0.000000000    0   0   0
C        6.163243375   2.135010133   0.000000000    0   0   0
C        6.163243375   3.558350222   0.000000000    0   0   0
C        4.930594700   4.270020266   0.000000000    0   0   0
C        4.946546968   5.683812847   0.002034677
C        3.925924386   6.536667824  -0.022465532
C        3.699461191   7.847043402   0.001345227
C        2.465297350   8.540040532   0.000000000    0   0   0
C        2.465297350   9.963380621   0.000000000    0   0   0
C        9.861189400   0.000000000   0.000000000    0   0   0
C        9.861189400   1.423340089   0.000000000    0   0   0
C        8.628540725   2.135010133   0.000000000    0   0   0
C        8.628540725   3.558350222   0.000000000    0   0   0
C        7.395892050   4.270020266   0.000000000    0   0   0
C        7.395892050   5.693360355   0.000000000    0   0   0
C        6.163243375   6.405030399   0.000000000    0   0   0
C        6.163243375   7.828370488   0.000000000    0   0   0
C        4.930594700   8.540040532   0.000000000    0   0   0
C        4.930594700   9.963380621   0.000000000    0   0   0

     Writing output data file gr-12.save/
     NEW-OLD atomic charge density approx. for the potential

[...]

     energy   old            =    -824.1551591313 Ry
     energy   new            =    -824.5809444402 Ry

     CASE: energy  _new < energy  _old

[...]

     WARNING: bfgs curvature condition failed, Theta= 0.872
     new trust radius        =       0.1567095967 bohr
     new conv_thr            =       0.0000010000 Ry

[...]

     WARNING: bfgs curvature condition failed, Theta= 0.806
     new trust radius        =       0.3525965925 bohr
     new conv_thr            =       0.0000010000 Ry

[...]

     Threshold (ethr) on eigenvalues was too large:
     Diagonalizing with lowered threshold

     Davidson diagonalization with overlap
     ethr =  6.35E-08,  avg # of iterations =  1.0

[...]

     number of scf cycles    =  45
     number of bfgs steps    =  44

     energy   old            =    -824.9239311282 Ry
     energy   new            =    -824.9240178838 Ry

     CASE: energy  _new < energy  _old

     new trust radius        =       0.0056175557 bohr
     new conv_thr            =       0.0000000100 Ry

ATOMIC_POSITIONS (angstrom)
H1       2.463683997   4.942418027   2.688483991
H2       2.466790119   5.735259062   2.989685933
Mn       2.464301312   5.807173236   1.219869364
C        0.000000000   0.000000000   0.000000000    0   0   0
C        0.000000000   1.423340089   0.000000000    0   0   0
C       -1.232648675   2.135010133   0.000000000    0   0   0
C       -1.232648675   3.558350222   0.000000000    0   0   0
C       -2.465297350   4.270020266   0.000000000    0   0   0
C       -2.465297350   5.693360355   0.000000000    0   0   0
C       -3.697946025   6.405030399   0.000000000    0   0   0
C       -3.697946025   7.828370488   0.000000000    0   0   0
C       -4.930594700   8.540040532   0.000000000    0   0   0
C       -4.930594700   9.963380621   0.000000000    0   0   0
C        2.465297350   0.000000000   0.000000000    0   0   0
C        2.465297350   1.423340089   0.000000000    0   0   0
C        1.232648675   2.135010133   0.000000000    0   0   0
C        1.231003643   3.546820516   0.090867935
C        0.000000000   4.270020266   0.000000000    0   0   0
C       -0.021376684   5.688281362   0.032324204
C       -1.232648675   6.405030399   0.000000000    0   0   0
C       -1.232648675   7.828370488   0.000000000    0   0   0
C       -2.465297350   8.540040532   0.000000000    0   0   0
C       -2.465297350   9.963380621   0.000000000    0   0   0
C        4.930594700   0.000000000   0.000000000    0   0   0
C        4.930594700   1.423340089   0.000000000    0   0   0
C        3.697946025   2.135010133   0.000000000    0   0   0
C        3.699596298   3.546846239   0.090904392
C        2.465286943   4.191511874   0.363757335
C        1.158127433   6.437268143   0.209824048
C        1.223061653   7.841444008   0.044118630
C        0.000000000   8.540040532   0.000000000    0   0   0
C        0.000000000   9.963380621   0.000000000    0   0   0
C        7.395892050   0.000000000   0.000000000    0   0   0
C        7.395892050   1.423340089   0.000000000    0   0   0
C        6.163243375   2.135010133   0.000000000    0   0   0
C        6.163243375   3.558350222   0.000000000    0   0   0
C        4.930594700   4.270020266   0.000000000    0   0   0
C        4.951979284   5.688276427   0.033302459
C        3.772599095   6.437150545   0.212082653
C        3.707526593   7.841355897   0.045091286
C        2.465297350   8.540040532   0.000000000    0   0   0
C        2.465297350   9.963380621   0.000000000    0   0   0
C        9.861189400   0.000000000   0.000000000    0   0   0
C        9.861189400   1.423340089   0.000000000    0   0   0
C        8.628540725   2.135010133   0.000000000    0   0   0
C        8.628540725   3.558350222   0.000000000    0   0   0
C        7.395892050   4.270020266   0.000000000    0   0   0
C        7.395892050   5.693360355   0.000000000    0   0   0
C        6.163243375   6.405030399   0.000000000    0   0   0
C        6.163243375   7.828370488   0.000000000    0   0   0
C        4.930594700   8.540040532   0.000000000    0   0   0
C        4.930594700   9.963380621   0.000000000    0   0   0

     Writing output data file gr-12.save/
     NEW-OLD atomic charge density approx. for the potential

     Check: negative core charge=   -0.000002

[...]

     Self-consistent Calculation

[...]

     Threshold (ethr) on eigenvalues was too large:
     Diagonalizing with lowered threshold

     Davidson diagonalization with overlap
     ethr =  3.46E-08,  avg # of iterations =  1.0

[...]

     total energy              =    -824.92405783 Ry
     Harris-Foulkes estimate   =    -824.92405784 Ry
     estimated scf accuracy    <       0.00000002 Ry

     iteration #  8     ecut=    70.00 Ry     beta= 0.30
     Davidson diagonalization with overlap
     ethr =  9.80E-12,  avg # of iterations =  2.0

[...]

     End of self-consistent calculation

[...]

          k = 0.5000-0.2887 0.0000 ( 87818 PWs)   bands (ev):

[...]

          k =-0.5000-0.2887 0.0000 ( 87818 PWs)   bands (ev):

   -79.3244 -48.3009 -48.2644 -47.9288 -19.4934 -19.3901 -19.0217 -18.8698
   -18.1246 -18.0756 -18.0692 -17.8521 -17.5920 -17.3757 -16.7353 -16.7114
   -16.6164 -16.2648 -15.4215 -15.3930 -15.2809 -15.2105 -15.0009 -14.9152
   -14.8963 -14.5881 -14.0691 -13.6938 -13.4953 -13.0691 -12.5990 -12.5701
   -12.3638 -12.2671 -11.9663 -11.5680 -11.1731 -11.1506 -10.9752 -10.6205
   -10.3748 -10.2895 -10.2102  -9.9733  -9.9640  -9.3907  -8.9700  -8.8719
    -8.7978  -8.7661  -8.6543  -8.4453  -8.1133  -7.7556  -7.6909  -7.5667
    -7.5287  -7.4656  -7.3796  -7.3450  -7.1921  -7.1291  -6.9983  -6.9318
    -6.9039  -6.8768  -6.7744  -6.4790  -6.4607  -6.0957  -6.0470  -5.9664
    -5.9285  -5.8917  -5.8519  -5.7967  -5.7774  -5.6897  -5.6264  -5.4705
    -5.2970  -5.1327  -4.9241  -4.5445  -4.5273  -4.4544  -4.3818  -4.3440
    -4.2496  -4.1041  -3.7987  -3.7065  -3.5022  -3.4321  -2.9076  -2.8994
    -2.8447  -2.7753  -2.6880  -2.6813  -2.5388  -2.4960  -2.2315  -1.3760
    -1.2594  -0.6498  -0.5154   0.6146   0.9424   1.1724   1.3591   1.5762
     1.8587   1.8851   1.9482   2.1585   2.2840   2.4954   2.5376   2.6200
     3.1312   3.1750   3.4703   3.6645   3.8310   4.1184   4.1431   4.1733

     the Fermi energy is    -0.5044 ev

!    total energy              =    -824.92405783 Ry
     Harris-Foulkes estimate   =    -824.92405783 Ry
     estimated scf accuracy    <          3.6E-09 Ry

     The total energy is the sum of the following terms:

     one-electron contribution =   -2630.63174872 Ry
     hartree contribution      =    1361.52031003 Ry
     xc contribution           =    -256.63029714 Ry
     ewald contribution        =     700.96048799 Ry
     DFT-D3 Dispersion         =      -0.14279538 Ry
     smearing contrib. (-TS)   =      -0.00001460 Ry

     convergence has been achieved in   8 iterations

     negative rho (up, down):  6.243E-04 0.000E+00

     Forces acting on atoms (cartesian axes, Ry/au):

     atom    1 type  1   force =     0.00010716   -0.00058983    0.00008633
     atom    2 type  2   force =    -0.00007883    0.00067995    0.00023072
     atom    3 type  3   force =     0.00017052   -0.00060395   -0.00011088
     atom    4 type  4   force =     0.00007090    0.00099522   -0.00164377
     atom    5 type  4   force =    -0.00304956   -0.00249024   -0.00677846
     atom    6 type  4   force =     0.00008708   -0.00398528    0.00121394
     atom    7 type  4   force =     0.00300746    0.00143904   -0.01196041
     atom    8 type  4   force =    -0.00129968    0.00071196   -0.00122289
     atom    9 type  4   force =    -0.00621798    0.00140212   -0.00305898
     atom   10 type  4   force =    -0.00000244   -0.00007933   -0.00001140
     atom   11 type  4   force =     0.00000464   -0.00061288   -0.00036706
     atom   12 type  4   force =    -0.00218646   -0.00452737   -0.00034483
     atom   13 type  4   force =    -0.00062847    0.00033147   -0.00016489
     atom   14 type  4   force =     0.00000329    0.00443112   -0.00080163
     atom   15 type  4   force =     0.00001281   -0.00696889    0.00272358
     atom   16 type  4   force =    -0.00250121   -0.01220034    0.00085125
     atom   17 type  4   force =     0.00028625    0.00024906    0.00019697
     atom   18 type  4   force =    -0.00599364   -0.01108558    0.02454705
     atom   19 type  4   force =     0.00037657    0.00006904   -0.00055943
     atom   20 type  4   force =    -0.02603905   -0.00254196   -0.00676752
     atom   21 type  4   force =    -0.00455300    0.00274472    0.00214921
     atom   22 type  4   force =     0.00217441   -0.00451607   -0.00031292
     atom   23 type  4   force =     0.00062973    0.00032983   -0.00016590
     atom   24 type  4   force =    -0.00007787    0.00099303   -0.00162441
     atom   25 type  4   force =     0.00303256   -0.00248598   -0.00678009
     atom   26 type  4   force =     0.00248600   -0.01217441    0.00084507
     atom   27 type  4   force =    -0.00031167    0.00026959    0.00022055
     atom   28 type  4   force =     0.00003452   -0.00024167   -0.00020497
     atom   29 type  4   force =    -0.00036860   -0.00001566    0.00007771
     atom   30 type  4   force =     0.00011825   -0.00042977    0.00019591
     atom   31 type  4   force =    -0.01344417    0.02100064   -0.00010421
     atom   32 type  4   force =    -0.00040925    0.00575977   -0.00354011
     atom   33 type  4   force =    -0.00243031   -0.00132680   -0.00009960
     atom   34 type  4   force =    -0.00088805    0.00102531    0.00164354
     atom   35 type  4   force =    -0.00007697   -0.00397950    0.00119811
     atom   36 type  4   force =    -0.00300775    0.00143819   -0.01201910
     atom   37 type  4   force =     0.00596653   -0.01100334    0.02474843
     atom   38 type  4   force =    -0.00035340    0.00004172   -0.00065385
     atom   39 type  4   force =     0.00025211    0.00000993   -0.00003495
     atom   40 type  4   force =    -0.00010303   -0.00046606    0.00010428
     atom   41 type  4   force =     0.00007555    0.01093797    0.01645271
     atom   42 type  4   force =     0.00001849   -0.00148777   -0.00858571
     atom   43 type  4   force =     0.00243221   -0.00132242   -0.00005955
     atom   44 type  4   force =     0.00088561    0.00102263    0.00164814
     atom   45 type  4   force =     0.00000038    0.00038369   -0.00036775
     atom   46 type  4   force =    -0.00000357   -0.00007991    0.00152031
     atom   47 type  4   force =     0.00130060    0.00071116   -0.00120443
     atom   48 type  4   force =     0.00620536    0.00140653   -0.00312044
     atom   49 type  4   force =     0.02597638   -0.00255195   -0.00662273
     atom   50 type  4   force =     0.00457521    0.00275576    0.00215635
     atom   51 type  4   force =     0.01334866    0.02087920    0.00008270
     atom   52 type  4   force =     0.00038570    0.00574830   -0.00360000

     Total force =     0.001869     Total SCF correction =     0.000148

     bfgs converged in  46 scf cycles and  45 bfgs steps
     (criteria: energy <  1.0E-04 Ry, force <  1.0E-03 Ry/Bohr)

     End of BFGS Geometry Optimization

     Final energy   =    -824.9240578314 Ry
Begin final coordinates

ATOMIC_POSITIONS (angstrom)
H1       2.463683997   4.942418027   2.688483991
H2       2.466790119   5.735259062   2.989685933
Mn       2.464301312   5.807173236   1.219869364
C        0.000000000   0.000000000   0.000000000    0   0   0
C        0.000000000   1.423340089   0.000000000    0   0   0
C       -1.232648675   2.135010133   0.000000000    0   0   0
C       -1.232648675   3.558350222   0.000000000    0   0   0
C       -2.465297350   4.270020266   0.000000000    0   0   0
C       -2.465297350   5.693360355   0.000000000    0   0   0
C       -3.697946025   6.405030399   0.000000000    0   0   0
C       -3.697946025   7.828370488   0.000000000    0   0   0
C       -4.930594700   8.540040532   0.000000000    0   0   0
C       -4.930594700   9.963380621   0.000000000    0   0   0
C        2.465297350   0.000000000   0.000000000    0   0   0
C        2.465297350   1.423340089   0.000000000    0   0   0
C        1.232648675   2.135010133   0.000000000    0   0   0
C        1.231003643   3.546820516   0.090867935
C        0.000000000   4.270020266   0.000000000    0   0   0
C       -0.021376684   5.688281362   0.032324204
C       -1.232648675   6.405030399   0.000000000    0   0   0
C       -1.232648675   7.828370488   0.000000000    0   0   0
C       -2.465297350   8.540040532   0.000000000    0   0   0
C       -2.465297350   9.963380621   0.000000000    0   0   0
C        4.930594700   0.000000000   0.000000000    0   0   0
C        4.930594700   1.423340089   0.000000000    0   0   0
C        3.697946025   2.135010133   0.000000000    0   0   0
C        3.699596298   3.546846239   0.090904392
C        2.465286943   4.191511874   0.363757335
C        1.158127433   6.437268143   0.209824048
C        1.223061653   7.841444008   0.044118630
C        0.000000000   8.540040532   0.000000000    0   0   0
C        0.000000000   9.963380621   0.000000000    0   0   0
C        7.395892050   0.000000000   0.000000000    0   0   0
C        7.395892050   1.423340089   0.000000000    0   0   0
C        6.163243375   2.135010133   0.000000000    0   0   0
C        6.163243375   3.558350222   0.000000000    0   0   0
C        4.930594700   4.270020266   0.000000000    0   0   0
C        4.951979284   5.688276427   0.033302459
C        3.772599095   6.437150545   0.212082653
C        3.707526593   7.841355897   0.045091286
C        2.465297350   8.540040532   0.000000000    0   0   0
C        2.465297350   9.963380621   0.000000000    0   0   0
C        9.861189400   0.000000000   0.000000000    0   0   0
C        9.861189400   1.423340089   0.000000000    0   0   0
C        8.628540725   2.135010133   0.000000000    0   0   0
C        8.628540725   3.558350222   0.000000000    0   0   0
C        7.395892050   4.270020266   0.000000000    0   0   0
C        7.395892050   5.693360355   0.000000000    0   0   0
C        6.163243375   6.405030399   0.000000000    0   0   0
C        6.163243375   7.828370488   0.000000000    0   0   0
C        4.930594700   8.540040532   0.000000000    0   0   0
C        4.930594700   9.963380621   0.000000000    0   0   0
End final coordinates

     Writing output data file gr-12.save/

     General routines

     Parallel routines

   This run was terminated on:  21:26:45  21May2022

   JOB DONE.