     Program PWSCF v.6.4.1 starts on 10Mar2022 at 13: 9:53

     R & G space division:  proc/nbgrp/npool/nimage =       6
     Reading input from cr-2.89.in

     Current dimensions of program PWSCF are:
     Max number of different atomic species (ntypx) = 10
     Max number of k-points (npk) =  40000
     Max angular momentum in pseudopotentials (lmaxx) =  3
               file Cr.pbe-spn-rrkjus_psl.1.0.0.UPF: wavefunction(s)  3P renormalized
               file Cr.pbe-spn-rrkjus_psl.1.0.0.UPF: wavefunction(s)  3P renormalized

     Subspace diagonalization in iterative solution of the eigenvalue problem:
     a serial algorithm will be used

     Message from routine setup:
     DEPRECATED: symmetry with ibrav=0, use correct ibrav instead

     bravais-lattice index     =            0
     lattice parameter (alat)  =       5.4752  a.u.
     unit-cell volume          =     164.1344 (a.u.)^3
     number of atoms/cell      =            2
     number of atomic types    =            2
     number of electrons       =        28.00
     number of Kohn-Sham states=           18
     kinetic-energy cutoff     =      80.0000  Ry
     charge density cutoff     =     800.0000  Ry
     convergence threshold     =      1.0E-06
     mixing beta               =       0.7000
     number of iterations used =            8  plain     mixing
     Exchange-correlation      = PBE ( 1  4  3  4 0 0)
     nstep                     =           50

     celldm(1)=   5.475198  celldm(2)=   0.000000  celldm(3)=   0.000000
     celldm(4)=   0.000000  celldm(5)=   0.000000  celldm(6)=   0.000000

     crystal axes: (cart. coord. in units of alat)
               a(1) = (   1.000000   0.000000   0.000000 )
               a(2) = (   0.000000   1.000000   0.000000 )
               a(3) = (   0.000000   0.000000   1.000000 )

     reciprocal axes: (cart. coord. in units 2 pi/alat)
               b(1) = (  1.000000  0.000000  0.000000 )
               b(2) = (  0.000000  1.000000  0.000000 )
               b(3) = (  0.000000  0.000000  1.000000 )

     PseudoPot. # 1 for Cr read from file:
     /home/cristian/Escritorio/Proyecto_Grafeno/pseudopotenciales/Cr.pbe-spn-rrkjus_psl.1.0.0.UPF
     MD5 check sum: 793d051e4f89dd1e3290b85340a92c0a
     Pseudo is Ultrasoft + core correction, Zval = 14.0
     Generated using "atomic" code by A. Dal Corso v.6.2.2
     Using radial grid of 1183 points,  6 beta functions with:
                l(1) =   0
                l(2) =   0
                l(3) =   1
                l(4) =   1
                l(5) =   2
                l(6) =   2
     Q(r) pseudized with 0 coefficients

[...]

     atomic species   valence    mass     pseudopotential
        Cr1           14.00    51.99610     Cr( 1.00)
        Cr2           14.00    51.99610     Cr( 1.00)

     Starting magnetic structure
     atomic species   magnetization
        Cr1          0.100
        Cr2         -0.100

     48 Sym. Ops., with inversion, found

   Cartesian axes

     site n.     atom                  positions (alat units)
         1           Cr1 tau(   1) = (   0.0000000   0.0000000   0.0000000  )
         2           Cr2 tau(   2) = (   0.5000000   0.5000000   0.5000000  )

     number of k points=    20  Methfessel-Paxton smearing, width (Ry)=  0.0300
                       cart. coord. in units 2pi/alat
        k(    1) = (   0.0625000   0.0625000   0.0625000), wk =   0.0156250
        k(    2) = (   0.0625000   0.0625000   0.1875000), wk =   0.0468750
        k(    3) = (   0.0625000   0.0625000   0.3125000), wk =   0.0468750
        k(    4) = (   0.0625000   0.0625000   0.4375000), wk =   0.0468750
        k(    5) = (   0.0625000   0.1875000   0.1875000), wk =   0.0468750
        k(    6) = (   0.0625000   0.1875000   0.3125000), wk =   0.0937500
        k(    7) = (   0.0625000   0.1875000   0.4375000), wk =   0.0937500
        k(    8) = (   0.0625000   0.3125000   0.3125000), wk =   0.0468750
        k(    9) = (   0.0625000   0.3125000   0.4375000), wk =   0.0937500
        k(   10) = (   0.0625000   0.4375000   0.4375000), wk =   0.0468750
        k(   11) = (   0.1875000   0.1875000   0.1875000), wk =   0.0156250
        k(   12) = (   0.1875000   0.1875000   0.3125000), wk =   0.0468750
        k(   13) = (   0.1875000   0.1875000   0.4375000), wk =   0.0468750
        k(   14) = (   0.1875000   0.3125000   0.3125000), wk =   0.0468750
        k(   15) = (   0.1875000   0.3125000   0.4375000), wk =   0.0937500
        k(   16) = (   0.1875000   0.4375000   0.4375000), wk =   0.0468750
        k(   17) = (   0.3125000   0.3125000   0.3125000), wk =   0.0156250
        k(   18) = (   0.3125000   0.3125000   0.4375000), wk =   0.0468750
        k(   19) = (   0.3125000   0.4375000   0.4375000), wk =   0.0468750
        k(   20) = (   0.4375000   0.4375000   0.4375000), wk =   0.0156250

     Check: negative core charge=   -0.000002

     Initial potential from superposition of free atoms

     starting charge   27.99845, renormalised to   28.00000
     Starting wfcs are   20 randomized atomic wfcs

     Self-consistent Calculation

     iteration #  1     ecut=    80.00 Ry     beta= 0.70
     Davidson diagonalization with overlap
     ethr =  1.00E-02,  avg # of iterations =  2.5

     Threshold (ethr) on eigenvalues was too large:
     Diagonalizing with lowered threshold

     Davidson diagonalization with overlap
     ethr =  6.45E-04,  avg # of iterations =  2.2

     total energy              =    -349.90190438 Ry
     Harris-Foulkes estimate   =    -350.02763202 Ry
     estimated scf accuracy    <       0.19215079 Ry

     total magnetization       =    -0.00 Bohr mag/cell
     absolute magnetization    =     2.13 Bohr mag/cell

[...]

     Magnetic moment per site:
     atom:    1    charge:   12.2684    magn:    1.3420    constr:    0.0000
     atom:    2    charge:   12.2680    magn:   -1.3420    constr:    0.0000

     End of self-consistent calculation

 ------ SPIN UP ------------

          k = 0.0625 0.0625 0.0625 (  1971 PWs)   bands (ev):

   -53.8973 -52.4380 -25.2278 -25.2278 -25.2148 -23.6570 -23.6414 -23.6414
    10.9404  14.5378  14.5378  17.4822  17.4822  17.7098  19.6384  19.6384
    20.5497  20.9576

[...]

 ------ SPIN DOWN ----------

[...]

     the Fermi energy is    18.4539 ev

!    total energy              =    -349.98909891 Ry
     Harris-Foulkes estimate   =    -349.98909811 Ry
     estimated scf accuracy    <       0.00000057 Ry

     The total energy is the sum of the following terms:

     one-electron contribution =    -119.86931408 Ry
     hartree contribution      =      75.01232848 Ry
     xc contribution           =     -44.58137510 Ry
     ewald contribution        =    -260.55304471 Ry
     smearing contrib. (-TS)   =       0.00230651 Ry

[...]

     convergence has been achieved in   8 iterations

     Forces acting on atoms (cartesian axes, Ry/au):

     atom    1 type  1   force =     0.00000000    0.00000000    0.00000000
     atom    2 type  2   force =     0.00000000    0.00000000    0.00000000

     Total force =     0.000000     Total SCF correction =     0.000000

     Computing stress (Cartesian axis) and pressure

          total   stress  (Ry/bohr**3)                   (kbar)     P=  -39.68
  -0.00026971   0.00000000   0.00000000        -39.68      0.00      0.00
   0.00000000  -0.00026971   0.00000000          0.00    -39.68      0.00
   0.00000000   0.00000000  -0.00026971          0.00      0.00    -39.68

     BFGS Geometry Optimization

     number of scf cycles    =   1
     number of bfgs steps    =   0

     enthalpy new            =    -349.9890989098 Ry

     new trust radius        =       0.0172771780 bohr
     new conv_thr            =       0.0000010000 Ry

     new unit-cell volume =    160.83649 a.u.^3 (    23.83351 Ang^3 )
     density =      7.24539 g/cm^3

CELL_PARAMETERS (angstrom)
   2.877813623   0.000000000   0.000000000
   0.000000000   2.877813623   0.000000000
   0.000000000   0.000000000   2.877813623

ATOMIC_POSITIONS (angstrom)
Cr1      0.000000000   0.000000000   0.000000000
Cr2      1.438906811   1.438906811   1.438906811

     Writing output data file cr-2.89.save/
     NEW-OLD atomic charge density approx. for the potential

     Check: negative core charge=   -0.000002
     extrapolated charge   27.42591, renormalised to   28.00000

[...]

     enthalpy old            =    -349.9890989098 Ry
     enthalpy new            =    -349.9896473139 Ry

     CASE: enthalpy_new < enthalpy_old

[...]

     number of scf cycles    =   4
     number of bfgs steps    =   3

     enthalpy old            =    -349.9896534025 Ry
     enthalpy new            =    -349.9896685829 Ry

     CASE: enthalpy_new < enthalpy_old

     new trust radius        =       0.0008149237 bohr
     new conv_thr            =       0.0000000100 Ry

     new unit-cell volume =    160.06944 a.u.^3 (    23.71984 Ang^3 )
     density =      7.28011 g/cm^3

[...]

ATOMIC_POSITIONS (angstrom)
Cr1      0.000000000   0.000000000   0.000000000
Cr2      1.436615702   1.436615702   1.436615702

     Writing output data file cr-2.89.save/
     NEW-OLD atomic charge density approx. for the potential

     Check: negative core charge=   -0.000002
     extrapolated charge   28.02705, renormalised to   28.00000

[...]

     bfgs converged in   5 scf cycles and   4 bfgs steps
     (criteria: energy <  1.0E-05 Ry, force <  1.0E-04Ry/Bohr, cell <  5.0E-01kbar)

     End of BFGS Geometry Optimization

     Final enthalpy =    -349.9896693527 Ry
Begin final coordinates
     new unit-cell volume =    160.06944 a.u.^3 (    23.71984 Ang^3 )
     density =      7.28011 g/cm^3

CELL_PARAMETERS (angstrom)
   2.873231404   0.000000000   0.000000000
   0.000000000   2.873231404   0.000000000
   0.000000000   0.000000000   2.873231404

ATOMIC_POSITIONS (angstrom)
Cr1      0.000000000   0.000000000   0.000000000
Cr2      1.436615702   1.436615702   1.436615702
End final coordinates

     Writing output data file cr-2.89.save/

     A final scf calculation at the relaxed structure.
     The G-vectors are recalculated for the final unit cell
     Results may differ from those at the preceding step.

     bravais-lattice index     =            0
     lattice parameter (alat)  =       5.4752  a.u.
     unit-cell volume          =     160.0694 (a.u.)^3
     number of atoms/cell      =            2
     number of atomic types    =            2
     number of electrons       =        28.00
     number of Kohn-Sham states=           18
     kinetic-energy cutoff     =      80.0000  Ry
     charge density cutoff     =     800.0000  Ry
     convergence threshold     =      1.0E-08
     mixing beta               =       0.7000
     number of iterations used =            8  plain     mixing
     Exchange-correlation      = PBE ( 1  4  3  4 0 0)

     celldm(1)=   5.475198  celldm(2)=   0.000000  celldm(3)=   0.000000
     celldm(4)=   0.000000  celldm(5)=   0.000000  celldm(6)=   0.000000

     crystal axes: (cart. coord. in units of alat)
               a(1) = (   0.991676   0.000000   0.000000 )
               a(2) = (   0.000000   0.991676   0.000000 )
               a(3) = (   0.000000   0.000000   0.991676 )

     reciprocal axes: (cart. coord. in units 2 pi/alat)
               b(1) = (  1.008394  0.000000  0.000000 )
               b(2) = (  0.000000  1.008394  0.000000 )
               b(3) = (  0.000000  0.000000  1.008394 )

[...]

     PseudoPot. # 2 for Cr read from file:
     /home/cristian/Escritorio/Proyecto_Grafeno/pseudopotenciales/Cr.pbe-spn-rrkjus_psl.1.0.0.UPF
     MD5 check sum: 793d051e4f89dd1e3290b85340a92c0a
     Pseudo is Ultrasoft + core correction, Zval = 14.0
     Generated using "atomic" code by A. Dal Corso v.6.2.2
     Using radial grid of 1183 points,  6 beta functions with:
                l(1) =   0
                l(2) =   0
                l(3) =   1
                l(4) =   1
                l(5) =   2
                l(6) =   2
     Q(r) pseudized with 0 coefficients

     atomic species   valence    mass     pseudopotential
        Cr1           14.00    51.99610     Cr( 1.00)
        Cr2           14.00    51.99610     Cr( 1.00)

     Starting magnetic structure
     atomic species   magnetization
        Cr1          0.097
        Cr2         -0.097

     48 Sym. Ops., with inversion, found

   Cartesian axes

     site n.     atom                  positions (alat units)
         1           Cr1 tau(   1) = (   0.0000000   0.0000000   0.0000000  )
         2           Cr2 tau(   2) = (   0.4958378   0.4958378   0.4958378  )

     number of k points=    20  Methfessel-Paxton smearing, width (Ry)=  0.0300
                       cart. coord. in units 2pi/alat
        k(    1) = (   0.0630246   0.0630246   0.0630246), wk =   0.0156250
        k(    2) = (   0.0630246   0.0630246   0.1890739), wk =   0.0468750
        k(    3) = (   0.0630246   0.0630246   0.3151232), wk =   0.0468750
        k(    4) = (   0.0630246   0.0630246   0.4411725), wk =   0.0468750
        k(    5) = (   0.0630246   0.1890739   0.1890739), wk =   0.0468750
        k(    6) = (   0.0630246   0.1890739   0.3151232), wk =   0.0937500
        k(    7) = (   0.0630246   0.1890739   0.4411725), wk =   0.0937500
        k(    8) = (   0.0630246   0.3151232   0.3151232), wk =   0.0468750
        k(    9) = (   0.0630246   0.3151232   0.4411725), wk =   0.0937500
        k(   10) = (   0.0630246   0.4411725   0.4411725), wk =   0.0468750
        k(   11) = (   0.1890739   0.1890739   0.1890739), wk =   0.0156250
        k(   12) = (   0.1890739   0.1890739   0.3151232), wk =   0.0468750
        k(   13) = (   0.1890739   0.1890739   0.4411725), wk =   0.0468750
        k(   14) = (   0.1890739   0.3151232   0.3151232), wk =   0.0468750
        k(   15) = (   0.1890739   0.3151232   0.4411725), wk =   0.0937500
        k(   16) = (   0.1890739   0.4411725   0.4411725), wk =   0.0468750
        k(   17) = (   0.3151232   0.3151232   0.3151232), wk =   0.0156250
        k(   18) = (   0.3151232   0.3151232   0.4411725), wk =   0.0468750
        k(   19) = (   0.3151232   0.4411725   0.4411725), wk =   0.0468750
        k(   20) = (   0.4411725   0.4411725   0.4411725), wk =   0.0156250

     Check: negative core charge=   -0.000002

     Initial potential from superposition of free atoms

     starting charge   27.99845, renormalised to   28.00000
     Starting wfcs are   20 randomized atomic wfcs

     Self-consistent Calculation

     iteration #  1     ecut=    80.00 Ry     beta= 0.70
     Davidson diagonalization with overlap
     c_bands:  1 eigenvalues not converged
     c_bands:  1 eigenvalues not converged
     c_bands:  1 eigenvalues not converged
     ethr =  1.00E-06,  avg # of iterations =  9.0

[...]

     total energy              =    -349.98952118 Ry
     Harris-Foulkes estimate   =    -349.98952125 Ry
     estimated scf accuracy    <       0.00000031 Ry

[...]

     iteration # 10     ecut=    80.00 Ry     beta= 0.70
     Davidson diagonalization with overlap
     ethr =  1.11E-09,  avg # of iterations =  3.6

     Magnetic moment per site:
     atom:    1    charge:   12.3014    magn:    1.1893    constr:    0.0000
     atom:    2    charge:   12.3014    magn:   -1.1893    constr:    0.0000

     End of self-consistent calculation

 ------ SPIN UP ------------

[...]

 ------ SPIN DOWN ----------

[...]

          k = 0.4412 0.4412 0.4412 (  1908 PWs)   bands (ev):

   -53.2436 -51.9711 -24.7061 -24.6931 -24.6931 -23.3680 -23.3680 -23.3539
    16.1874  16.3689  16.3689  17.1338  17.1731  17.1731  20.0684  20.0684
    21.0605  21.0605

     the Fermi energy is    19.0090 ev

!    total energy              =    -349.98952128 Ry
     Harris-Foulkes estimate   =    -349.98952128 Ry
     estimated scf accuracy    <          4.6E-09 Ry

     The total energy is the sum of the following terms:

     one-electron contribution =    -116.52299489 Ry
     hartree contribution      =      73.87390019 Ry
     xc contribution           =     -44.60250063 Ry
     ewald contribution        =    -262.74018972 Ry
     smearing contrib. (-TS)   =       0.00226376 Ry

     total magnetization       =    -0.00 Bohr mag/cell
     absolute magnetization    =     2.54 Bohr mag/cell

     convergence has been achieved in  10 iterations

     Forces acting on atoms (cartesian axes, Ry/au):

     atom    1 type  1   force =     0.00000000    0.00000000    0.00000000
     atom    2 type  2   force =     0.00000000    0.00000000    0.00000000

     Total force =     0.000000     Total SCF correction =     0.000000

     Computing stress (Cartesian axis) and pressure

          total   stress  (Ry/bohr**3)                   (kbar)     P=   -1.18
  -0.00000801   0.00000000   0.00000000         -1.18      0.00      0.00
   0.00000000  -0.00000801   0.00000000          0.00     -1.18      0.00
   0.00000000   0.00000000  -0.00000801          0.00      0.00     -1.18

     Writing output data file cr-2.89.save/

     General routines

     Parallel routines

   This run was terminated on:  13:12: 5  10Mar2022

   JOB DONE.