     Program PWSCF v.6.4.1 starts on 17May2022 at 23:26:51

     R & G space division:  proc/nbgrp/npool/nimage =       6
     Reading input from gr-cr.in

     Current dimensions of program PWSCF are:
     Max number of different atomic species (ntypx) = 10
     Max number of k-points (npk) =  40000
     Max angular momentum in pseudopotentials (lmaxx) =  3
               file H.pbe-rrkjus.UPF: wavefunction(s)  1S renormalized
               file H.pbe-rrkjus.UPF: wavefunction(s)  1S renormalized
               file Cr.pbe-spn-rrkjus_psl.1.0.0.UPF: wavefunction(s)  3P renormalized

     Parameters for DFT-D3 Dispersion Correction:
       Reference C6 values for interpolation:

         atom   Coordination number   C6
         H1         0.912             6.05
         H1         0.000            15.18
         H2         0.912             6.05
         H2         0.000            15.18
         C          0.000            98.23
         C          0.987            86.49
         C          1.998            58.72
         C          2.999            51.56
         C          3.984            36.41
         Cr         0.000          1381.48
         Cr         1.827           571.38
         Cr        10.619           306.69

       Values used:

         atom   Coordination number  R0_AB[au]  C6      C8
         H1         0.997            2.062      6.18     74.75
         H2         0.949            2.062      6.24     75.40
         Cr         6.515            3.252    306.69  28303.74
         C          3.308            2.750     48.42   1400.27
         C          3.308            2.750     48.41   1400.17
         C          3.308            2.750     48.41   1400.21
         C          3.309            2.750     48.40   1399.77
         C          3.308            2.750     48.41   1400.21
         C          3.308            2.750     48.41   1400.17
         C          3.308            2.750     48.42   1400.27
         C          3.308            2.750     48.42   1400.29
         C          3.308            2.750     48.42   1400.27
         C          3.308            2.750     48.42   1400.29
         C          3.308            2.750     48.42   1400.27
         C          3.309            2.750     48.40   1399.77
         C          3.311            2.750     48.35   1398.32
         C          3.763            2.750     37.83   1094.17
         C          3.405            2.750     46.08   1332.75
         C          3.763            2.750     37.83   1094.15
         C          3.311            2.750     48.35   1398.32
         C          3.309            2.750     48.40   1399.76
         C          3.308            2.750     48.42   1400.27
         C          3.308            2.750     48.42   1400.29
         C          3.308            2.750     48.42   1400.27
         C          3.308            2.750     48.41   1400.17
         C          3.311            2.750     48.35   1398.32
         C          3.763            2.750     37.83   1094.17
         C          3.310            2.750     48.37   1398.96
         C          3.311            2.750     48.35   1398.51
         C          3.764            2.750     37.83   1094.09
         C          3.311            2.750     48.35   1398.31
         C          3.308            2.750     48.41   1400.16
         C          3.308            2.750     48.41   1400.21
         C          3.308            2.750     48.42   1400.29
         C          3.308            2.750     48.41   1400.21
         C          3.309            2.750     48.40   1399.77
         C          3.405            2.750     46.08   1332.75
         C          3.763            2.750     37.83   1094.15
         C          3.311            2.750     48.35   1398.51
         C          3.764            2.750     37.83   1094.09
         C          3.405            2.750     46.08   1332.62
         C          3.309            2.750     48.40   1399.76
         C          3.308            2.750     48.41   1400.21
         C          3.308            2.750     48.42   1400.29
         C          3.308            2.750     48.42   1400.30
         C          3.308            2.750     48.42   1400.29
         C          3.308            2.750     48.41   1400.21
         C          3.308            2.750     48.41   1400.17
         C          3.311            2.750     48.35   1398.32
         C          3.309            2.750     48.40   1399.76
         C          3.311            2.750     48.35   1398.31
         C          3.308            2.750     48.41   1400.16

         Molecular C6 ( Ry / a.u.^6 ) =    127983.02

     Subspace diagonalization in iterative solution of the eigenvalue problem:
     a serial algorithm will be used

     bravais-lattice index     =            4
     lattice parameter (alat)  =      23.2937  a.u.
     unit-cell volume          =    8879.8548 (a.u.)^3
     number of atoms/cell      =           52
     number of atomic types    =            4
     number of electrons       =       212.00
     number of Kohn-Sham states=          127
     kinetic-energy cutoff     =      70.0000  Ry
     charge density cutoff     =     490.0000  Ry
     convergence threshold     =      1.0E-06
     mixing beta               =       0.3000
     number of iterations used =            8  plain     mixing
     Exchange-correlation      = PBE ( 1  4  3  4 0 0)
     nstep                     =           50

     celldm(1)=  23.293684  celldm(2)=   0.000000  celldm(3)=   0.811261
     celldm(4)=   0.000000  celldm(5)=   0.000000  celldm(6)=   0.000000

     crystal axes: (cart. coord. in units of alat)
               a(1) = (   1.000000   0.000000   0.000000 )
               a(2) = (  -0.500000   0.866025   0.000000 )
               a(3) = (   0.000000   0.000000   0.811261 )

     reciprocal axes: (cart. coord. in units 2 pi/alat)
               b(1) = (  1.000000  0.577350 -0.000000 )
               b(2) = (  0.000000  1.154701  0.000000 )
               b(3) = (  0.000000 -0.000000  1.232649 )

     PseudoPot. # 1 for H  read from file:
     /home/cristian/Escritorio/Proyecto_Grafeno/pseudopotenciales/H.pbe-rrkjus.UPF
     MD5 check sum: 7cc9d459525c9a0585f487a71c3c9563
     Pseudo is Ultrasoft, Zval =  1.0
     Generated by new atomic code, or converted to UPF format
     Using radial grid of 1061 points,  2 beta functions with:
                l(1) =   0
                l(2) =   0
     Q(r) pseudized with 0 coefficients

     PseudoPot. # 2 for H  read from file:
     /home/cristian/Escritorio/Proyecto_Grafeno/pseudopotenciales/H.pbe-rrkjus.UPF
     MD5 check sum: 7cc9d459525c9a0585f487a71c3c9563
     Pseudo is Ultrasoft, Zval =  1.0
     Generated by new atomic code, or converted to UPF format
     Using radial grid of 1061 points,  2 beta functions with:
                l(1) =   0
                l(2) =   0
     Q(r) pseudized with 0 coefficients

     PseudoPot. # 3 for Cr read from file:
     /home/cristian/Escritorio/Proyecto_Grafeno/pseudopotenciales/Cr.pbe-spn-rrkjus_psl.1.0.0.UPF
     MD5 check sum: 793d051e4f89dd1e3290b85340a92c0a
     Pseudo is Ultrasoft + core correction, Zval = 14.0
     Generated using "atomic" code by A. Dal Corso v.6.2.2
     Using radial grid of 1183 points,  6 beta functions with:
                l(1) =   0
                l(2) =   0
                l(3) =   1
                l(4) =   1
                l(5) =   2
                l(6) =   2
     Q(r) pseudized with 0 coefficients

     PseudoPot. # 4 for C  read from file:
     /home/cristian/Escritorio/Proyecto_Grafeno/pseudopotenciales/C.pbe-n-rrkjus_psl.1.0.0.UPF
     MD5 check sum: 1fdd950c42eb37d8afe3dd2f8d12311e
     Pseudo is Ultrasoft + core correction, Zval =  4.0
     Generated using "atomic" code by A. Dal Corso v.6.3MaX
     Using radial grid of 1073 points,  4 beta functions with:
                l(1) =   0
                l(2) =   0
                l(3) =   1
                l(4) =   1
     Q(r) pseudized with 0 coefficients

     atomic species   valence    mass     pseudopotential
        H1             1.00     1.00794     H ( 1.00)
        H2             1.00     1.00794     H ( 1.00)
        Cr            14.00    51.99610     Cr( 1.00)
        C              4.00    12.01070     C ( 1.00)

     No symmetry found

   Cartesian axes

     site n.     atom                  positions (alat units)
         1           H1  tau(   1) = (   0.2000000   0.4617962   0.1784775  )
         2           H2  tau(   2) = (   0.2000000   0.5228088   0.1784775  )
         3           Cr  tau(   3) = (   0.2000000   0.4618802   0.0000000  )
         4           C   tau(   4) = (   0.0000000   0.0000000   0.0000000  )
         5           C   tau(   5) = (   0.0000000   0.1154701   0.0000000  )
         6           C   tau(   6) = (  -0.1000000   0.1732051   0.0000000  )
         7           C   tau(   7) = (  -0.1000000   0.2886751   0.0000000  )
         8           C   tau(   8) = (  -0.2000000   0.3464102   0.0000000  )
         9           C   tau(   9) = (  -0.2000000   0.4618802   0.0000000  )
        10           C   tau(  10) = (  -0.3000000   0.5196152   0.0000000  )
        11           C   tau(  11) = (  -0.3000000   0.6350853   0.0000000  )
        12           C   tau(  12) = (  -0.4000000   0.6928203   0.0000000  )
        13           C   tau(  13) = (  -0.4000000   0.8082904   0.0000000  )
        14           C   tau(  14) = (   0.2000000   0.0000000   0.0000000  )
        15           C   tau(  15) = (   0.2000000   0.1154701   0.0000000  )
        16           C   tau(  16) = (   0.1000000   0.1732051   0.0000000  )
        17           C   tau(  17) = (   0.1000000   0.2886751   0.0000000  )
        18           C   tau(  18) = (   0.0000000   0.3464102   0.0000000  )
        19           C   tau(  19) = (   0.0000000   0.4618802   0.0000000  )
        20           C   tau(  20) = (  -0.1000000   0.5196152   0.0000000  )
        21           C   tau(  21) = (  -0.1000000   0.6350853   0.0000000  )
        22           C   tau(  22) = (  -0.2000000   0.6928203   0.0000000  )
        23           C   tau(  23) = (  -0.2000000   0.8082904   0.0000000  )
        24           C   tau(  24) = (   0.4000000   0.0000000   0.0000000  )
        25           C   tau(  25) = (   0.4000000   0.1154701   0.0000000  )
        26           C   tau(  26) = (   0.3000000   0.1732051   0.0000000  )
        27           C   tau(  27) = (   0.3000000   0.2886751   0.0000000  )
        28           C   tau(  28) = (   0.2000000   0.3464102   0.0000000  )
        29           C   tau(  29) = (   0.1000000   0.5196152   0.0000000  )
        30           C   tau(  30) = (   0.1000000   0.6350853   0.0000000  )
        31           C   tau(  31) = (   0.0000000   0.6928203   0.0000000  )
        32           C   tau(  32) = (   0.0000000   0.8082904   0.0000000  )
        33           C   tau(  33) = (   0.6000000   0.0000000   0.0000000  )
        34           C   tau(  34) = (   0.6000000   0.1154701   0.0000000  )
        35           C   tau(  35) = (   0.5000000   0.1732051   0.0000000  )
[...]
C       -1.232648675   6.405030399   0.000000000    0   0   0
C       -1.232648675   7.828370488   0.000000000    0   0   0
C       -2.465297350   8.540040532   0.000000000    0   0   0
C       -2.465297350   9.963380621   0.000000000    0   0   0
C        4.930594700   0.000000000   0.000000000    0   0   0
C        4.930594700   1.423340089   0.000000000    0   0   0
C        3.697946025   2.135010133   0.000000000    0   0   0
C        3.714249197   3.544585950   0.000050718
C        2.465293647   4.006928138  -0.006127531
C        1.003681160   6.536983331  -0.013016539
C        1.228532010   7.848142463   0.000304616
C        0.000000000   8.540040532   0.000000000    0   0   0
C        0.000000000   9.963380621   0.000000000    0   0   0
C        7.395892050   0.000000000   0.000000000    0   0   0
C        7.395892050   1.423340089   0.000000000    0   0   0
C        6.163243375   2.135010133   0.000000000    0   0   0
C        6.163243375   3.558350222   0.000000000    0   0   0
C        4.930594700   4.270020266   0.000000000    0   0   0
C        4.949200483   5.686693729   0.000750830
C        3.926899301   6.536978361  -0.013020348
C        3.702070369   7.848153911   0.000305387
C        2.465297350   8.540040532   0.000000000    0   0   0
C        2.465297350   9.963380621   0.000000000    0   0   0
C        9.861189400   0.000000000   0.000000000    0   0   0
C        9.861189400   1.423340089   0.000000000    0   0   0
C        8.628540725   2.135010133   0.000000000    0   0   0
C        8.628540725   3.558350222   0.000000000    0   0   0
C        7.395892050   4.270020266   0.000000000    0   0   0
C        7.395892050   5.693360355   0.000000000    0   0   0
C        6.163243375   6.405030399   0.000000000    0   0   0
C        6.163243375   7.828370488   0.000000000    0   0   0
C        4.930594700   8.540040532   0.000000000    0   0   0
C        4.930594700   9.963380621   0.000000000    0   0   0

     Writing output data file gr-12.save/
     NEW-OLD atomic charge density approx. for the potential

[...]

     iteration #  1     ecut=    70.00 Ry     beta= 0.30
     Davidson diagonalization with overlap
     c_bands:  1 eigenvalues not converged
     ethr =  1.00E-06,  avg # of iterations = 13.0

[...]

     energy   old            =    -785.1950449877 Ry
     energy   new            =    -785.6716684092 Ry

     CASE: energy  _new < energy  _old

[...]

     iteration #  1     ecut=    70.00 Ry     beta= 0.30
     Davidson diagonalization with overlap
     c_bands:  1 eigenvalues not converged
     ethr =  1.00E-06,  avg # of iterations = 13.5

[...]

     WARNING: bfgs curvature condition failed, Theta= 0.946
     new trust radius        =       0.0744546416 bohr
     new conv_thr            =       0.0000008973 Ry

[...]

     WARNING: bfgs curvature condition failed, Theta= 0.310
     new trust radius        =       0.1576320721 bohr
     new conv_thr            =       0.0000003142 Ry

[...]

     number of scf cycles    =  49
     number of bfgs steps    =  48

     energy   old            =    -786.0364800989 Ry
     energy   new            =    -786.0365215983 Ry

     CASE: energy  _new < energy  _old

     new trust radius        =       0.0048036310 bohr
     new conv_thr            =       0.0000000100 Ry

ATOMIC_POSITIONS (angstrom)
H1       2.465055351   5.073069535   2.766921585
H2       2.465597395   5.894187854   3.039876836
Cr       2.465109071   5.879613900   1.239715189
C        0.000000000   0.000000000   0.000000000    0   0   0
C        0.000000000   1.423340089   0.000000000    0   0   0
C       -1.232648675   2.135010133   0.000000000    0   0   0
C       -1.232648675   3.558350222   0.000000000    0   0   0
C       -2.465297350   4.270020266   0.000000000    0   0   0
C       -2.465297350   5.693360355   0.000000000    0   0   0
C       -3.697946025   6.405030399   0.000000000    0   0   0
C       -3.697946025   7.828370488   0.000000000    0   0   0
C       -4.930594700   8.540040532   0.000000000    0   0   0
C       -4.930594700   9.963380621   0.000000000    0   0   0
C        2.465297350   0.000000000   0.000000000    0   0   0
C        2.465297350   1.423340089   0.000000000    0   0   0
C        1.232648675   2.135010133   0.000000000    0   0   0
C        1.233804582   3.550267896   0.100466328
C        0.000000000   4.270020266   0.000000000    0   0   0
C       -0.028828971   5.684725890   0.009403190
C       -1.232648675   6.405030399   0.000000000    0   0   0
C       -1.232648675   7.828370488   0.000000000    0   0   0
C       -2.465297350   8.540040532   0.000000000    0   0   0
C       -2.465297350   9.963380621   0.000000000    0   0   0
C        4.930594700   0.000000000   0.000000000    0   0   0
C        4.930594700   1.423340089   0.000000000    0   0   0
C        3.697946025   2.135010133   0.000000000    0   0   0
C        3.696888343   3.550229783   0.100452830
C        2.465243874   4.201281881   0.385280593
C        1.151341950   6.429034759   0.151383886
C        1.223613842   7.835937189   0.032668543
C        0.000000000   8.540040532   0.000000000    0   0   0
C        0.000000000   9.963380621   0.000000000    0   0   0
C        7.395892050   0.000000000   0.000000000    0   0   0
C        7.395892050   1.423340089   0.000000000    0   0   0
C        6.163243375   2.135010133   0.000000000    0   0   0
C        6.163243375   3.558350222   0.000000000    0   0   0
C        4.930594700   4.270020266   0.000000000    0   0   0
C        4.959455171   5.684687069   0.009337587
C        3.779212415   6.429009974   0.151794969
C        3.706971864   7.835889031   0.033021690
C        2.465297350   8.540040532   0.000000000    0   0   0
C        2.465297350   9.963380621   0.000000000    0   0   0
C        9.861189400   0.000000000   0.000000000    0   0   0
C        9.861189400   1.423340089   0.000000000    0   0   0
C        8.628540725   2.135010133   0.000000000    0   0   0
C        8.628540725   3.558350222   0.000000000    0   0   0
C        7.395892050   4.270020266   0.000000000    0   0   0
C        7.395892050   5.693360355   0.000000000    0   0   0
C        6.163243375   6.405030399   0.000000000    0   0   0
C        6.163243375   7.828370488   0.000000000    0   0   0
C        4.930594700   8.540040532   0.000000000    0   0   0
C        4.930594700   9.963380621   0.000000000    0   0   0

     Writing output data file gr-12.save/
     NEW-OLD atomic charge density approx. for the potential

     Check: negative core charge=   -0.000002

[...]

     Self-consistent Calculation

[...]

     Threshold (ethr) on eigenvalues was too large:
     Diagonalizing with lowered threshold

     Davidson diagonalization with overlap
     ethr =  6.68E-09,  avg # of iterations =  2.8

[...]

     total energy              =    -786.03653043 Ry
     Harris-Foulkes estimate   =    -786.03653042 Ry
     estimated scf accuracy    <       0.00000002 Ry

     iteration #  7     ecut=    70.00 Ry     beta= 0.30
     Davidson diagonalization with overlap
     ethr =  8.51E-12,  avg # of iterations =  2.0

[...]

     End of self-consistent calculation

[...]

          k = 0.5000-0.2887 0.0000 ( 87818 PWs)   bands (ev):

[...]

          k =-0.5000-0.2887 0.0000 ( 87818 PWs)   bands (ev):

   -71.8642 -43.6215 -43.3518 -42.9093 -19.5087 -19.4039 -19.0340 -18.8843
   -18.1444 -18.0854 -18.0832 -17.8640 -17.6035 -17.3784 -16.7524 -16.7253
   -16.6283 -16.2764 -15.4349 -15.4096 -15.2898 -15.2194 -15.0174 -14.9266
   -14.9089 -14.5982 -14.0692 -13.7059 -13.5023 -13.0741 -12.6136 -12.5865
   -12.3831 -12.2769 -11.9725 -11.5668 -11.1847 -11.1633 -10.9820 -10.6279
   -10.3895 -10.3001 -10.2243  -9.9827  -9.9653  -9.3654  -8.9281  -8.8182
    -8.7801  -8.6918  -8.5439  -8.4484  -8.0837  -7.7667  -7.7000  -7.5839
    -7.5345  -7.4827  -7.3879  -7.3569  -7.2005  -7.1392  -7.0174  -6.9407
    -6.9109  -6.8892  -6.7874  -6.4901  -6.4561  -6.0913  -6.0555  -5.9815
    -5.9482  -5.9007  -5.8596  -5.7957  -5.7898  -5.7006  -5.6467  -5.4647
    -5.2826  -5.1450  -4.8945  -4.5356  -4.4827  -4.4554  -4.3955  -4.3540
    -4.2610  -4.0946  -3.7886  -3.5685  -3.3970  -3.3949  -2.9405  -2.8971
    -2.8431  -2.7656  -2.6973  -2.6581  -2.4629  -2.3861  -2.0694  -1.2974
    -1.1597  -0.4450  -0.3063   0.7871   0.9526   1.2629   1.4623   1.7248
     1.8454   1.9190   2.0793   2.1712   2.2864   2.4865   2.5365   2.6231
     3.1306   3.1858   3.5060   3.6901   3.8456   4.1147   4.1375

     the Fermi energy is    -0.3514 ev

!    total energy              =    -786.03653043 Ry
     Harris-Foulkes estimate   =    -786.03653043 Ry
     estimated scf accuracy    <          2.4E-09 Ry

     The total energy is the sum of the following terms:

     one-electron contribution =   -2554.42059522 Ry
     hartree contribution      =    1322.81083610 Ry
     xc contribution           =    -251.03279817 Ry
     ewald contribution        =     696.74726646 Ry
     DFT-D3 Dispersion         =      -0.14128038 Ry
     smearing contrib. (-TS)   =       0.00004078 Ry

     convergence has been achieved in   7 iterations

     negative rho (up, down):  2.661E-03 0.000E+00

     Forces acting on atoms (cartesian axes, Ry/au):

     atom    1 type  1   force =     0.00001786   -0.00002295    0.00022962
     atom    2 type  2   force =    -0.00001753   -0.00012121   -0.00023420
     atom    3 type  3   force =     0.00000675    0.00019487    0.00009525
     atom    4 type  4   force =     0.00041891    0.00163443   -0.00226033
     atom    5 type  4   force =    -0.00123104   -0.00244668   -0.00726717
     atom    6 type  4   force =    -0.00196166   -0.00182468    0.00187157
     atom    7 type  4   force =     0.00309036   -0.00200483   -0.01097521
     atom    8 type  4   force =    -0.00115098    0.00198630   -0.00167208
     atom    9 type  4   force =    -0.00904029    0.00071218   -0.00147899
     atom   10 type  4   force =     0.00000008   -0.00063862    0.00091965
     atom   11 type  4   force =     0.00000354   -0.00136476   -0.00037841
     atom   12 type  4   force =    -0.00044770   -0.00225906    0.00012428
     atom   13 type  4   force =    -0.00097978   -0.00104665   -0.00007285
     atom   14 type  4   force =     0.00000264    0.00529607   -0.00110596
     atom   15 type  4   force =    -0.00001132   -0.00858826    0.00295510
     atom   16 type  4   force =    -0.00113696   -0.00530634    0.00447093
     atom   17 type  4   force =    -0.00042151   -0.00040937   -0.00007906
     atom   18 type  4   force =    -0.00828405   -0.01444769    0.02105553
     atom   19 type  4   force =    -0.00001222    0.00008312   -0.00009702
     atom   20 type  4   force =    -0.03268954   -0.00426866   -0.01143044
     atom   21 type  4   force =    -0.00035224    0.00366086    0.00167375
     atom   22 type  4   force =     0.00044221   -0.00225516    0.00012959
     atom   23 type  4   force =     0.00097946   -0.00104852   -0.00007371
     atom   24 type  4   force =    -0.00041454    0.00163585   -0.00225307
     atom   25 type  4   force =     0.00123739   -0.00246405   -0.00727049
     atom   26 type  4   force =     0.00117692   -0.00532013    0.00447433
     atom   27 type  4   force =     0.00011813   -0.00028753   -0.00001510
     atom   28 type  4   force =     0.00020533   -0.00015557    0.00010722
     atom   29 type  4   force =     0.00049798    0.00021906   -0.00029594
     atom   30 type  4   force =     0.00003672    0.00045135    0.00054925
     atom   31 type  4   force =    -0.01685747    0.02332060    0.00158497
     atom   32 type  4   force =    -0.00014988    0.00312282   -0.00259849
     atom   33 type  4   force =    -0.00108443    0.00023568    0.00003212
     atom   34 type  4   force =    -0.00089280   -0.00029886    0.00140935
     atom   35 type  4   force =     0.00195849   -0.00182210    0.00187351
     atom   36 type  4   force =    -0.00306764   -0.00201348   -0.01098302
     atom   37 type  4   force =     0.00834360   -0.01446778    0.02102067
     atom   38 type  4   force =    -0.00014085    0.00020525    0.00001694
     atom   39 type  4   force =    -0.00033459    0.00009978   -0.00035527
     atom   40 type  4   force =    -0.00004856    0.00053846    0.00044194
     atom   41 type  4   force =     0.00001674    0.00459935    0.01200034
     atom   42 type  4   force =     0.00000702   -0.00091044   -0.00464876
     atom   43 type  4   force =     0.00108233    0.00023706    0.00004549
     atom   44 type  4   force =     0.00089698   -0.00029776    0.00141063
     atom   45 type  4   force =    -0.00000121    0.00190398   -0.00025916
     atom   46 type  4   force =     0.00000372   -0.00251878    0.00119696
     atom   47 type  4   force =     0.00114604    0.00198645   -0.00167118
     atom   48 type  4   force =     0.00904867    0.00071177   -0.00148455
     atom   49 type  4   force =     0.03267160   -0.00428795   -0.01145503
     atom   50 type  4   force =     0.00034966    0.00367501    0.00167819
     atom   51 type  4   force =     0.01683057    0.02327387    0.00166244
     atom   52 type  4   force =     0.00013908    0.00311372   -0.00261419

     Total force =     0.001550     Total SCF correction =     0.000092

     bfgs converged in  50 scf cycles and  49 bfgs steps
     (criteria: energy <  1.0E-04 Ry, force <  1.0E-03 Ry/Bohr)

     End of BFGS Geometry Optimization

     Final energy   =    -786.0365304311 Ry
Begin final coordinates

ATOMIC_POSITIONS (angstrom)
H1       2.465055351   5.073069535   2.766921585
H2       2.465597395   5.894187854   3.039876836
Cr       2.465109071   5.879613900   1.239715189
C        0.000000000   0.000000000   0.000000000    0   0   0
C        0.000000000   1.423340089   0.000000000    0   0   0
C       -1.232648675   2.135010133   0.000000000    0   0   0
C       -1.232648675   3.558350222   0.000000000    0   0   0
C       -2.465297350   4.270020266   0.000000000    0   0   0
C       -2.465297350   5.693360355   0.000000000    0   0   0
C       -3.697946025   6.405030399   0.000000000    0   0   0
C       -3.697946025   7.828370488   0.000000000    0   0   0
C       -4.930594700   8.540040532   0.000000000    0   0   0
C       -4.930594700   9.963380621   0.000000000    0   0   0
C        2.465297350   0.000000000   0.000000000    0   0   0
C        2.465297350   1.423340089   0.000000000    0   0   0
C        1.232648675   2.135010133   0.000000000    0   0   0
C        1.233804582   3.550267896   0.100466328
C        0.000000000   4.270020266   0.000000000    0   0   0
C       -0.028828971   5.684725890   0.009403190
C       -1.232648675   6.405030399   0.000000000    0   0   0
C       -1.232648675   7.828370488   0.000000000    0   0   0
C       -2.465297350   8.540040532   0.000000000    0   0   0
C       -2.465297350   9.963380621   0.000000000    0   0   0
C        4.930594700   0.000000000   0.000000000    0   0   0
C        4.930594700   1.423340089   0.000000000    0   0   0
C        3.697946025   2.135010133   0.000000000    0   0   0
C        3.696888343   3.550229783   0.100452830
C        2.465243874   4.201281881   0.385280593
C        1.151341950   6.429034759   0.151383886
C        1.223613842   7.835937189   0.032668543
C        0.000000000   8.540040532   0.000000000    0   0   0
C        0.000000000   9.963380621   0.000000000    0   0   0
C        7.395892050   0.000000000   0.000000000    0   0   0
C        7.395892050   1.423340089   0.000000000    0   0   0
C        6.163243375   2.135010133   0.000000000    0   0   0
C        6.163243375   3.558350222   0.000000000    0   0   0
C        4.930594700   4.270020266   0.000000000    0   0   0
C        4.959455171   5.684687069   0.009337587
C        3.779212415   6.429009974   0.151794969
C        3.706971864   7.835889031   0.033021690
C        2.465297350   8.540040532   0.000000000    0   0   0
C        2.465297350   9.963380621   0.000000000    0   0   0
C        9.861189400   0.000000000   0.000000000    0   0   0
C        9.861189400   1.423340089   0.000000000    0   0   0
C        8.628540725   2.135010133   0.000000000    0   0   0
C        8.628540725   3.558350222   0.000000000    0   0   0
C        7.395892050   4.270020266   0.000000000    0   0   0
C        7.395892050   5.693360355   0.000000000    0   0   0
C        6.163243375   6.405030399   0.000000000    0   0   0
C        6.163243375   7.828370488   0.000000000    0   0   0
C        4.930594700   8.540040532   0.000000000    0   0   0
C        4.930594700   9.963380621   0.000000000    0   0   0
End final coordinates

     Writing output data file gr-12.save/

     General routines

     Parallel routines

   This run was terminated on:  20:37:56  18May2022

   JOB DONE.