     Program PWSCF v.6.4.1 starts on  6Jan2023 at 20:33:38

     R & G space division:  proc/nbgrp/npool/nimage =       6
     Reading input from distance-1.8.in

     Current dimensions of program PWSCF are:
     Max number of different atomic species (ntypx) = 10
     Max number of k-points (npk) =  40000
     Max angular momentum in pseudopotentials (lmaxx) =  3

     IMPORTANT: XC functional enforced from input :
     Exchange-correlation      = RVV10 ( 1  4 13  4 3 0)
     Any further DFT definition will be discarded
     Please, verify this is what you really want

               file H.pbe-rrkjus.UPF: wavefunction(s)  1S renormalized

     Subspace diagonalization in iterative solution of the eigenvalue problem:
     a serial algorithm will be used

     bravais-lattice index     =            4
     lattice parameter (alat)  =      23.2937  a.u.
     unit-cell volume          =    8879.8548 (a.u.)^3
     number of atoms/cell      =           52
     number of atomic types    =            3
     number of electrons       =       216.00
     number of Kohn-Sham states=          130
     kinetic-energy cutoff     =      70.0000  Ry
     charge density cutoff     =     490.0000  Ry
     convergence threshold     =      1.0E-06
     mixing beta               =       0.7000
     number of iterations used =            8  plain     mixing
     Exchange-correlation      = RVV10 ( 1  4 13  4 3 0)

     celldm(1)=  23.293684  celldm(2)=   0.000000  celldm(3)=   0.811261
     celldm(4)=   0.000000  celldm(5)=   0.000000  celldm(6)=   0.000000

     crystal axes: (cart. coord. in units of alat)
               a(1) = (   1.000000   0.000000   0.000000 )
               a(2) = (  -0.500000   0.866025   0.000000 )
               a(3) = (   0.000000   0.000000   0.811261 )

     reciprocal axes: (cart. coord. in units 2 pi/alat)
               b(1) = (  1.000000  0.577350 -0.000000 )
               b(2) = (  0.000000  1.154701  0.000000 )
               b(3) = (  0.000000 -0.000000  1.232649 )

     PseudoPot. # 1 for H  read from file:
     /home/cristian/Escritorio/Proyecto_Grafeno/pseudopotenciales/H.pbe-rrkjus.UPF
     MD5 check sum: 7cc9d459525c9a0585f487a71c3c9563
     Pseudo is Ultrasoft, Zval =  1.0
     Generated by new atomic code, or converted to UPF format
     Using radial grid of 1061 points,  2 beta functions with:
                l(1) =   0
                l(2) =   0
     Q(r) pseudized with 0 coefficients

     PseudoPot. # 2 for C  read from file:
     /home/cristian/Escritorio/Proyecto_Grafeno/pseudopotenciales/C.pbe-n-rrkjus_psl.1.0.0.UPF
     MD5 check sum: 1fdd950c42eb37d8afe3dd2f8d12311e
     Pseudo is Ultrasoft + core correction, Zval =  4.0
     Generated using "atomic" code by A. Dal Corso v.6.3MaX
     Using radial grid of 1073 points,  4 beta functions with:
                l(1) =   0
                l(2) =   0
                l(3) =   1
                l(4) =   1
     Q(r) pseudized with 0 coefficients

     PseudoPot. # 3 for Ni read from file:
     /home/cristian/Escritorio/Proyecto_Grafeno/pseudopotenciales/Ni.pbe-spn-rrkjus_psl.1.0.0.UPF
     MD5 check sum: 8b3fc9aac6dafe35f580d41bb18c3945
     Pseudo is Ultrasoft + core correction, Zval = 18.0
     Generated using "atomic" code by A. Dal Corso v.6.3
     Using radial grid of 1195 points,  6 beta functions with:
                l(1) =   0
                l(2) =   0
                l(3) =   1
                l(4) =   1
                l(5) =   2
                l(6) =   2
     Q(r) pseudized with 0 coefficients

     vdW kernel table read from file rVV10_kernel_table
     MD5 check sum: b8e2538accc0c0b3206b45ba4daaba6c

     atomic species   valence    mass     pseudopotential
        H              1.00     1.00794     H ( 1.00)
        C              4.00    12.01070     C ( 1.00)
        Ni            18.00    58.69340     Ni( 1.00)

     Starting magnetic structure
     atomic species   magnetization
        H            0.500
        C            0.300
        Ni           0.800

     No symmetry found

                                    s                        frac. trans.

      isym =  1     identity

 cryst.   s( 1) = (     1          0          0      )
                  (     0          1          0      )
                  (     0          0          1      )

 cart.    s( 1) = (  1.0000000  0.0000000  0.0000000 )
                  (  0.0000000  1.0000000  0.0000000 )
                  (  0.0000000  0.0000000  1.0000000 )

     point group C_1 (1)
     there are  1 classes
     the character table:

       E
A      1.00

     the symmetry operations in each class and the name of the first element:

     E        1
          identity

   Cartesian axes

     site n.     atom                  positions (alat units)
         1           H   tau(   1) = (   0.2361603   0.4618802   0.1460270  )
         2           H   tau(   2) = (   0.2971730   0.4618802   0.1460270  )
         3           C   tau(   3) = (   0.0000000   0.0000000   0.0000000  )
         4           C   tau(   4) = (   0.0000000   0.1154701   0.0000000  )
         5           C   tau(   5) = (  -0.1000000   0.1732051   0.0000000  )
         6           C   tau(   6) = (  -0.1000000   0.2886751   0.0000000  )
         7           C   tau(   7) = (  -0.2000000   0.3464102   0.0000000  )
         8           C   tau(   8) = (  -0.2000000   0.4618802   0.0000000  )
         9           C   tau(   9) = (  -0.3000000   0.5196152   0.0000000  )
        10           C   tau(  10) = (  -0.3000000   0.6350853   0.0000000  )
        11           C   tau(  11) = (  -0.4000000   0.6928203   0.0000000  )
        12           C   tau(  12) = (  -0.4000000   0.8082904   0.0000000  )
        13           C   tau(  13) = (   0.2000000   0.0000000   0.0000000  )
        14           C   tau(  14) = (   0.2000000   0.1154701   0.0000000  )
        15           C   tau(  15) = (   0.1000000   0.1732051   0.0000000  )
        16           C   tau(  16) = (   0.1000000   0.2886751   0.0000000  )
        17           C   tau(  17) = (   0.0000000   0.3464102   0.0000000  )
        18           C   tau(  18) = (   0.0000000   0.4618802   0.0000000  )
        19           C   tau(  19) = (  -0.1000000   0.5196152   0.0000000  )
        20           C   tau(  20) = (  -0.1000000   0.6350853   0.0000000  )
        21           C   tau(  21) = (  -0.2000000   0.6928203   0.0000000  )
        22           C   tau(  22) = (  -0.2000000   0.8082904   0.0000000  )
        23           C   tau(  23) = (   0.4000000   0.0000000   0.0000000  )
        24           C   tau(  24) = (   0.4000000   0.1154701   0.0000000  )
        25           C   tau(  25) = (   0.3000000   0.1732051   0.0000000  )
        26           C   tau(  26) = (   0.3000000   0.2886751   0.0000000  )
        27           C   tau(  27) = (   0.2000000   0.3464102   0.0000000  )
        28           Ni  tau(  28) = (   0.2000000   0.4618802   0.0000000  )
        29           C   tau(  29) = (   0.1000000   0.5196152   0.0000000  )
        30           C   tau(  30) = (   0.1000000   0.6350853   0.0000000  )
        31           C   tau(  31) = (   0.0000000   0.6928203   0.0000000  )
        32           C   tau(  32) = (   0.0000000   0.8082904   0.0000000  )
        33           C   tau(  33) = (   0.6000000   0.0000000   0.0000000  )
        34           C   tau(  34) = (   0.6000000   0.1154701   0.0000000  )
        35           C   tau(  35) = (   0.5000000   0.1732051   0.0000000  )
        36           C   tau(  36) = (   0.5000000   0.2886751   0.0000000  )
        37           C   tau(  37) = (   0.4000000   0.3464102   0.0000000  )
        38           C   tau(  38) = (   0.4000000   0.4618802   0.0000000  )
        39           C   tau(  39) = (   0.3000000   0.5196152   0.0000000  )
        40           C   tau(  40) = (   0.3000000   0.6350853   0.0000000  )
        41           C   tau(  41) = (   0.2000000   0.6928203   0.0000000  )
        42           C   tau(  42) = (   0.2000000   0.8082904   0.0000000  )
        43           C   tau(  43) = (   0.8000000   0.0000000   0.0000000  )
        44           C   tau(  44) = (   0.8000000   0.1154701   0.0000000  )
        45           C   tau(  45) = (   0.7000000   0.1732051   0.0000000  )
        46           C   tau(  46) = (   0.7000000   0.2886751   0.0000000  )
        47           C   tau(  47) = (   0.6000000   0.3464102   0.0000000  )
        48           C   tau(  48) = (   0.6000000   0.4618802   0.0000000  )
        49           C   tau(  49) = (   0.5000000   0.5196152   0.0000000  )
        50           C   tau(  50) = (   0.5000000   0.6350853   0.0000000  )
        51           C   tau(  51) = (   0.4000000   0.6928203   0.0000000  )
        52           C   tau(  52) = (   0.4000000   0.8082904   0.0000000  )

   Crystallographic axes

     site n.     atom                  positions (cryst. coord.)
         1           H   tau(   1) = (  0.5028270  0.5333333  0.1800000  )
         2           H   tau(   2) = (  0.5638397  0.5333333  0.1800000  )
         3           C   tau(   3) = (  0.0000000  0.0000000  0.0000000  )
         4           C   tau(   4) = (  0.0666667  0.1333333  0.0000000  )
         5           C   tau(   5) = (  0.0000000  0.2000000  0.0000000  )
         6           C   tau(   6) = (  0.0666667  0.3333333  0.0000000  )
         7           C   tau(   7) = (  0.0000000  0.4000000  0.0000000  )
         8           C   tau(   8) = (  0.0666667  0.5333333  0.0000000  )
         9           C   tau(   9) = (  0.0000000  0.6000000  0.0000000  )
        10           C   tau(  10) = (  0.0666667  0.7333333  0.0000000  )
        11           C   tau(  11) = (  0.0000000  0.8000000  0.0000000  )
        12           C   tau(  12) = (  0.0666667  0.9333333  0.0000000  )
        13           C   tau(  13) = (  0.2000000  0.0000000  0.0000000  )
        14           C   tau(  14) = (  0.2666667  0.1333333  0.0000000  )
        15           C   tau(  15) = (  0.2000000  0.2000000  0.0000000  )
        16           C   tau(  16) = (  0.2666667  0.3333333  0.0000000  )
        17           C   tau(  17) = (  0.2000000  0.4000000  0.0000000  )
        18           C   tau(  18) = (  0.2666667  0.5333333  0.0000000  )
        19           C   tau(  19) = (  0.2000000  0.6000000  0.0000000  )
        20           C   tau(  20) = (  0.2666667  0.7333333  0.0000000  )
        21           C   tau(  21) = (  0.2000000  0.8000000  0.0000000  )
        22           C   tau(  22) = (  0.2666667  0.9333333  0.0000000  )
        23           C   tau(  23) = (  0.4000000  0.0000000  0.0000000  )
        24           C   tau(  24) = (  0.4666667  0.1333333  0.0000000  )
        25           C   tau(  25) = (  0.4000000  0.2000000  0.0000000  )
        26           C   tau(  26) = (  0.4666667  0.3333333  0.0000000  )
        27           C   tau(  27) = (  0.4000000  0.4000000  0.0000000  )
        28           Ni  tau(  28) = (  0.4666667  0.5333333  0.0000000  )
        29           C   tau(  29) = (  0.4000000  0.6000000  0.0000000  )
        30           C   tau(  30) = (  0.4666667  0.7333333  0.0000000  )
[...]
        44           C   tau(  44) = (  0.8666667  0.1333333  0.0000000  )
        45           C   tau(  45) = (  0.8000000  0.2000000  0.0000000  )
        46           C   tau(  46) = (  0.8666667  0.3333333  0.0000000  )
        47           C   tau(  47) = (  0.8000000  0.4000000  0.0000000  )
        48           C   tau(  48) = (  0.8666667  0.5333333  0.0000000  )
        49           C   tau(  49) = (  0.8000000  0.6000000  0.0000000  )
        50           C   tau(  50) = (  0.8666667  0.7333333  0.0000000  )
        51           C   tau(  51) = (  0.8000000  0.8000000  0.0000000  )
        52           C   tau(  52) = (  0.8666667  0.9333333  0.0000000  )

     number of k points=     1  Marzari-Vanderbilt smearing, width (Ry)=  0.0010
                       cart. coord. in units 2pi/alat
        k(    1) = (   0.0000000   0.0000000   0.0000000), wk =   1.0000000

                       cryst. coord.
        k(    1) = (   0.0000000   0.0000000   0.0000000), wk =   1.0000000

     Check: negative core charge=   -0.000002

     Initial potential from superposition of free atoms

     starting charge  215.80530, renormalised to  216.00000

     negative rho (up, down):  1.906E-04 2.112E-02

Carrying out rVV10 run using the following parameters:
Nqs =      20    Nr_points =    1024   r_max =   100.000
b_value =  6.30000    beta =  0.00901
     q_mesh =  0.00010000  0.00030000  0.00058939  0.00100810
               0.00161396  0.00249058  0.00375900  0.00559430
               0.00824984  0.01209221  0.01765183  0.02569619
               0.03733578  0.05417739  0.07854596  0.11380545
               0.16482331  0.23864234  0.34545298  0.50000000

Gradients computed in Reciprocal space

     Starting wfcs are  208 randomized atomic wfcs

     Self-consistent Calculation

     iteration #  1     ecut=    70.00 Ry     beta= 0.70
     Davidson diagonalization with overlap
     ethr =  1.00E-02,  avg # of iterations =  6.5

[...]

     total energy              =    -946.90971726 Ry
     Harris-Foulkes estimate   =    -949.61344341 Ry
     estimated scf accuracy    <      14.06954286 Ry

     total magnetization       =     6.00 Bohr mag/cell
     absolute magnetization    =     6.69 Bohr mag/cell

[...]

     Magnetic moment per site:
     atom:    1    charge:    0.2200    magn:    0.0000    constr:    0.0000
     atom:    2    charge:    0.2186    magn:    0.0000    constr:    0.0000
     atom:    3    charge:    1.7153    magn:   -0.0000    constr:    0.0000
     atom:    4    charge:    1.7153    magn:    0.0000    constr:    0.0000
     atom:    5    charge:    1.7166    magn:   -0.0000    constr:    0.0000
     atom:    6    charge:    1.7144    magn:    0.0000    constr:    0.0000
     atom:    7    charge:    1.7172    magn:    0.0000    constr:    0.0000
     atom:    8    charge:    1.7152    magn:    0.0000    constr:    0.0000
     atom:    9    charge:    1.7157    magn:    0.0000    constr:    0.0000
     atom:   10    charge:    1.7176    magn:    0.0000    constr:    0.0000
     atom:   11    charge:    1.7154    magn:   -0.0000    constr:    0.0000
     atom:   12    charge:    1.7177    magn:   -0.0000    constr:    0.0000
     atom:   13    charge:    1.7156    magn:   -0.0000    constr:    0.0000
     atom:   14    charge:    1.7174    magn:   -0.0000    constr:    0.0000
     atom:   15    charge:    1.7118    magn:   -0.0000    constr:    0.0000
     atom:   16    charge:    1.7115    magn:    0.0000    constr:    0.0000
     atom:   17    charge:    1.7212    magn:   -0.0000    constr:    0.0000
     atom:   18    charge:    1.7114    magn:   -0.0000    constr:    0.0000
     atom:   19    charge:    1.7121    magn:   -0.0000    constr:    0.0000
     atom:   20    charge:    1.7174    magn:    0.0000    constr:    0.0000
     atom:   21    charge:    1.7157    magn:   -0.0000    constr:    0.0000
     atom:   22    charge:    1.7173    magn:    0.0000    constr:    0.0000
     atom:   23    charge:    1.7157    magn:   -0.0000    constr:    0.0000
     atom:   24    charge:    1.7150    magn:    0.0000    constr:    0.0000
     atom:   25    charge:    1.7118    magn:   -0.0000    constr:    0.0000
     atom:   26    charge:    1.7112    magn:   -0.0000    constr:    0.0000
     atom:   27    charge:    1.8226    magn:   -0.0000    constr:    0.0000
     atom:   28    charge:   13.4133    magn:   -0.0000    constr:    0.0000
     atom:   29    charge:    1.8213    magn:    0.0000    constr:    0.0000
     atom:   30    charge:    1.7107    magn:   -0.0000    constr:    0.0000
     atom:   31    charge:    1.7120    magn:   -0.0000    constr:    0.0000
     atom:   32    charge:    1.7151    magn:    0.0000    constr:    0.0000
     atom:   33    charge:    1.7169    magn:    0.0000    constr:    0.0000
     atom:   34    charge:    1.7153    magn:    0.0000    constr:    0.0000
     atom:   35    charge:    1.7168    magn:    0.0000    constr:    0.0000
     atom:   36    charge:    1.7148    magn:   -0.0000    constr:    0.0000
     atom:   37    charge:    1.7201    magn:    0.0000    constr:    0.0000
     atom:   38    charge:    1.7154    magn:    0.0000    constr:    0.0000
     atom:   39    charge:    1.8263    magn:   -0.0000    constr:    0.0000
     atom:   40    charge:    1.7122    magn:    0.0000    constr:    0.0000
     atom:   41    charge:    1.7209    magn:   -0.0000    constr:    0.0000
     atom:   42    charge:    1.7145    magn:    0.0000    constr:    0.0000
     atom:   43    charge:    1.7168    magn:   -0.0000    constr:    0.0000
     atom:   44    charge:    1.7154    magn:   -0.0000    constr:    0.0000
     atom:   45    charge:    1.7215    magn:    0.0000    constr:    0.0000
     atom:   46    charge:    1.7154    magn:   -0.0000    constr:    0.0000
     atom:   47    charge:    1.7165    magn:    0.0000    constr:    0.0000
     atom:   48    charge:    1.7153    magn:   -0.0000    constr:    0.0000
     atom:   49    charge:    1.7114    magn:   -0.0000    constr:    0.0000
     atom:   50    charge:    1.7177    magn:    0.0000    constr:    0.0000
     atom:   51    charge:    1.7115    magn:   -0.0000    constr:    0.0000
     atom:   52    charge:    1.7152    magn:   -0.0000    constr:    0.0000

[...]

     total energy              =    -951.77266528 Ry
     Harris-Foulkes estimate   =    -951.77266549 Ry
     estimated scf accuracy    <       0.00000727 Ry

[...]

     iteration #161     ecut=    70.00 Ry     beta= 0.70
     Davidson diagonalization with overlap
     ethr =  7.42E-10,  avg # of iterations =  2.0

     negative rho (up, down):  1.237E-03 4.458E-05

     Magnetic moment per site:
     atom:    1    charge:    0.2200    magn:   -0.0000    constr:    0.0000
     atom:    2    charge:    0.2186    magn:    0.0000    constr:    0.0000
     atom:    3    charge:    1.7153    magn:   -0.0000    constr:    0.0000
     atom:    4    charge:    1.7153    magn:   -0.0000    constr:    0.0000
     atom:    5    charge:    1.7166    magn:    0.0000    constr:    0.0000
     atom:    6    charge:    1.7144    magn:    0.0000    constr:    0.0000
     atom:    7    charge:    1.7172    magn:    0.0000    constr:    0.0000
     atom:    8    charge:    1.7152    magn:   -0.0000    constr:    0.0000
     atom:    9    charge:    1.7157    magn:    0.0000    constr:    0.0000
     atom:   10    charge:    1.7176    magn:   -0.0000    constr:    0.0000
     atom:   11    charge:    1.7154    magn:   -0.0000    constr:    0.0000
     atom:   12    charge:    1.7178    magn:    0.0000    constr:    0.0000
     atom:   13    charge:    1.7156    magn:   -0.0000    constr:    0.0000
     atom:   14    charge:    1.7174    magn:    0.0000    constr:    0.0000
     atom:   15    charge:    1.7119    magn:   -0.0000    constr:    0.0000
     atom:   16    charge:    1.7115    magn:   -0.0000    constr:    0.0000
     atom:   17    charge:    1.7212    magn:   -0.0000    constr:    0.0000
     atom:   18    charge:    1.7114    magn:   -0.0000    constr:    0.0000
     atom:   19    charge:    1.7121    magn:   -0.0000    constr:    0.0000
     atom:   20    charge:    1.7174    magn:    0.0000    constr:    0.0000
     atom:   21    charge:    1.7157    magn:   -0.0000    constr:    0.0000
     atom:   22    charge:    1.7173    magn:    0.0000    constr:    0.0000
     atom:   23    charge:    1.7157    magn:   -0.0000    constr:    0.0000
     atom:   24    charge:    1.7151    magn:    0.0000    constr:    0.0000
     atom:   25    charge:    1.7118    magn:   -0.0000    constr:    0.0000
     atom:   26    charge:    1.7112    magn:    0.0000    constr:    0.0000
     atom:   27    charge:    1.8227    magn:   -0.0000    constr:    0.0000
     atom:   28    charge:   13.4131    magn:   -0.0000    constr:    0.0000
     atom:   29    charge:    1.8213    magn:   -0.0000    constr:    0.0000
     atom:   30    charge:    1.7107    magn:    0.0000    constr:    0.0000
     atom:   31    charge:    1.7120    magn:   -0.0000    constr:    0.0000
     atom:   32    charge:    1.7151    magn:    0.0000    constr:    0.0000
     atom:   33    charge:    1.7169    magn:   -0.0000    constr:    0.0000
     atom:   34    charge:    1.7153    magn:   -0.0000    constr:    0.0000
     atom:   35    charge:    1.7168    magn:    0.0000    constr:    0.0000
     atom:   36    charge:    1.7148    magn:   -0.0000    constr:    0.0000
     atom:   37    charge:    1.7201    magn:    0.0000    constr:    0.0000
     atom:   38    charge:    1.7154    magn:    0.0000    constr:    0.0000
     atom:   39    charge:    1.8263    magn:    0.0000    constr:    0.0000
     atom:   40    charge:    1.7122    magn:    0.0000    constr:    0.0000
     atom:   41    charge:    1.7209    magn:    0.0000    constr:    0.0000
     atom:   42    charge:    1.7145    magn:    0.0000    constr:    0.0000
     atom:   43    charge:    1.7168    magn:    0.0000    constr:    0.0000
     atom:   44    charge:    1.7154    magn:   -0.0000    constr:    0.0000
     atom:   45    charge:    1.7215    magn:    0.0000    constr:    0.0000
     atom:   46    charge:    1.7153    magn:   -0.0000    constr:    0.0000
     atom:   47    charge:    1.7165    magn:    0.0000    constr:    0.0000
     atom:   48    charge:    1.7153    magn:   -0.0000    constr:    0.0000
     atom:   49    charge:    1.7113    magn:    0.0000    constr:    0.0000
     atom:   50    charge:    1.7177    magn:    0.0000    constr:    0.0000
     atom:   51    charge:    1.7114    magn:    0.0000    constr:    0.0000
     atom:   52    charge:    1.7152    magn:   -0.0000    constr:    0.0000

     End of self-consistent calculation

 ------ SPIN UP ------------

          k = 0.0000 0.0000 0.0000 ( 87777 PWs)   bands (ev):

  -107.9079 -69.1237 -69.0131 -67.0285 -19.8264 -19.0117 -19.0019 -18.8869
   -18.8776 -18.7977 -18.7443 -17.1721 -17.1500 -17.1212 -17.0880 -17.0698
   -16.7543 -16.3129 -16.3030 -16.1669 -16.1611 -16.1452 -15.6839 -14.3277
   -14.2978 -14.1432 -14.0138 -14.0050 -13.5165 -13.1271 -13.1227 -13.0716
   -12.9109 -12.8948 -12.5084 -12.0752 -12.0688 -11.7067 -11.5760 -11.5640
   -10.9535 -10.4314 -10.4257  -9.5774  -9.3630  -9.3569  -9.2212  -9.2094
    -9.2040  -9.1899  -9.1477  -8.9461  -8.8892  -8.5854  -8.5775  -8.4518
    -7.9262  -7.8948  -7.8820  -7.6635  -7.5489  -7.5335  -7.4455  -7.4392
    -7.3867  -6.8386  -6.8192  -6.8145  -6.7412  -6.6191  -6.6072  -6.5479
    -6.5443  -6.5425  -6.5164  -6.4715  -6.4324  -6.4160  -6.2868  -6.2768
    -6.0119  -5.5410  -5.5344  -5.0241  -4.9427  -4.8383  -4.8320  -4.7556
    -4.7234  -4.7107  -4.4055  -4.3940  -4.3714  -3.8471  -3.8342  -3.7591
    -3.7537  -3.7525  -3.5114  -3.4180  -3.4086  -2.6260  -1.8907  -1.8040
    -1.7965  -1.6036  -1.5820  -1.0054   0.0708   0.1346   0.8997   0.9563
     0.9687   1.1939   1.2185   1.5776   2.4877   2.7799   2.8089   2.8580
     3.0037   3.0337   3.3788   3.6117   3.6470   3.7415   3.7444   3.7695
     3.9387   4.1891

     occupation numbers
     1.0000   1.0000   1.0000   1.0000   1.0000   1.0000   1.0000   1.0000
     1.0000   1.0000   1.0000   1.0000   1.0000   1.0000   1.0000   1.0000
     1.0000   1.0000   1.0000   1.0000   1.0000   1.0000   1.0000   1.0000
     1.0000   1.0000   1.0000   1.0000   1.0000   1.0000   1.0000   1.0000
     1.0000   1.0000   1.0000   1.0000   1.0000   1.0000   1.0000   1.0000
     1.0000   1.0000   1.0000   1.0000   1.0000   1.0000   1.0000   1.0000
     1.0000   1.0000   1.0000   1.0000   1.0000   1.0000   1.0000   1.0000
     1.0000   1.0000   1.0000   1.0000   1.0000   1.0000   1.0000   1.0000
     1.0000   1.0000   1.0000   1.0000   1.0000   1.0000   1.0000   1.0000
     1.0000   1.0000   1.0000   1.0000   1.0000   1.0000   1.0000   1.0000
     1.0000   1.0000   1.0000   1.0000   1.0000   1.0000   1.0000   1.0000
     1.0000   1.0000   1.0000   1.0000   1.0000   1.0000   1.0000   1.0000
     1.0000   1.0000   1.0000   1.0000   1.0000   1.0000   1.0000   1.0000
     1.0000   1.0000   1.0000   1.0000   0.0000   0.0000   0.0000   0.0000
     0.0000   0.0000   0.0000   0.0000   0.0000   0.0000   0.0000   0.0000
     0.0000   0.0000   0.0000   0.0000   0.0000   0.0000   0.0000   0.0000
     0.0000   0.0000

 ------ SPIN DOWN ----------

          k = 0.0000 0.0000 0.0000 ( 87777 PWs)   bands (ev):

  -107.9079 -69.1237 -69.0131 -67.0285 -19.8264 -19.0117 -19.0019 -18.8869
   -18.8776 -18.7977 -18.7443 -17.1721 -17.1500 -17.1212 -17.0880 -17.0698
   -16.7543 -16.3129 -16.3030 -16.1669 -16.1611 -16.1452 -15.6839 -14.3277
   -14.2978 -14.1432 -14.0138 -14.0050 -13.5165 -13.1271 -13.1227 -13.0716
   -12.9109 -12.8948 -12.5084 -12.0752 -12.0688 -11.7067 -11.5760 -11.5640
   -10.9535 -10.4314 -10.4257  -9.5774  -9.3630  -9.3569  -9.2212  -9.2094
    -9.2040  -9.1899  -9.1476  -8.9461  -8.8892  -8.5854  -8.5775  -8.4518
    -7.9262  -7.8948  -7.8820  -7.6635  -7.5489  -7.5335  -7.4455  -7.4392
    -7.3867  -6.8386  -6.8192  -6.8145  -6.7412  -6.6191  -6.6072  -6.5479
    -6.5443  -6.5425  -6.5164  -6.4715  -6.4324  -6.4160  -6.2868  -6.2768
    -6.0119  -5.5410  -5.5344  -5.0241  -4.9427  -4.8383  -4.8320  -4.7556
    -4.7234  -4.7107  -4.4055  -4.3940  -4.3714  -3.8471  -3.8342  -3.7591
    -3.7537  -3.7525  -3.5114  -3.4180  -3.4086  -2.6259  -1.8907  -1.8040
    -1.7965  -1.6036  -1.5820  -1.0054   0.0708   0.1346   0.8997   0.9563
     0.9687   1.1939   1.2185   1.5776   2.4877   2.7799   2.8089   2.8580
     3.0037   3.0337   3.3787   3.6117   3.6469   3.7415   3.7444   3.7694
     3.9385   4.1890

     occupation numbers
     1.0000   1.0000   1.0000   1.0000   1.0000   1.0000   1.0000   1.0000
     1.0000   1.0000   1.0000   1.0000   1.0000   1.0000   1.0000   1.0000
     1.0000   1.0000   1.0000   1.0000   1.0000   1.0000   1.0000   1.0000
     1.0000   1.0000   1.0000   1.0000   1.0000   1.0000   1.0000   1.0000
     1.0000   1.0000   1.0000   1.0000   1.0000   1.0000   1.0000   1.0000
     1.0000   1.0000   1.0000   1.0000   1.0000   1.0000   1.0000   1.0000
     1.0000   1.0000   1.0000   1.0000   1.0000   1.0000   1.0000   1.0000
     1.0000   1.0000   1.0000   1.0000   1.0000   1.0000   1.0000   1.0000
     1.0000   1.0000   1.0000   1.0000   1.0000   1.0000   1.0000   1.0000
     1.0000   1.0000   1.0000   1.0000   1.0000   1.0000   1.0000   1.0000
     1.0000   1.0000   1.0000   1.0000   1.0000   1.0000   1.0000   1.0000
     1.0000   1.0000   1.0000   1.0000   1.0000   1.0000   1.0000   1.0000
     1.0000   1.0000   1.0000   1.0000   1.0000   1.0000   1.0000   1.0000
     1.0000   1.0000   1.0000   1.0000   0.0000   0.0000   0.0000   0.0000
     0.0000   0.0000   0.0000   0.0000   0.0000   0.0000   0.0000   0.0000
     0.0000   0.0000   0.0000   0.0000   0.0000   0.0000   0.0000   0.0000
     0.0000   0.0000

     the Fermi energy is    -0.1646 ev

!    total energy              =    -951.77266564 Ry
     Harris-Foulkes estimate   =    -951.77266540 Ry
     estimated scf accuracy    <       0.00000025 Ry

     The total energy is the sum of the following terms:

     one-electron contribution =   -3014.98463394 Ry
     hartree contribution      =    1550.23343105 Ry
     xc contribution           =    -265.87409429 Ry
     ewald contribution        =     778.85263153 Ry
     smearing contrib. (-TS)   =       0.00000000 Ry

     total magnetization       =    -0.00 Bohr mag/cell
     absolute magnetization    =     0.00 Bohr mag/cell

     convergence has been achieved in 161 iterations

     Writing output data file cobre-baricentro-distance-1.8.save/

     General routines

     Parallel routines

   This run was terminated on:   1: 2:11   7Jan2023

   JOB DONE.