     Program PWSCF v.6.4.1 starts on 19Mar2023 at 10:32:20

     R & G space division:  proc/nbgrp/npool/nimage =       6
     Reading input from grafeno-limpio.in

     Current dimensions of program PWSCF are:
     Max number of different atomic species (ntypx) = 10
     Max number of k-points (npk) =  40000
     Max angular momentum in pseudopotentials (lmaxx) =  3

     IMPORTANT: XC functional enforced from input :
     Exchange-correlation      = RVV10 ( 1  4 13  4 3 0)
     Any further DFT definition will be discarded
     Please, verify this is what you really want

     Subspace diagonalization in iterative solution of the eigenvalue problem:
     a serial algorithm will be used

     Found symmetry operation: I + (  0.0000  0.2000  0.0000)
     This is a supercell, fractional translations are disabled

     bravais-lattice index     =            4
     lattice parameter (alat)  =      23.2937  a.u.
     unit-cell volume          =    8879.8548 (a.u.)^3
     number of atoms/cell      =           50
     number of atomic types    =            1
     number of electrons       =       200.00
     number of Kohn-Sham states=          120
     kinetic-energy cutoff     =      70.0000  Ry
     charge density cutoff     =     490.0000  Ry
     convergence threshold     =      1.0E-10
     mixing beta               =       0.7000
     number of iterations used =            8  plain     mixing
     Exchange-correlation      = RVV10 ( 1  4 13  4 3 0)
     nstep                     =           50

     celldm(1)=  23.293684  celldm(2)=   0.000000  celldm(3)=   0.811261
     celldm(4)=   0.000000  celldm(5)=   0.000000  celldm(6)=   0.000000

     crystal axes: (cart. coord. in units of alat)
               a(1) = (   1.000000   0.000000   0.000000 )
               a(2) = (  -0.500000   0.866025   0.000000 )
               a(3) = (   0.000000   0.000000   0.811261 )

     reciprocal axes: (cart. coord. in units 2 pi/alat)
               b(1) = (  1.000000  0.577350 -0.000000 )
               b(2) = (  0.000000  1.154701  0.000000 )
               b(3) = (  0.000000 -0.000000  1.232649 )

     PseudoPot. # 1 for C  read from file:
     /home/cristian/Escritorio/Proyecto_Grafeno/pseudopotenciales/C.pbe-n-rrkjus_psl.1.0.0.UPF
     MD5 check sum: 1fdd950c42eb37d8afe3dd2f8d12311e
     Pseudo is Ultrasoft + core correction, Zval =  4.0
     Generated using "atomic" code by A. Dal Corso v.6.3MaX
     Using radial grid of 1073 points,  4 beta functions with:
                l(1) =   0
                l(2) =   0
                l(3) =   1
                l(4) =   1
     Q(r) pseudized with 0 coefficients

     vdW kernel table read from file rVV10_kernel_table
     MD5 check sum: b8e2538accc0c0b3206b45ba4daaba6c

     atomic species   valence    mass     pseudopotential
        C              4.00    12.01070     C ( 1.00)

     Starting magnetic structure
     atomic species   magnetization
        C            0.300

     12 Sym. Ops. (no inversion) found

                                    s                        frac. trans.

      isym =  1     identity

 cryst.   s( 1) = (     1          0          0      )
                  (     0          1          0      )
                  (     0          0          1      )

 cart.    s( 1) = (  1.0000000  0.0000000  0.0000000 )
                  (  0.0000000  1.0000000  0.0000000 )
                  (  0.0000000  0.0000000  1.0000000 )

      isym =  2     180 deg rotation - cart. axis [0,1,0]

[...]

      isym =  3     120 deg rotation - cryst. axis [0,0,1]

[...]

      isym =  6     180 deg rotation - cryst. axis [2,1,0]

[...]

      isym =  7     inv. 180 deg rotation - cart. axis [0,0,1]

[...]

      isym =  8     inv. 180 deg rotation - cart. axis [1,0,0]

[...]

      isym =  9     inv.  60 deg rotation - cryst. axis [0,0,1]

 cryst.   s( 9) = (    -1         -1          0      )
                  (     1          0          0      )
                  (     0          0         -1      )

 cart.    s( 9) = ( -0.5000000  0.8660254  0.0000000 )
                  ( -0.8660254 -0.5000000  0.0000000 )
                  (  0.0000000  0.0000000 -1.0000000 )

[...]

 cryst.   s(10) = (     0          1          0      )
                  (    -1         -1          0      )
                  (     0          0         -1      )

 cart.    s(10) = ( -0.5000000 -0.8660254  0.0000000 )
                  (  0.8660254 -0.5000000  0.0000000 )
                  (  0.0000000  0.0000000 -1.0000000 )

[...]

      isym = 12     inv. 180 deg rotation - cryst. axis [1,1,0]

 cryst.   s(12) = (     0         -1          0      )
                  (    -1          0          0      )
                  (     0          0          1      )

 cart.    s(12) = (  0.5000000 -0.8660254  0.0000000 )
                  ( -0.8660254 -0.5000000  0.0000000 )
                  (  0.0000000  0.0000000  1.0000000 )

     point group D_3h (-62m)
     there are  6 classes
     the character table:

       E     2C3   3C2   s_h   2S3   3s_v
A'_1   1.00  1.00  1.00  1.00  1.00  1.00
A'_2   1.00  1.00 -1.00  1.00  1.00 -1.00
E'     2.00 -1.00  0.00  2.00 -1.00  0.00
A''1   1.00  1.00  1.00 -1.00 -1.00 -1.00
A''2   1.00  1.00 -1.00 -1.00 -1.00  1.00
E''    2.00 -1.00  0.00 -2.00  1.00  0.00

     the symmetry operations in each class and the name of the first element:

     E        1
          identity
     2C3      3    4
          120 deg rotation - cryst. axis [0,0,1]
     3C2      2    6    5
          180 deg rotation - cart. axis [0,1,0]
     s_h      7
          inv. 180 deg rotation - cart. axis [0,0,1]
     2S3      9   10
          inv.  60 deg rotation - cryst. axis [0,0,1]
     3s_v     8   11   12
          inv. 180 deg rotation - cart. axis [1,0,0]

   Cartesian axes

     site n.     atom                  positions (alat units)
         1           C   tau(   1) = (   0.0000000   0.0000000   0.0000000  )
         2           C   tau(   2) = (   0.0000000   0.1154701   0.0000000  )
         3           C   tau(   3) = (  -0.1000000   0.1732051   0.0000000  )
         4           C   tau(   4) = (  -0.1000000   0.2886751   0.0000000  )
         5           C   tau(   5) = (  -0.2000000   0.3464102   0.0000000  )
         6           C   tau(   6) = (  -0.2000000   0.4618802   0.0000000  )
         7           C   tau(   7) = (  -0.3000000   0.5196152   0.0000000  )
         8           C   tau(   8) = (  -0.3000000   0.6350853   0.0000000  )
         9           C   tau(   9) = (  -0.4000000   0.6928203   0.0000000  )
        10           C   tau(  10) = (  -0.4000000   0.8082904   0.0000000  )
        11           C   tau(  11) = (   0.2000000   0.0000000   0.0000000  )
        12           C   tau(  12) = (   0.2000000   0.1154701   0.0000000  )
        13           C   tau(  13) = (   0.1000000   0.1732051   0.0000000  )
        14           C   tau(  14) = (   0.1000000   0.2886751   0.0000000  )
        15           C   tau(  15) = (   0.0000000   0.3464102   0.0000000  )
        16           C   tau(  16) = (   0.0000000   0.4618802   0.0000000  )
        17           C   tau(  17) = (  -0.1000000   0.5196152   0.0000000  )
        18           C   tau(  18) = (  -0.1000000   0.6350853   0.0000000  )
        19           C   tau(  19) = (  -0.2000000   0.6928203   0.0000000  )
        20           C   tau(  20) = (  -0.2000000   0.8082904   0.0000000  )
        21           C   tau(  21) = (   0.4000000   0.0000000   0.0000000  )
        22           C   tau(  22) = (   0.4000000   0.1154701   0.0000000  )
        23           C   tau(  23) = (   0.3000000   0.1732051   0.0000000  )
        24           C   tau(  24) = (   0.3000000   0.2886751   0.0000000  )
        25           C   tau(  25) = (   0.2000000   0.3464102   0.0000000  )
        26           C   tau(  26) = (   0.2000000   0.4618802   0.0000000  )
        27           C   tau(  27) = (   0.1000000   0.5196152   0.0000000  )
        28           C   tau(  28) = (   0.1000000   0.6350853   0.0000000  )
        29           C   tau(  29) = (   0.0000000   0.6928203   0.0000000  )
        30           C   tau(  30) = (   0.0000000   0.8082904   0.0000000  )
        31           C   tau(  31) = (   0.6000000   0.0000000   0.0000000  )
        32           C   tau(  32) = (   0.6000000   0.1154701   0.0000000  )
        33           C   tau(  33) = (   0.5000000   0.1732051   0.0000000  )
        34           C   tau(  34) = (   0.5000000   0.2886751   0.0000000  )
        35           C   tau(  35) = (   0.4000000   0.3464102   0.0000000  )
        36           C   tau(  36) = (   0.4000000   0.4618802   0.0000000  )
        37           C   tau(  37) = (   0.3000000   0.5196152   0.0000000  )
        38           C   tau(  38) = (   0.3000000   0.6350853   0.0000000  )
        39           C   tau(  39) = (   0.2000000   0.6928203   0.0000000  )
        40           C   tau(  40) = (   0.2000000   0.8082904   0.0000000  )
        41           C   tau(  41) = (   0.8000000   0.0000000   0.0000000  )
        42           C   tau(  42) = (   0.8000000   0.1154701   0.0000000  )
        43           C   tau(  43) = (   0.7000000   0.1732051   0.0000000  )
        44           C   tau(  44) = (   0.7000000   0.2886751   0.0000000  )
        45           C   tau(  45) = (   0.6000000   0.3464102   0.0000000  )
        46           C   tau(  46) = (   0.6000000   0.4618802   0.0000000  )
        47           C   tau(  47) = (   0.5000000   0.5196152   0.0000000  )
        48           C   tau(  48) = (   0.5000000   0.6350853   0.0000000  )
        49           C   tau(  49) = (   0.4000000   0.6928203   0.0000000  )
        50           C   tau(  50) = (   0.4000000   0.8082904   0.0000000  )

   Crystallographic axes

     site n.     atom                  positions (cryst. coord.)
         1           C   tau(   1) = (  0.0000000  0.0000000  0.0000000  )
         2           C   tau(   2) = (  0.0666667  0.1333333  0.0000000  )
         3           C   tau(   3) = (  0.0000000  0.2000000  0.0000000  )
         4           C   tau(   4) = (  0.0666667  0.3333333  0.0000000  )
         5           C   tau(   5) = (  0.0000000  0.4000000  0.0000000  )
         6           C   tau(   6) = (  0.0666667  0.5333333  0.0000000  )
         7           C   tau(   7) = (  0.0000000  0.6000000  0.0000000  )
         8           C   tau(   8) = (  0.0666667  0.7333333  0.0000000  )
         9           C   tau(   9) = (  0.0000000  0.8000000  0.0000000  )
        10           C   tau(  10) = (  0.0666667  0.9333333  0.0000000  )
        11           C   tau(  11) = (  0.2000000  0.0000000  0.0000000  )
        12           C   tau(  12) = (  0.2666667  0.1333333  0.0000000  )
        13           C   tau(  13) = (  0.2000000  0.2000000  0.0000000  )
        14           C   tau(  14) = (  0.2666667  0.3333333  0.0000000  )
        15           C   tau(  15) = (  0.2000000  0.4000000  0.0000000  )
        16           C   tau(  16) = (  0.2666667  0.5333333  0.0000000  )
        17           C   tau(  17) = (  0.2000000  0.6000000  0.0000000  )
[...]
     atom   23 type  1   force =     0.00000028    0.00000016   -0.00000000
     atom   24 type  1   force =    -0.00000181   -0.00000049   -0.00000000
     atom   25 type  1   force =    -0.00000159   -0.00000041   -0.00000000
     atom   26 type  1   force =    -0.00000077    0.00000044   -0.00000000
     atom   27 type  1   force =    -0.00000053    0.00000030   -0.00000000
     atom   28 type  1   force =     0.00000167    0.00000096   -0.00000000
     atom   29 type  1   force =    -0.00000000   -0.00000061   -0.00000000
     atom   30 type  1   force =     0.00000000   -0.00000089   -0.00000000
     atom   31 type  1   force =     0.00000115   -0.00000117   -0.00000000
     atom   32 type  1   force =     0.00000132   -0.00000133   -0.00000000
     atom   33 type  1   force =    -0.00000000   -0.00000324   -0.00000000
     atom   34 type  1   force =    -0.00000000   -0.00000000   -0.00000000
     atom   35 type  1   force =    -0.00000281    0.00000162   -0.00000000
     atom   36 type  1   force =    -0.00000049    0.00000181   -0.00000000
     atom   37 type  1   force =    -0.00000044    0.00000158   -0.00000000
     atom   38 type  1   force =    -0.00000192    0.00000038   -0.00000000
     atom   39 type  1   force =    -0.00000122   -0.00000070   -0.00000000
     atom   40 type  1   force =    -0.00000062   -0.00000185   -0.00000000
     atom   41 type  1   force =    -0.00000091   -0.00000180   -0.00000000
     atom   42 type  1   force =    -0.00000024    0.00000014   -0.00000000
     atom   43 type  1   force =    -0.00000028    0.00000016   -0.00000000
     atom   44 type  1   force =     0.00000181   -0.00000049   -0.00000000
     atom   45 type  1   force =     0.00000281    0.00000162   -0.00000000
     atom   46 type  1   force =     0.00000049    0.00000181   -0.00000000
     atom   47 type  1   force =     0.00000000   -0.00000033   -0.00000000
     atom   48 type  1   force =    -0.00000000   -0.00000028   -0.00000000
     atom   49 type  1   force =    -0.00000202    0.00000012   -0.00000000
     atom   50 type  1   force =     0.00000007    0.00000004   -0.00000000
     The core correction contribution to forces
     atom    1 type  1   force =     0.00000000   -0.00000000    0.00000000
     atom    2 type  1   force =    -0.00000000    0.00000001   -0.00000000
     atom    3 type  1   force =     0.00000001    0.00000000   -0.00000000
     atom    4 type  1   force =    -0.00000000    0.00000000   -0.00000000
     atom    5 type  1   force =     0.00000001    0.00000001   -0.00000000
     atom    6 type  1   force =     0.00000001    0.00000001   -0.00000000
     atom    7 type  1   force =     0.00000001    0.00000000   -0.00000000
     atom    8 type  1   force =     0.00000000   -0.00000000   -0.00000000
     atom    9 type  1   force =     0.00000000    0.00000001    0.00000000
     atom   10 type  1   force =     0.00000000   -0.00000000   -0.00000000
     atom   11 type  1   force =    -0.00000000   -0.00000001   -0.00000000
     atom   12 type  1   force =    -0.00000001   -0.00000001   -0.00000000
     atom   13 type  1   force =    -0.00000001    0.00000000   -0.00000000
     atom   14 type  1   force =     0.00000000    0.00000000   -0.00000000
     atom   15 type  1   force =     0.00000000    0.00000001   -0.00000000
     atom   16 type  1   force =    -0.00000000    0.00000001   -0.00000000
     atom   17 type  1   force =    -0.00000001   -0.00000001   -0.00000000
     atom   18 type  1   force =     0.00000001   -0.00000000   -0.00000000
     atom   19 type  1   force =     0.00000001   -0.00000001    0.00000000
     atom   20 type  1   force =     0.00000000   -0.00000000   -0.00000000
     atom   21 type  1   force =     0.00000000   -0.00000001   -0.00000000
     atom   22 type  1   force =     0.00000000   -0.00000001   -0.00000000
     atom   23 type  1   force =    -0.00000001   -0.00000000   -0.00000000
     atom   24 type  1   force =    -0.00000001    0.00000001   -0.00000000
     atom   25 type  1   force =    -0.00000001    0.00000001   -0.00000000
     atom   26 type  1   force =    -0.00000001    0.00000001   -0.00000000
     atom   27 type  1   force =     0.00000001   -0.00000001   -0.00000000
     atom   28 type  1   force =    -0.00000001   -0.00000000   -0.00000000
     atom   29 type  1   force =     0.00000000    0.00000001    0.00000000
     atom   30 type  1   force =    -0.00000000   -0.00000001   -0.00000000
     atom   31 type  1   force =    -0.00000000   -0.00000001    0.00000000
     atom   32 type  1   force =    -0.00000000   -0.00000001   -0.00000000
     atom   33 type  1   force =     0.00000000    0.00000000   -0.00000000
     atom   34 type  1   force =     0.00000000    0.00000000   -0.00000000
     atom   35 type  1   force =     0.00000000   -0.00000000   -0.00000000
     atom   36 type  1   force =    -0.00000001    0.00000001   -0.00000000
     atom   37 type  1   force =    -0.00000001    0.00000000   -0.00000000
     atom   38 type  1   force =    -0.00000000   -0.00000000   -0.00000000
     atom   39 type  1   force =    -0.00000001   -0.00000001    0.00000000
     atom   40 type  1   force =    -0.00000000   -0.00000000   -0.00000000
     atom   41 type  1   force =     0.00000000   -0.00000001   -0.00000000
     atom   42 type  1   force =     0.00000001   -0.00000001   -0.00000000
     atom   43 type  1   force =     0.00000001   -0.00000000   -0.00000000
     atom   44 type  1   force =     0.00000001    0.00000001   -0.00000000
     atom   45 type  1   force =    -0.00000000   -0.00000000   -0.00000000
     atom   46 type  1   force =     0.00000001    0.00000001   -0.00000000
     atom   47 type  1   force =     0.00000000    0.00000001   -0.00000000
     atom   48 type  1   force =     0.00000000    0.00000002   -0.00000000
     atom   49 type  1   force =    -0.00000000    0.00000001    0.00000000
     atom   50 type  1   force =    -0.00000000   -0.00000000   -0.00000000
     The Hubbard contrib.    to forces
     atom    1 type  1   force =     0.00000000    0.00000000    0.00000000
     atom    2 type  1   force =     0.00000000    0.00000000    0.00000000
     atom    3 type  1   force =     0.00000000    0.00000000    0.00000000
     atom    4 type  1   force =     0.00000000    0.00000000    0.00000000
     atom    5 type  1   force =     0.00000000    0.00000000    0.00000000
     atom    6 type  1   force =     0.00000000    0.00000000    0.00000000
     atom    7 type  1   force =     0.00000000    0.00000000    0.00000000
     atom    8 type  1   force =     0.00000000    0.00000000    0.00000000
     atom    9 type  1   force =     0.00000000    0.00000000    0.00000000
     atom   10 type  1   force =     0.00000000    0.00000000    0.00000000
     atom   11 type  1   force =     0.00000000    0.00000000    0.00000000
     atom   12 type  1   force =     0.00000000    0.00000000    0.00000000
     atom   13 type  1   force =     0.00000000    0.00000000    0.00000000
     atom   14 type  1   force =     0.00000000    0.00000000    0.00000000
     atom   15 type  1   force =     0.00000000    0.00000000    0.00000000
     atom   16 type  1   force =     0.00000000    0.00000000    0.00000000
     atom   17 type  1   force =     0.00000000    0.00000000    0.00000000
     atom   18 type  1   force =     0.00000000    0.00000000    0.00000000
     atom   19 type  1   force =     0.00000000    0.00000000    0.00000000
     atom   20 type  1   force =     0.00000000    0.00000000    0.00000000
     atom   21 type  1   force =     0.00000000    0.00000000    0.00000000
     atom   22 type  1   force =     0.00000000    0.00000000    0.00000000
     atom   23 type  1   force =     0.00000000    0.00000000    0.00000000
     atom   24 type  1   force =     0.00000000    0.00000000    0.00000000
     atom   25 type  1   force =     0.00000000    0.00000000    0.00000000
     atom   26 type  1   force =     0.00000000    0.00000000    0.00000000
     atom   27 type  1   force =     0.00000000    0.00000000    0.00000000
     atom   28 type  1   force =     0.00000000    0.00000000    0.00000000
     atom   29 type  1   force =     0.00000000    0.00000000    0.00000000
     atom   30 type  1   force =     0.00000000    0.00000000    0.00000000
     atom   31 type  1   force =     0.00000000    0.00000000    0.00000000
     atom   32 type  1   force =     0.00000000    0.00000000    0.00000000
     atom   33 type  1   force =     0.00000000    0.00000000    0.00000000
     atom   34 type  1   force =     0.00000000    0.00000000    0.00000000
     atom   35 type  1   force =     0.00000000    0.00000000    0.00000000
     atom   36 type  1   force =     0.00000000    0.00000000    0.00000000
     atom   37 type  1   force =     0.00000000    0.00000000    0.00000000
     atom   38 type  1   force =     0.00000000    0.00000000    0.00000000
     atom   39 type  1   force =     0.00000000    0.00000000    0.00000000
     atom   40 type  1   force =     0.00000000    0.00000000    0.00000000
     atom   41 type  1   force =     0.00000000    0.00000000    0.00000000
     atom   42 type  1   force =     0.00000000    0.00000000    0.00000000
     atom   43 type  1   force =     0.00000000    0.00000000    0.00000000
     atom   44 type  1   force =     0.00000000    0.00000000    0.00000000
     atom   45 type  1   force =     0.00000000    0.00000000    0.00000000
     atom   46 type  1   force =     0.00000000    0.00000000    0.00000000
     atom   47 type  1   force =     0.00000000    0.00000000    0.00000000
     atom   48 type  1   force =     0.00000000    0.00000000    0.00000000
     atom   49 type  1   force =     0.00000000    0.00000000    0.00000000
     atom   50 type  1   force =     0.00000000    0.00000000    0.00000000
     The SCF correction term to forces
     atom    1 type  1   force =     0.00000000   -0.00000000    0.00000000
     atom    2 type  1   force =    -0.00000000    0.00000001    0.00000000
     atom    3 type  1   force =    -0.00000110   -0.00000197    0.00000000
     atom    4 type  1   force =    -0.00000158   -0.00000167    0.00000000
     atom    5 type  1   force =    -0.00000179    0.00000041    0.00000000
     atom    6 type  1   force =    -0.00000078   -0.00000045    0.00000000
     atom    7 type  1   force =    -0.00000054   -0.00000176    0.00000000
     atom    8 type  1   force =    -0.00000224   -0.00000053    0.00000000
     atom    9 type  1   force =    -0.00000226    0.00000003    0.00000000
     atom   10 type  1   force =     0.00000001   -0.00000001    0.00000000
     atom   11 type  1   force =    -0.00000115    0.00000194    0.00000000
     atom   12 type  1   force =    -0.00000039   -0.00000023    0.00000000
     atom   13 type  1   force =     0.00000110   -0.00000197    0.00000000
     atom   14 type  1   force =     0.00000158   -0.00000167    0.00000000
     atom   15 type  1   force =     0.00000000   -0.00000121    0.00000000
     atom   16 type  1   force =    -0.00000000    0.00000203    0.00000000
     atom   17 type  1   force =    -0.00000115   -0.00000066    0.00000000
     atom   18 type  1   force =     0.00000176   -0.00000102    0.00000000
     atom   19 type  1   force =    -0.00000105    0.00000061    0.00000000
     atom   20 type  1   force =    -0.00000066    0.00000220    0.00000000
     atom   21 type  1   force =     0.00000125    0.00000135    0.00000000
     atom   22 type  1   force =     0.00000149    0.00000147    0.00000000
     atom   23 type  1   force =    -0.00000028   -0.00000016    0.00000000
     atom   24 type  1   force =     0.00000202    0.00000056    0.00000000
     atom   25 type  1   force =     0.00000179    0.00000041    0.00000000
     atom   26 type  1   force =     0.00000078   -0.00000045    0.00000000
     atom   27 type  1   force =     0.00000115   -0.00000066    0.00000000
     atom   28 type  1   force =    -0.00000176   -0.00000102    0.00000000
     atom   29 type  1   force =     0.00000000    0.00000132    0.00000000
     atom   30 type  1   force =    -0.00000000    0.00000090    0.00000000
     atom   31 type  1   force =    -0.00000125    0.00000135    0.00000000
     atom   32 type  1   force =    -0.00000149    0.00000147    0.00000000
     atom   33 type  1   force =     0.00000000    0.00000361    0.00000000
     atom   34 type  1   force =    -0.00000000   -0.00000000    0.00000000
     atom   35 type  1   force =     0.00000313   -0.00000181    0.00000000
     atom   36 type  1   force =     0.00000052   -0.00000203    0.00000000
     atom   37 type  1   force =     0.00000054   -0.00000176    0.00000000
     atom   38 type  1   force =     0.00000224   -0.00000053    0.00000000
     atom   39 type  1   force =     0.00000105    0.00000061    0.00000000
     atom   40 type  1   force =     0.00000066    0.00000220    0.00000000
     atom   41 type  1   force =     0.00000115    0.00000194    0.00000000
     atom   42 type  1   force =     0.00000039   -0.00000023    0.00000000
     atom   43 type  1   force =     0.00000028   -0.00000016    0.00000000
     atom   44 type  1   force =    -0.00000202    0.00000056    0.00000000
     atom   45 type  1   force =    -0.00000313   -0.00000181    0.00000000
     atom   46 type  1   force =    -0.00000052   -0.00000203    0.00000000
     atom   47 type  1   force =     0.00000000    0.00000033    0.00000000
     atom   48 type  1   force =    -0.00000000    0.00000045    0.00000000
     atom   49 type  1   force =     0.00000226    0.00000003    0.00000000
     atom   50 type  1   force =    -0.00000001   -0.00000001    0.00000000

     Total force =     0.000002     Total SCF correction =     0.000013
     SCF correction compared to forces is large: reduce conv_thr to get better values

     BFGS Geometry Optimization

     bfgs converged in   1 scf cycles and   0 bfgs steps
     (criteria: energy <  1.0E-04 Ry, force <  1.0E-03 Ry/Bohr)

     End of BFGS Geometry Optimization

     Final energy   =    -623.2573786853 Ry
Begin final coordinates

ATOMIC_POSITIONS (angstrom)
C        0.000000000   0.000000000   0.000000000
C        0.000000000   1.423340089   0.000000000
C       -1.232648675   2.135010133   0.000000000
C       -1.232648675   3.558350222   0.000000000
C       -2.465297350   4.270020266   0.000000000
C       -2.465297350   5.693360355   0.000000000
C       -3.697946025   6.405030399   0.000000000
C       -3.697946025   7.828370488   0.000000000
C       -4.930594700   8.540040532   0.000000000
C       -4.930594700   9.963380621   0.000000000
C        2.465297350   0.000000000   0.000000000
C        2.465297350   1.423340089   0.000000000
C        1.232648675   2.135010133   0.000000000
C        1.232648675   3.558350222   0.000000000
C        0.000000000   4.270020266   0.000000000
C        0.000000000   5.693360355   0.000000000
C       -1.232648675   6.405030399   0.000000000
C       -1.232648675   7.828370488   0.000000000
C       -2.465297350   8.540040532   0.000000000
C       -2.465297350   9.963380621   0.000000000
C        4.930594700   0.000000000   0.000000000
C        4.930594700   1.423340089   0.000000000
C        3.697946025   2.135010133   0.000000000
C        3.697946025   3.558350222   0.000000000
C        2.465297350   4.270020266   0.000000000
C        2.465297350   5.693360355   0.000000000
C        1.232648675   6.405030399   0.000000000
C        1.232648675   7.828370488   0.000000000
C        0.000000000   8.540040532   0.000000000
C        0.000000000   9.963380621   0.000000000
C        7.395892050   0.000000000   0.000000000
C        7.395892050   1.423340089   0.000000000
C        6.163243375   2.135010133   0.000000000
C        6.163243375   3.558350222   0.000000000
C        4.930594700   4.270020266   0.000000000
C        4.930594700   5.693360355   0.000000000
C        3.697946025   6.405030399   0.000000000
C        3.697946025   7.828370488   0.000000000
C        2.465297350   8.540040532   0.000000000
C        2.465297350   9.963380621   0.000000000
C        9.861189400   0.000000000   0.000000000
C        9.861189400   1.423340089   0.000000000
C        8.628540725   2.135010133   0.000000000
C        8.628540725   3.558350222   0.000000000
C        7.395892050   4.270020266   0.000000000
C        7.395892050   5.693360355   0.000000000
C        6.163243375   6.405030399   0.000000000
C        6.163243375   7.828370488   0.000000000
C        4.930594700   8.540040532   0.000000000
C        4.930594700   9.963380621   0.000000000
End final coordinates

     Writing output data file cobre-sustitucion.save/

     General routines

     Parallel routines

   This run was terminated on:  10:53: 3  19Mar2023

   JOB DONE.