     Program PWSCF v.6.4.1 starts on 15Jan2023 at  2:31: 9

     R & G space division:  proc/nbgrp/npool/nimage =       6
     Reading input from distance-2.2.in

     Current dimensions of program PWSCF are:
     Max number of different atomic species (ntypx) = 10
     Max number of k-points (npk) =  40000
     Max angular momentum in pseudopotentials (lmaxx) =  3

     IMPORTANT: XC functional enforced from input :
     Exchange-correlation      = RVV10 ( 1  4 13  4 3 0)
     Any further DFT definition will be discarded
     Please, verify this is what you really want

               file H.pbe-rrkjus.UPF: wavefunction(s)  1S renormalized

     Subspace diagonalization in iterative solution of the eigenvalue problem:
     a serial algorithm will be used

     bravais-lattice index     =            4
     lattice parameter (alat)  =      23.2937  a.u.
     unit-cell volume          =    8879.8548 (a.u.)^3
     number of atoms/cell      =           52
     number of atomic types    =            3
     number of electrons       =       216.00
     number of Kohn-Sham states=          130
     kinetic-energy cutoff     =      70.0000  Ry
     charge density cutoff     =     490.0000  Ry
     convergence threshold     =      1.0E-06
     mixing beta               =       0.7000
     number of iterations used =            8  plain     mixing
     Exchange-correlation      = RVV10 ( 1  4 13  4 3 0)

     celldm(1)=  23.293684  celldm(2)=   0.000000  celldm(3)=   0.811261
     celldm(4)=   0.000000  celldm(5)=   0.000000  celldm(6)=   0.000000

     crystal axes: (cart. coord. in units of alat)
               a(1) = (   1.000000   0.000000   0.000000 )
               a(2) = (  -0.500000   0.866025   0.000000 )
               a(3) = (   0.000000   0.000000   0.811261 )

     reciprocal axes: (cart. coord. in units 2 pi/alat)
               b(1) = (  1.000000  0.577350 -0.000000 )
               b(2) = (  0.000000  1.154701  0.000000 )
               b(3) = (  0.000000 -0.000000  1.232649 )

     PseudoPot. # 1 for H  read from file:
     /home/cristian/Escritorio/Proyecto_Grafeno/pseudopotenciales/H.pbe-rrkjus.UPF
     MD5 check sum: 7cc9d459525c9a0585f487a71c3c9563
     Pseudo is Ultrasoft, Zval =  1.0
     Generated by new atomic code, or converted to UPF format
     Using radial grid of 1061 points,  2 beta functions with:
                l(1) =   0
                l(2) =   0
     Q(r) pseudized with 0 coefficients

     PseudoPot. # 2 for C  read from file:
     /home/cristian/Escritorio/Proyecto_Grafeno/pseudopotenciales/C.pbe-n-rrkjus_psl.1.0.0.UPF
     MD5 check sum: 1fdd950c42eb37d8afe3dd2f8d12311e
     Pseudo is Ultrasoft + core correction, Zval =  4.0
     Generated using "atomic" code by A. Dal Corso v.6.3MaX
     Using radial grid of 1073 points,  4 beta functions with:
                l(1) =   0
                l(2) =   0
                l(3) =   1
                l(4) =   1
     Q(r) pseudized with 0 coefficients

     PseudoPot. # 3 for Ni read from file:
     /home/cristian/Escritorio/Proyecto_Grafeno/pseudopotenciales/Ni.pbe-spn-rrkjus_psl.1.0.0.UPF
     MD5 check sum: 8b3fc9aac6dafe35f580d41bb18c3945
     Pseudo is Ultrasoft + core correction, Zval = 18.0
     Generated using "atomic" code by A. Dal Corso v.6.3
     Using radial grid of 1195 points,  6 beta functions with:
                l(1) =   0
                l(2) =   0
                l(3) =   1
                l(4) =   1
                l(5) =   2
                l(6) =   2
     Q(r) pseudized with 0 coefficients

     vdW kernel table read from file rVV10_kernel_table
     MD5 check sum: b8e2538accc0c0b3206b45ba4daaba6c

     atomic species   valence    mass     pseudopotential
        H              1.00     1.00794     H ( 1.00)
        C              4.00    12.01070     C ( 1.00)
        Ni            18.00    58.69340     Ni( 1.00)

     Starting magnetic structure
     atomic species   magnetization
        H            0.500
        C            0.300
        Ni           0.800

     No symmetry found

                                    s                        frac. trans.

      isym =  1     identity

 cryst.   s( 1) = (     1          0          0      )
                  (     0          1          0      )
                  (     0          0          1      )

 cart.    s( 1) = (  1.0000000  0.0000000  0.0000000 )
                  (  0.0000000  1.0000000  0.0000000 )
                  (  0.0000000  0.0000000  1.0000000 )

     point group C_1 (1)
     there are  1 classes
     the character table:

       E
A      1.00

     the symmetry operations in each class and the name of the first element:

     E        1
          identity

   Cartesian axes

     site n.     atom                  positions (alat units)
         1           H   tau(   1) = (   0.2194937   0.4330127   0.1784775  )
         2           H   tau(   2) = (   0.2805063   0.4330127   0.1784775  )
         3           C   tau(   3) = (   0.0000000   0.0000000   0.0000000  )
         4           C   tau(   4) = (   0.0000000   0.1154701   0.0000000  )
         5           C   tau(   5) = (  -0.1000000   0.1732051   0.0000000  )
         6           C   tau(   6) = (  -0.1000000   0.2886751   0.0000000  )
         7           C   tau(   7) = (  -0.2000000   0.3464102   0.0000000  )
         8           C   tau(   8) = (  -0.2000000   0.4618802   0.0000000  )
         9           C   tau(   9) = (  -0.3000000   0.5196152   0.0000000  )
        10           C   tau(  10) = (  -0.3000000   0.6350853   0.0000000  )
        11           C   tau(  11) = (  -0.4000000   0.6928203   0.0000000  )
        12           C   tau(  12) = (  -0.4000000   0.8082904   0.0000000  )
        13           C   tau(  13) = (   0.2000000   0.0000000   0.0000000  )
        14           C   tau(  14) = (   0.2000000   0.1154701   0.0000000  )
        15           C   tau(  15) = (   0.1000000   0.1732051   0.0000000  )
        16           C   tau(  16) = (   0.1000000   0.2886751   0.0000000  )
        17           C   tau(  17) = (   0.0000000   0.3464102   0.0000000  )
        18           C   tau(  18) = (   0.0000000   0.4618802   0.0000000  )
        19           C   tau(  19) = (  -0.1000000   0.5196152   0.0000000  )
        20           C   tau(  20) = (  -0.1000000   0.6350853   0.0000000  )
        21           C   tau(  21) = (  -0.2000000   0.6928203   0.0000000  )
        22           C   tau(  22) = (  -0.2000000   0.8082904   0.0000000  )
        23           C   tau(  23) = (   0.4000000   0.0000000   0.0000000  )
        24           C   tau(  24) = (   0.4000000   0.1154701   0.0000000  )
        25           C   tau(  25) = (   0.3000000   0.1732051   0.0000000  )
        26           C   tau(  26) = (   0.3000000   0.2886751   0.0000000  )
        27           C   tau(  27) = (   0.2000000   0.3464102   0.0000000  )
        28           Ni  tau(  28) = (   0.2000000   0.4618802   0.0000000  )
        29           C   tau(  29) = (   0.1000000   0.5196152   0.0000000  )
        30           C   tau(  30) = (   0.1000000   0.6350853   0.0000000  )
        31           C   tau(  31) = (   0.0000000   0.6928203   0.0000000  )
        32           C   tau(  32) = (   0.0000000   0.8082904   0.0000000  )
        33           C   tau(  33) = (   0.6000000   0.0000000   0.0000000  )
        34           C   tau(  34) = (   0.6000000   0.1154701   0.0000000  )
        35           C   tau(  35) = (   0.5000000   0.1732051   0.0000000  )
        36           C   tau(  36) = (   0.5000000   0.2886751   0.0000000  )
        37           C   tau(  37) = (   0.4000000   0.3464102   0.0000000  )
        38           C   tau(  38) = (   0.4000000   0.4618802   0.0000000  )
        39           C   tau(  39) = (   0.3000000   0.5196152   0.0000000  )
        40           C   tau(  40) = (   0.3000000   0.6350853   0.0000000  )
        41           C   tau(  41) = (   0.2000000   0.6928203   0.0000000  )
        42           C   tau(  42) = (   0.2000000   0.8082904   0.0000000  )
        43           C   tau(  43) = (   0.8000000   0.0000000   0.0000000  )
        44           C   tau(  44) = (   0.8000000   0.1154701   0.0000000  )
        45           C   tau(  45) = (   0.7000000   0.1732051   0.0000000  )
        46           C   tau(  46) = (   0.7000000   0.2886751   0.0000000  )
        47           C   tau(  47) = (   0.6000000   0.3464102   0.0000000  )
        48           C   tau(  48) = (   0.6000000   0.4618802   0.0000000  )
        49           C   tau(  49) = (   0.5000000   0.5196152   0.0000000  )
        50           C   tau(  50) = (   0.5000000   0.6350853   0.0000000  )
        51           C   tau(  51) = (   0.4000000   0.6928203   0.0000000  )
        52           C   tau(  52) = (   0.4000000   0.8082904   0.0000000  )

   Crystallographic axes

     site n.     atom                  positions (cryst. coord.)
         1           H   tau(   1) = (  0.4694937  0.5000000  0.2200000  )
         2           H   tau(   2) = (  0.5305063  0.5000000  0.2200000  )
         3           C   tau(   3) = (  0.0000000  0.0000000  0.0000000  )
         4           C   tau(   4) = (  0.0666667  0.1333333  0.0000000  )
         5           C   tau(   5) = (  0.0000000  0.2000000  0.0000000  )
         6           C   tau(   6) = (  0.0666667  0.3333333  0.0000000  )
         7           C   tau(   7) = (  0.0000000  0.4000000  0.0000000  )
         8           C   tau(   8) = (  0.0666667  0.5333333  0.0000000  )
         9           C   tau(   9) = (  0.0000000  0.6000000  0.0000000  )
        10           C   tau(  10) = (  0.0666667  0.7333333  0.0000000  )
        11           C   tau(  11) = (  0.0000000  0.8000000  0.0000000  )
        12           C   tau(  12) = (  0.0666667  0.9333333  0.0000000  )
        13           C   tau(  13) = (  0.2000000  0.0000000  0.0000000  )
        14           C   tau(  14) = (  0.2666667  0.1333333  0.0000000  )
        15           C   tau(  15) = (  0.2000000  0.2000000  0.0000000  )
        16           C   tau(  16) = (  0.2666667  0.3333333  0.0000000  )
        17           C   tau(  17) = (  0.2000000  0.4000000  0.0000000  )
        18           C   tau(  18) = (  0.2666667  0.5333333  0.0000000  )
        19           C   tau(  19) = (  0.2000000  0.6000000  0.0000000  )
        20           C   tau(  20) = (  0.2666667  0.7333333  0.0000000  )
        21           C   tau(  21) = (  0.2000000  0.8000000  0.0000000  )
        22           C   tau(  22) = (  0.2666667  0.9333333  0.0000000  )
        23           C   tau(  23) = (  0.4000000  0.0000000  0.0000000  )
        24           C   tau(  24) = (  0.4666667  0.1333333  0.0000000  )
        25           C   tau(  25) = (  0.4000000  0.2000000  0.0000000  )
        26           C   tau(  26) = (  0.4666667  0.3333333  0.0000000  )
        27           C   tau(  27) = (  0.4000000  0.4000000  0.0000000  )
        28           Ni  tau(  28) = (  0.4666667  0.5333333  0.0000000  )
        29           C   tau(  29) = (  0.4000000  0.6000000  0.0000000  )
        30           C   tau(  30) = (  0.4666667  0.7333333  0.0000000  )
        31           C   tau(  31) = (  0.4000000  0.8000000  0.0000000  )
        32           C   tau(  32) = (  0.4666667  0.9333333  0.0000000  )
        33           C   tau(  33) = (  0.6000000  0.0000000  0.0000000  )
        34           C   tau(  34) = (  0.6666667  0.1333333  0.0000000  )
        35           C   tau(  35) = (  0.6000000  0.2000000  0.0000000  )
        36           C   tau(  36) = (  0.6666667  0.3333333  0.0000000  )
        37           C   tau(  37) = (  0.6000000  0.4000000  0.0000000  )
        38           C   tau(  38) = (  0.6666667  0.5333333  0.0000000  )
        39           C   tau(  39) = (  0.6000000  0.6000000  0.0000000  )
        40           C   tau(  40) = (  0.6666667  0.7333333  0.0000000  )
        41           C   tau(  41) = (  0.6000000  0.8000000  0.0000000  )
        42           C   tau(  42) = (  0.6666667  0.9333333  0.0000000  )
        43           C   tau(  43) = (  0.8000000  0.0000000  0.0000000  )
        44           C   tau(  44) = (  0.8666667  0.1333333  0.0000000  )
        45           C   tau(  45) = (  0.8000000  0.2000000  0.0000000  )
        46           C   tau(  46) = (  0.8666667  0.3333333  0.0000000  )
        47           C   tau(  47) = (  0.8000000  0.4000000  0.0000000  )
        48           C   tau(  48) = (  0.8666667  0.5333333  0.0000000  )
        49           C   tau(  49) = (  0.8000000  0.6000000  0.0000000  )
        50           C   tau(  50) = (  0.8666667  0.7333333  0.0000000  )
        51           C   tau(  51) = (  0.8000000  0.8000000  0.0000000  )
        52           C   tau(  52) = (  0.8666667  0.9333333  0.0000000  )

     number of k points=     1  Marzari-Vanderbilt smearing, width (Ry)=  0.0010
                       cart. coord. in units 2pi/alat
        k(    1) = (   0.0000000   0.0000000   0.0000000), wk =   1.0000000

                       cryst. coord.
        k(    1) = (   0.0000000   0.0000000   0.0000000), wk =   1.0000000

     Check: negative core charge=   -0.000002

     Initial potential from superposition of free atoms

     starting charge  215.80530, renormalised to  216.00000

     negative rho (up, down):  1.694E-04 1.868E-02

Carrying out rVV10 run using the following parameters:
Nqs =      20    Nr_points =    1024   r_max =   100.000
b_value =  6.30000    beta =  0.00901
     q_mesh =  0.00010000  0.00030000  0.00058939  0.00100810
               0.00161396  0.00249058  0.00375900  0.00559430
               0.00824984  0.01209221  0.01765183  0.02569619
               0.03733578  0.05417739  0.07854596  0.11380545
               0.16482331  0.23864234  0.34545298  0.50000000

Gradients computed in Reciprocal space

     Starting wfcs are  208 randomized atomic wfcs

     Self-consistent Calculation

     iteration #  1     ecut=    70.00 Ry     beta= 0.70
     Davidson diagonalization with overlap
     ethr =  1.00E-02,  avg # of iterations =  6.5

[...]

     total energy              =    -946.97532462 Ry
     Harris-Foulkes estimate   =    -949.64600034 Ry
     estimated scf accuracy    <      13.87161795 Ry

     total magnetization       =     6.00 Bohr mag/cell
     absolute magnetization    =     6.72 Bohr mag/cell

[...]

     total energy              =    -951.85098231 Ry
     Harris-Foulkes estimate   =    -951.85098161 Ry
     estimated scf accuracy    <       0.00000380 Ry

[...]

     iteration # 45     ecut=    70.00 Ry     beta= 0.70
     Davidson diagonalization with overlap
     ethr =  1.76E-09,  avg # of iterations =  2.0

     negative rho (up, down):  1.233E-03 5.030E-05

     Magnetic moment per site:
     atom:    1    charge:    0.2139    magn:   -0.0000    constr:    0.0000
     atom:    2    charge:    0.2146    magn:    0.0000    constr:    0.0000
     atom:    3    charge:    1.7154    magn:    0.0001    constr:    0.0000
     atom:    4    charge:    1.7153    magn:   -0.0001    constr:    0.0000
     atom:    5    charge:    1.7167    magn:    0.0001    constr:    0.0000
     atom:    6    charge:    1.7145    magn:   -0.0001    constr:    0.0000
     atom:    7    charge:    1.7169    magn:    0.0001    constr:    0.0000
     atom:    8    charge:    1.7152    magn:   -0.0001    constr:    0.0000
     atom:    9    charge:    1.7156    magn:    0.0001    constr:    0.0000
     atom:   10    charge:    1.7176    magn:   -0.0001    constr:    0.0000
     atom:   11    charge:    1.7156    magn:    0.0001    constr:    0.0000
     atom:   12    charge:    1.7178    magn:   -0.0001    constr:    0.0000
     atom:   13    charge:    1.7156    magn:    0.0001    constr:    0.0000
     atom:   14    charge:    1.7176    magn:   -0.0001    constr:    0.0000
     atom:   15    charge:    1.7117    magn:    0.0001    constr:    0.0000
     atom:   16    charge:    1.7114    magn:   -0.0001    constr:    0.0000
     atom:   17    charge:    1.7209    magn:    0.0001    constr:    0.0000
     atom:   18    charge:    1.7113    magn:   -0.0001    constr:    0.0000
     atom:   19    charge:    1.7118    magn:    0.0001    constr:    0.0000
     atom:   20    charge:    1.7175    magn:   -0.0000    constr:    0.0000
     atom:   21    charge:    1.7156    magn:    0.0001    constr:    0.0000
     atom:   22    charge:    1.7176    magn:   -0.0001    constr:    0.0000
     atom:   23    charge:    1.7156    magn:    0.0001    constr:    0.0000
     atom:   24    charge:    1.7152    magn:   -0.0001    constr:    0.0000
     atom:   25    charge:    1.7117    magn:    0.0001    constr:    0.0000
     atom:   26    charge:    1.7117    magn:   -0.0001    constr:    0.0000
     atom:   27    charge:    1.8214    magn:    0.0000    constr:    0.0000
     atom:   28    charge:   13.4091    magn:    0.0002    constr:    0.0000
     atom:   29    charge:    1.8198    magn:    0.0000    constr:    0.0000
     atom:   30    charge:    1.7112    magn:   -0.0001    constr:    0.0000
     atom:   31    charge:    1.7118    magn:    0.0000    constr:    0.0000
     atom:   32    charge:    1.7152    magn:   -0.0001    constr:    0.0000
     atom:   33    charge:    1.7169    magn:    0.0001    constr:    0.0000
     atom:   34    charge:    1.7154    magn:   -0.0002    constr:    0.0000
     atom:   35    charge:    1.7168    magn:    0.0001    constr:    0.0000
     atom:   36    charge:    1.7147    magn:   -0.0001    constr:    0.0000
     atom:   37    charge:    1.7204    magn:    0.0001    constr:    0.0000
     atom:   38    charge:    1.7119    magn:   -0.0001    constr:    0.0000
     atom:   39    charge:    1.8215    magn:    0.0001    constr:    0.0000
     atom:   40    charge:    1.7112    magn:   -0.0001    constr:    0.0000
     atom:   41    charge:    1.7208    magn:    0.0001    constr:    0.0000
     atom:   42    charge:    1.7145    magn:   -0.0001    constr:    0.0000
     atom:   43    charge:    1.7168    magn:    0.0001    constr:    0.0000
     atom:   44    charge:    1.7154    magn:   -0.0002    constr:    0.0000
     atom:   45    charge:    1.7214    magn:    0.0002    constr:    0.0000
     atom:   46    charge:    1.7154    magn:   -0.0002    constr:    0.0000
     atom:   47    charge:    1.7168    magn:    0.0001    constr:    0.0000
     atom:   48    charge:    1.7152    magn:   -0.0001    constr:    0.0000
     atom:   49    charge:    1.7117    magn:    0.0001    constr:    0.0000
     atom:   50    charge:    1.7176    magn:   -0.0001    constr:    0.0000
     atom:   51    charge:    1.7117    magn:    0.0001    constr:    0.0000
     atom:   52    charge:    1.7153    magn:   -0.0001    constr:    0.0000

     End of self-consistent calculation

 ------ SPIN UP ------------

          k = 0.0000 0.0000 0.0000 ( 87777 PWs)   bands (ev):

  -107.8581 -69.0428 -69.0164 -66.9444 -19.8156 -18.9970 -18.9932 -18.8799
   -18.8761 -18.7930 -18.7242 -17.1505 -17.1486 -17.1172 -17.0725 -17.0652
   -16.7425 -16.3000 -16.2985 -16.1558 -16.1541 -16.1410 -15.6599 -14.2973
   -14.2929 -14.1371 -14.0072 -14.0035 -13.5030 -13.1182 -13.1168 -13.0657
   -12.8916 -12.8868 -12.4905 -12.0599 -12.0579 -11.7010 -11.5575 -11.5566
   -10.9230 -10.4091 -10.4077  -9.5613  -9.3553  -9.3528  -9.2151  -9.2007
    -9.2002  -9.1856  -8.9414  -8.9380  -8.5793  -8.5762  -8.4366  -8.1919
    -7.8891  -7.8792  -7.8442  -7.6507  -7.5356  -7.5264  -7.4338  -7.4332
    -7.3296  -6.8313  -6.8130  -6.8113  -6.7377  -6.6099  -6.6049  -6.5442
    -6.5399  -6.5387  -6.5070  -6.4323  -6.4119  -6.4015  -6.2750  -6.2703
    -6.1555  -5.5345  -5.5335  -5.0184  -4.9383  -4.8302  -4.8279  -4.7486
    -4.7111  -4.7064  -4.3924  -4.3861  -4.3749  -3.8310  -3.8275  -3.7552
    -3.7473  -3.7472  -3.4828  -3.4111  -3.4018  -3.1125  -1.8834  -1.7979
    -1.7946  -1.5886  -1.5753  -1.1033   0.1134   0.1388   0.9117   0.9651
     0.9734   1.2157   1.2255   1.5737   2.4927   2.8014   2.8124   2.8636
     3.0267   3.0461   3.4066   3.5367   3.6319   3.7375   3.7403   3.7660
     3.9341   4.2259

     occupation numbers
     1.0000   1.0000   1.0000   1.0000   1.0000   1.0000   1.0000   1.0000
     1.0000   1.0000   1.0000   1.0000   1.0000   1.0000   1.0000   1.0000
     1.0000   1.0000   1.0000   1.0000   1.0000   1.0000   1.0000   1.0000
     1.0000   1.0000   1.0000   1.0000   1.0000   1.0000   1.0000   1.0000
     1.0000   1.0000   1.0000   1.0000   1.0000   1.0000   1.0000   1.0000
     1.0000   1.0000   1.0000   1.0000   1.0000   1.0000   1.0000   1.0000
     1.0000   1.0000   1.0000   1.0000   1.0000   1.0000   1.0000   1.0000
     1.0000   1.0000   1.0000   1.0000   1.0000   1.0000   1.0000   1.0000
     1.0000   1.0000   1.0000   1.0000   1.0000   1.0000   1.0000   1.0000
     1.0000   1.0000   1.0000   1.0000   1.0000   1.0000   1.0000   1.0000
     1.0000   1.0000   1.0000   1.0000   1.0000   1.0000   1.0000   1.0000
     1.0000   1.0000   1.0000   1.0000   1.0000   1.0000   1.0000   1.0000
     1.0000   1.0000   1.0000   1.0000   1.0000   1.0000   1.0000   1.0000
     1.0000   1.0000   1.0000   1.0000   0.0000   0.0000   0.0000   0.0000
     0.0000   0.0000   0.0000   0.0000   0.0000   0.0000   0.0000   0.0000
     0.0000   0.0000   0.0000   0.0000   0.0000   0.0000   0.0000   0.0000
     0.0000   0.0000

 ------ SPIN DOWN ----------

          k = 0.0000 0.0000 0.0000 ( 87777 PWs)   bands (ev):

  -107.8573 -69.0419 -69.0155 -66.9436 -19.8157 -18.9970 -18.9933 -18.8799
   -18.8761 -18.7930 -18.7241 -17.1505 -17.1486 -17.1173 -17.0725 -17.0652
   -16.7425 -16.3000 -16.2985 -16.1558 -16.1541 -16.1409 -15.6598 -14.2973
   -14.2928 -14.1372 -14.0073 -14.0035 -13.5025 -13.1182 -13.1169 -13.0656
   -12.8917 -12.8868 -12.4906 -12.0598 -12.0579 -11.7009 -11.5575 -11.5566
   -10.9230 -10.4090 -10.4076  -9.5614  -9.3553  -9.3528  -9.2151  -9.2007
    -9.2002  -9.1855  -8.9414  -8.9381  -8.5793  -8.5763  -8.4366  -8.1917
    -7.8891  -7.8789  -7.8438  -7.6507  -7.5356  -7.5264  -7.4337  -7.4331
    -7.3294  -6.8314  -6.8130  -6.8112  -6.7375  -6.6099  -6.6049  -6.5442
    -6.5399  -6.5387  -6.5070  -6.4322  -6.4117  -6.4013  -6.2750  -6.2703
    -6.1555  -5.5345  -5.5336  -5.0185  -4.9384  -4.8302  -4.8279  -4.7488
    -4.7109  -4.7062  -4.3923  -4.3861  -4.3747  -3.8311  -3.8275  -3.7548
    -3.7473  -3.7472  -3.4825  -3.4112  -3.4017  -3.1123  -1.8834  -1.7979
    -1.7947  -1.5887  -1.5754  -1.1018   0.1135   0.1389   0.9118   0.9651
     0.9733   1.2159   1.2255   1.5739   2.4926   2.8014   2.8125   2.8640
     3.0267   3.0461   3.4067   3.5368   3.6319   3.7374   3.7401   3.7659
     3.9342   4.2259

     occupation numbers
     1.0000   1.0000   1.0000   1.0000   1.0000   1.0000   1.0000   1.0000
     1.0000   1.0000   1.0000   1.0000   1.0000   1.0000   1.0000   1.0000
     1.0000   1.0000   1.0000   1.0000   1.0000   1.0000   1.0000   1.0000
     1.0000   1.0000   1.0000   1.0000   1.0000   1.0000   1.0000   1.0000
     1.0000   1.0000   1.0000   1.0000   1.0000   1.0000   1.0000   1.0000
     1.0000   1.0000   1.0000   1.0000   1.0000   1.0000   1.0000   1.0000
     1.0000   1.0000   1.0000   1.0000   1.0000   1.0000   1.0000   1.0000
     1.0000   1.0000   1.0000   1.0000   1.0000   1.0000   1.0000   1.0000
     1.0000   1.0000   1.0000   1.0000   1.0000   1.0000   1.0000   1.0000
     1.0000   1.0000   1.0000   1.0000   1.0000   1.0000   1.0000   1.0000
     1.0000   1.0000   1.0000   1.0000   1.0000   1.0000   1.0000   1.0000
     1.0000   1.0000   1.0000   1.0000   1.0000   1.0000   1.0000   1.0000
     1.0000   1.0000   1.0000   1.0000   1.0000   1.0000   1.0000   1.0000
     1.0000   1.0000   1.0000   1.0000   0.0000   0.0000   0.0000   0.0000
     0.0000   0.0000   0.0000   0.0000   0.0000   0.0000   0.0000   0.0000
     0.0000   0.0000   0.0000   0.0000   0.0000   0.0000   0.0000   0.0000
     0.0000   0.0000

     the Fermi energy is    -1.0034 ev

!    total energy              =    -951.85098234 Ry
     Harris-Foulkes estimate   =    -951.85098266 Ry
     estimated scf accuracy    <       0.00000100 Ry

     The total energy is the sum of the following terms:

     one-electron contribution =   -3001.59417073 Ry
     hartree contribution      =    1543.59933947 Ry
     xc contribution           =    -265.79721074 Ry
     ewald contribution        =     771.94105966 Ry
     smearing contrib. (-TS)   =       0.00000000 Ry

     total magnetization       =    -0.00 Bohr mag/cell
     absolute magnetization    =     0.01 Bohr mag/cell

     convergence has been achieved in  45 iterations

     Writing output data file cobre-bridge2-distance-2.2.save/

     General routines

     Parallel routines

   This run was terminated on:   3:49:37  15Jan2023

   JOB DONE.