     Program PWSCF v.6.4.1 starts on 15Jan2023 at  3:49:37

     R & G space division:  proc/nbgrp/npool/nimage =       6
     Reading input from distance-2.0.in

     Current dimensions of program PWSCF are:
     Max number of different atomic species (ntypx) = 10
     Max number of k-points (npk) =  40000
     Max angular momentum in pseudopotentials (lmaxx) =  3

     IMPORTANT: XC functional enforced from input :
     Exchange-correlation      = RVV10 ( 1  4 13  4 3 0)
     Any further DFT definition will be discarded
     Please, verify this is what you really want

               file H.pbe-rrkjus.UPF: wavefunction(s)  1S renormalized

     Subspace diagonalization in iterative solution of the eigenvalue problem:
     a serial algorithm will be used

     bravais-lattice index     =            4
     lattice parameter (alat)  =      23.2937  a.u.
     unit-cell volume          =    8879.8548 (a.u.)^3
     number of atoms/cell      =           52
     number of atomic types    =            3
     number of electrons       =       216.00
     number of Kohn-Sham states=          130
     kinetic-energy cutoff     =      70.0000  Ry
     charge density cutoff     =     490.0000  Ry
     convergence threshold     =      1.0E-06
     mixing beta               =       0.7000
     number of iterations used =            8  plain     mixing
     Exchange-correlation      = RVV10 ( 1  4 13  4 3 0)

     celldm(1)=  23.293684  celldm(2)=   0.000000  celldm(3)=   0.811261
     celldm(4)=   0.000000  celldm(5)=   0.000000  celldm(6)=   0.000000

     crystal axes: (cart. coord. in units of alat)
               a(1) = (   1.000000   0.000000   0.000000 )
               a(2) = (  -0.500000   0.866025   0.000000 )
               a(3) = (   0.000000   0.000000   0.811261 )

     reciprocal axes: (cart. coord. in units 2 pi/alat)
               b(1) = (  1.000000  0.577350 -0.000000 )
               b(2) = (  0.000000  1.154701  0.000000 )
               b(3) = (  0.000000 -0.000000  1.232649 )

     PseudoPot. # 1 for H  read from file:
     /home/cristian/Escritorio/Proyecto_Grafeno/pseudopotenciales/H.pbe-rrkjus.UPF
     MD5 check sum: 7cc9d459525c9a0585f487a71c3c9563
     Pseudo is Ultrasoft, Zval =  1.0
     Generated by new atomic code, or converted to UPF format
     Using radial grid of 1061 points,  2 beta functions with:
                l(1) =   0
                l(2) =   0
     Q(r) pseudized with 0 coefficients

     PseudoPot. # 2 for C  read from file:
     /home/cristian/Escritorio/Proyecto_Grafeno/pseudopotenciales/C.pbe-n-rrkjus_psl.1.0.0.UPF
     MD5 check sum: 1fdd950c42eb37d8afe3dd2f8d12311e
     Pseudo is Ultrasoft + core correction, Zval =  4.0
     Generated using "atomic" code by A. Dal Corso v.6.3MaX
     Using radial grid of 1073 points,  4 beta functions with:
                l(1) =   0
                l(2) =   0
                l(3) =   1
                l(4) =   1
     Q(r) pseudized with 0 coefficients

     PseudoPot. # 3 for Ni read from file:
     /home/cristian/Escritorio/Proyecto_Grafeno/pseudopotenciales/Ni.pbe-spn-rrkjus_psl.1.0.0.UPF
     MD5 check sum: 8b3fc9aac6dafe35f580d41bb18c3945
     Pseudo is Ultrasoft + core correction, Zval = 18.0
     Generated using "atomic" code by A. Dal Corso v.6.3
     Using radial grid of 1195 points,  6 beta functions with:
                l(1) =   0
                l(2) =   0
                l(3) =   1
                l(4) =   1
                l(5) =   2
                l(6) =   2
     Q(r) pseudized with 0 coefficients

     vdW kernel table read from file rVV10_kernel_table
     MD5 check sum: b8e2538accc0c0b3206b45ba4daaba6c

     atomic species   valence    mass     pseudopotential
        H              1.00     1.00794     H ( 1.00)
        C              4.00    12.01070     C ( 1.00)
        Ni            18.00    58.69340     Ni( 1.00)

     Starting magnetic structure
     atomic species   magnetization
        H            0.500
        C            0.300
        Ni           0.800

     No symmetry found

                                    s                        frac. trans.

      isym =  1     identity

 cryst.   s( 1) = (     1          0          0      )
                  (     0          1          0      )
                  (     0          0          1      )

 cart.    s( 1) = (  1.0000000  0.0000000  0.0000000 )
                  (  0.0000000  1.0000000  0.0000000 )
                  (  0.0000000  0.0000000  1.0000000 )

     point group C_1 (1)
     there are  1 classes
     the character table:

       E
A      1.00

     the symmetry operations in each class and the name of the first element:

     E        1
          identity

   Cartesian axes

     site n.     atom                  positions (alat units)
         1           H   tau(   1) = (   0.2194937   0.4330127   0.1622522  )
         2           H   tau(   2) = (   0.2805063   0.4330127   0.1622522  )
         3           C   tau(   3) = (   0.0000000   0.0000000   0.0000000  )
         4           C   tau(   4) = (   0.0000000   0.1154701   0.0000000  )
         5           C   tau(   5) = (  -0.1000000   0.1732051   0.0000000  )
         6           C   tau(   6) = (  -0.1000000   0.2886751   0.0000000  )
         7           C   tau(   7) = (  -0.2000000   0.3464102   0.0000000  )
         8           C   tau(   8) = (  -0.2000000   0.4618802   0.0000000  )
         9           C   tau(   9) = (  -0.3000000   0.5196152   0.0000000  )
        10           C   tau(  10) = (  -0.3000000   0.6350853   0.0000000  )
        11           C   tau(  11) = (  -0.4000000   0.6928203   0.0000000  )
        12           C   tau(  12) = (  -0.4000000   0.8082904   0.0000000  )
        13           C   tau(  13) = (   0.2000000   0.0000000   0.0000000  )
        14           C   tau(  14) = (   0.2000000   0.1154701   0.0000000  )
        15           C   tau(  15) = (   0.1000000   0.1732051   0.0000000  )
        16           C   tau(  16) = (   0.1000000   0.2886751   0.0000000  )
        17           C   tau(  17) = (   0.0000000   0.3464102   0.0000000  )
        18           C   tau(  18) = (   0.0000000   0.4618802   0.0000000  )
        19           C   tau(  19) = (  -0.1000000   0.5196152   0.0000000  )
        20           C   tau(  20) = (  -0.1000000   0.6350853   0.0000000  )
        21           C   tau(  21) = (  -0.2000000   0.6928203   0.0000000  )
        22           C   tau(  22) = (  -0.2000000   0.8082904   0.0000000  )
        23           C   tau(  23) = (   0.4000000   0.0000000   0.0000000  )
        24           C   tau(  24) = (   0.4000000   0.1154701   0.0000000  )
        25           C   tau(  25) = (   0.3000000   0.1732051   0.0000000  )
        26           C   tau(  26) = (   0.3000000   0.2886751   0.0000000  )
        27           C   tau(  27) = (   0.2000000   0.3464102   0.0000000  )
        28           Ni  tau(  28) = (   0.2000000   0.4618802   0.0000000  )
        29           C   tau(  29) = (   0.1000000   0.5196152   0.0000000  )
        30           C   tau(  30) = (   0.1000000   0.6350853   0.0000000  )
        31           C   tau(  31) = (   0.0000000   0.6928203   0.0000000  )
        32           C   tau(  32) = (   0.0000000   0.8082904   0.0000000  )
        33           C   tau(  33) = (   0.6000000   0.0000000   0.0000000  )
        34           C   tau(  34) = (   0.6000000   0.1154701   0.0000000  )
        35           C   tau(  35) = (   0.5000000   0.1732051   0.0000000  )
        36           C   tau(  36) = (   0.5000000   0.2886751   0.0000000  )
        37           C   tau(  37) = (   0.4000000   0.3464102   0.0000000  )
        38           C   tau(  38) = (   0.4000000   0.4618802   0.0000000  )
        39           C   tau(  39) = (   0.3000000   0.5196152   0.0000000  )
        40           C   tau(  40) = (   0.3000000   0.6350853   0.0000000  )
        41           C   tau(  41) = (   0.2000000   0.6928203   0.0000000  )
        42           C   tau(  42) = (   0.2000000   0.8082904   0.0000000  )
        43           C   tau(  43) = (   0.8000000   0.0000000   0.0000000  )
        44           C   tau(  44) = (   0.8000000   0.1154701   0.0000000  )
        45           C   tau(  45) = (   0.7000000   0.1732051   0.0000000  )
        46           C   tau(  46) = (   0.7000000   0.2886751   0.0000000  )
        47           C   tau(  47) = (   0.6000000   0.3464102   0.0000000  )
        48           C   tau(  48) = (   0.6000000   0.4618802   0.0000000  )
        49           C   tau(  49) = (   0.5000000   0.5196152   0.0000000  )
        50           C   tau(  50) = (   0.5000000   0.6350853   0.0000000  )
        51           C   tau(  51) = (   0.4000000   0.6928203   0.0000000  )
        52           C   tau(  52) = (   0.4000000   0.8082904   0.0000000  )

   Crystallographic axes

     site n.     atom                  positions (cryst. coord.)
         1           H   tau(   1) = (  0.4694937  0.5000000  0.2000000  )
         2           H   tau(   2) = (  0.5305063  0.5000000  0.2000000  )
         3           C   tau(   3) = (  0.0000000  0.0000000  0.0000000  )
         4           C   tau(   4) = (  0.0666667  0.1333333  0.0000000  )
         5           C   tau(   5) = (  0.0000000  0.2000000  0.0000000  )
         6           C   tau(   6) = (  0.0666667  0.3333333  0.0000000  )
         7           C   tau(   7) = (  0.0000000  0.4000000  0.0000000  )
         8           C   tau(   8) = (  0.0666667  0.5333333  0.0000000  )
         9           C   tau(   9) = (  0.0000000  0.6000000  0.0000000  )
        10           C   tau(  10) = (  0.0666667  0.7333333  0.0000000  )
        11           C   tau(  11) = (  0.0000000  0.8000000  0.0000000  )
        12           C   tau(  12) = (  0.0666667  0.9333333  0.0000000  )
        13           C   tau(  13) = (  0.2000000  0.0000000  0.0000000  )
        14           C   tau(  14) = (  0.2666667  0.1333333  0.0000000  )
        15           C   tau(  15) = (  0.2000000  0.2000000  0.0000000  )
        16           C   tau(  16) = (  0.2666667  0.3333333  0.0000000  )
        17           C   tau(  17) = (  0.2000000  0.4000000  0.0000000  )
        18           C   tau(  18) = (  0.2666667  0.5333333  0.0000000  )
        19           C   tau(  19) = (  0.2000000  0.6000000  0.0000000  )
        20           C   tau(  20) = (  0.2666667  0.7333333  0.0000000  )
        21           C   tau(  21) = (  0.2000000  0.8000000  0.0000000  )
        22           C   tau(  22) = (  0.2666667  0.9333333  0.0000000  )
        23           C   tau(  23) = (  0.4000000  0.0000000  0.0000000  )
        24           C   tau(  24) = (  0.4666667  0.1333333  0.0000000  )
        25           C   tau(  25) = (  0.4000000  0.2000000  0.0000000  )
        26           C   tau(  26) = (  0.4666667  0.3333333  0.0000000  )
        27           C   tau(  27) = (  0.4000000  0.4000000  0.0000000  )
        28           Ni  tau(  28) = (  0.4666667  0.5333333  0.0000000  )
        29           C   tau(  29) = (  0.4000000  0.6000000  0.0000000  )
        30           C   tau(  30) = (  0.4666667  0.7333333  0.0000000  )
        31           C   tau(  31) = (  0.4000000  0.8000000  0.0000000  )
        32           C   tau(  32) = (  0.4666667  0.9333333  0.0000000  )
        33           C   tau(  33) = (  0.6000000  0.0000000  0.0000000  )
        34           C   tau(  34) = (  0.6666667  0.1333333  0.0000000  )
        35           C   tau(  35) = (  0.6000000  0.2000000  0.0000000  )
        36           C   tau(  36) = (  0.6666667  0.3333333  0.0000000  )
        37           C   tau(  37) = (  0.6000000  0.4000000  0.0000000  )
        38           C   tau(  38) = (  0.6666667  0.5333333  0.0000000  )
        39           C   tau(  39) = (  0.6000000  0.6000000  0.0000000  )
        40           C   tau(  40) = (  0.6666667  0.7333333  0.0000000  )
        41           C   tau(  41) = (  0.6000000  0.8000000  0.0000000  )
        42           C   tau(  42) = (  0.6666667  0.9333333  0.0000000  )
        43           C   tau(  43) = (  0.8000000  0.0000000  0.0000000  )
        44           C   tau(  44) = (  0.8666667  0.1333333  0.0000000  )
        45           C   tau(  45) = (  0.8000000  0.2000000  0.0000000  )
        46           C   tau(  46) = (  0.8666667  0.3333333  0.0000000  )
        47           C   tau(  47) = (  0.8000000  0.4000000  0.0000000  )
        48           C   tau(  48) = (  0.8666667  0.5333333  0.0000000  )
        49           C   tau(  49) = (  0.8000000  0.6000000  0.0000000  )
        50           C   tau(  50) = (  0.8666667  0.7333333  0.0000000  )
        51           C   tau(  51) = (  0.8000000  0.8000000  0.0000000  )
        52           C   tau(  52) = (  0.8666667  0.9333333  0.0000000  )

     number of k points=     1  Marzari-Vanderbilt smearing, width (Ry)=  0.0010
                       cart. coord. in units 2pi/alat
        k(    1) = (   0.0000000   0.0000000   0.0000000), wk =   1.0000000

                       cryst. coord.
        k(    1) = (   0.0000000   0.0000000   0.0000000), wk =   1.0000000

     Check: negative core charge=   -0.000002

     Initial potential from superposition of free atoms

     starting charge  215.80530, renormalised to  216.00000

     negative rho (up, down):  1.788E-04 1.984E-02

Carrying out rVV10 run using the following parameters:
Nqs =      20    Nr_points =    1024   r_max =   100.000
b_value =  6.30000    beta =  0.00901
     q_mesh =  0.00010000  0.00030000  0.00058939  0.00100810
               0.00161396  0.00249058  0.00375900  0.00559430
               0.00824984  0.01209221  0.01765183  0.02569619
               0.03733578  0.05417739  0.07854596  0.11380545
               0.16482331  0.23864234  0.34545298  0.50000000

Gradients computed in Reciprocal space

     Starting wfcs are  208 randomized atomic wfcs

     Self-consistent Calculation

     iteration #  1     ecut=    70.00 Ry     beta= 0.70
     Davidson diagonalization with overlap
     ethr =  1.00E-02,  avg # of iterations =  7.0

[...]

     total energy              =    -946.99558099 Ry
     Harris-Foulkes estimate   =    -949.62661883 Ry
     estimated scf accuracy    <      13.88549517 Ry

     total magnetization       =     6.00 Bohr mag/cell
     absolute magnetization    =     6.71 Bohr mag/cell

[...]

     total energy              =    -951.82115010 Ry
     Harris-Foulkes estimate   =    -951.82115015 Ry
     estimated scf accuracy    <       0.00000148 Ry

[...]

     iteration # 87     ecut=    70.00 Ry     beta= 0.70
     Davidson diagonalization with overlap
     ethr =  6.86E-10,  avg # of iterations =  1.5

     negative rho (up, down):  1.241E-03 2.446E-04

     Magnetic moment per site:
     atom:    1    charge:    0.2163    magn:    0.0000    constr:    0.0000
     atom:    2    charge:    0.2171    magn:    0.0002    constr:    0.0000
     atom:    3    charge:    1.7154    magn:    0.0008    constr:    0.0000
     atom:    4    charge:    1.7153    magn:   -0.0004    constr:    0.0000
     atom:    5    charge:    1.7167    magn:    0.0011    constr:    0.0000
     atom:    6    charge:    1.7145    magn:   -0.0002    constr:    0.0000
     atom:    7    charge:    1.7170    magn:    0.0012    constr:    0.0000
     atom:    8    charge:    1.7152    magn:   -0.0004    constr:    0.0000
     atom:    9    charge:    1.7156    magn:    0.0009    constr:    0.0000
     atom:   10    charge:    1.7175    magn:   -0.0002    constr:    0.0000
     atom:   11    charge:    1.7155    magn:    0.0002    constr:    0.0000
     atom:   12    charge:    1.7178    magn:   -0.0002    constr:    0.0000
     atom:   13    charge:    1.7155    magn:    0.0002    constr:    0.0000
     atom:   14    charge:    1.7175    magn:    0.0001    constr:    0.0000
     atom:   15    charge:    1.7118    magn:    0.0001    constr:    0.0000
     atom:   16    charge:    1.7115    magn:   -0.0002    constr:    0.0000
     atom:   17    charge:    1.7211    magn:    0.0026    constr:    0.0000
     atom:   18    charge:    1.7113    magn:   -0.0002    constr:    0.0000
     atom:   19    charge:    1.7119    magn:    0.0001    constr:    0.0000
     atom:   20    charge:    1.7175    magn:    0.0001    constr:    0.0000
     atom:   21    charge:    1.7157    magn:    0.0003    constr:    0.0000
     atom:   22    charge:    1.7175    magn:   -0.0002    constr:    0.0000
     atom:   23    charge:    1.7156    magn:    0.0009    constr:    0.0000
     atom:   24    charge:    1.7152    magn:   -0.0004    constr:    0.0000
     atom:   25    charge:    1.7116    magn:    0.0001    constr:    0.0000
     atom:   26    charge:    1.7121    magn:   -0.0002    constr:    0.0000
     atom:   27    charge:    1.8230    magn:    0.0022    constr:    0.0000
     atom:   28    charge:   13.4107    magn:    0.0001    constr:    0.0000
     atom:   29    charge:    1.8204    magn:    0.0021    constr:    0.0000
     atom:   30    charge:    1.7111    magn:   -0.0002    constr:    0.0000
     atom:   31    charge:    1.7119    magn:    0.0001    constr:    0.0000
     atom:   32    charge:    1.7151    magn:   -0.0004    constr:    0.0000
     atom:   33    charge:    1.7170    magn:    0.0012    constr:    0.0000
     atom:   34    charge:    1.7153    magn:   -0.0006    constr:    0.0000
     atom:   35    charge:    1.7168    magn:    0.0010    constr:    0.0000
     atom:   36    charge:    1.7148    magn:   -0.0001    constr:    0.0000
     atom:   37    charge:    1.7203    magn:    0.0023    constr:    0.0000
     atom:   38    charge:    1.7124    magn:   -0.0003    constr:    0.0000
     atom:   39    charge:    1.8234    magn:    0.0024    constr:    0.0000
     atom:   40    charge:    1.7113    magn:   -0.0003    constr:    0.0000
     atom:   41    charge:    1.7210    magn:    0.0027    constr:    0.0000
     atom:   42    charge:    1.7145    magn:   -0.0002    constr:    0.0000
     atom:   43    charge:    1.7168    magn:    0.0012    constr:    0.0000
     atom:   44    charge:    1.7154    magn:   -0.0006    constr:    0.0000
     atom:   45    charge:    1.7214    magn:    0.0047    constr:    0.0000
     atom:   46    charge:    1.7153    magn:   -0.0006    constr:    0.0000
     atom:   47    charge:    1.7167    magn:    0.0010    constr:    0.0000
     atom:   48    charge:    1.7152    magn:   -0.0003    constr:    0.0000
     atom:   49    charge:    1.7117    magn:    0.0001    constr:    0.0000
     atom:   50    charge:    1.7175    magn:    0.0000    constr:    0.0000
     atom:   51    charge:    1.7117    magn:    0.0001    constr:    0.0000
     atom:   52    charge:    1.7153    magn:   -0.0004    constr:    0.0000

     End of self-consistent calculation

 ------ SPIN UP ------------

          k = 0.0000 0.0000 0.0000 ( 87777 PWs)   bands (ev):

  -107.8617 -69.0578 -69.0050 -66.9574 -19.8187 -19.0003 -18.9956 -18.8823
   -18.8762 -18.7944 -18.7303 -17.1543 -17.1489 -17.1182 -17.0783 -17.0662
   -16.7461 -16.3022 -16.2995 -16.1590 -16.1561 -16.1427 -15.6671 -14.3032
   -14.2938 -14.1385 -14.0091 -14.0034 -13.5085 -13.1208 -13.1182 -13.0672
   -12.8969 -12.8882 -12.4959 -12.0627 -12.0600 -11.7030 -11.5616 -11.5591
   -10.9319 -10.4130 -10.4108  -9.5631  -9.3578  -9.3538  -9.2158  -9.2020
    -9.2011  -9.1868  -8.9531  -8.9400  -8.5943  -8.5773  -8.4924  -8.4322
    -7.8941  -7.8900  -7.8778  -7.6540  -7.5455  -7.5272  -7.4354  -7.4344
    -7.4128  -6.8324  -6.8158  -6.8126  -6.7400  -6.6127  -6.6052  -6.5448
    -6.5408  -6.5394  -6.5093  -6.4473  -6.4210  -6.4034  -6.2778  -6.2704
    -6.1071  -5.5359  -5.5339  -5.0197  -4.9392  -4.8318  -4.8282  -4.7503
    -4.7175  -4.7092  -4.3951  -4.3886  -4.3727  -3.8363  -3.8302  -3.7594
    -3.7488  -3.7484  -3.4582  -3.4184  -3.4033  -2.8897  -1.8868  -1.8001
    -1.7953  -1.6001  -1.5779  -1.0786   0.0886   0.1400   0.9076   0.9599
     0.9715   1.2066   1.2231   1.5775   2.4874   2.7941   2.8100   2.8591
     3.0141   3.0410   3.4129   3.5554   3.6406   3.7381   3.7408   3.7663
     3.9322   4.2058

     occupation numbers
     1.0000   1.0000   1.0000   1.0000   1.0000   1.0000   1.0000   1.0000
     1.0000   1.0000   1.0000   1.0000   1.0000   1.0000   1.0000   1.0000
     1.0000   1.0000   1.0000   1.0000   1.0000   1.0000   1.0000   1.0000
     1.0000   1.0000   1.0000   1.0000   1.0000   1.0000   1.0000   1.0000
     1.0000   1.0000   1.0000   1.0000   1.0000   1.0000   1.0000   1.0000
     1.0000   1.0000   1.0000   1.0000   1.0000   1.0000   1.0000   1.0000
     1.0000   1.0000   1.0000   1.0000   1.0000   1.0000   1.0000   1.0000
     1.0000   1.0000   1.0000   1.0000   1.0000   1.0000   1.0000   1.0000
     1.0000   1.0000   1.0000   1.0000   1.0000   1.0000   1.0000   1.0000
     1.0000   1.0000   1.0000   1.0000   1.0000   1.0000   1.0000   1.0000
     1.0000   1.0000   1.0000   1.0000   1.0000   1.0000   1.0000   1.0000
     1.0000   1.0000   1.0000   1.0000   1.0000   1.0000   1.0000   1.0000
     1.0000   1.0000   1.0000   1.0000   1.0000   1.0000   1.0000   1.0000
     1.0000   1.0000   1.0000   1.0332   0.0000   0.0000   0.0000   0.0000
     0.0000   0.0000   0.0000   0.0000   0.0000   0.0000   0.0000   0.0000
     0.0000   0.0000   0.0000   0.0000   0.0000   0.0000   0.0000   0.0000
     0.0000   0.0000

 ------ SPIN DOWN ----------

          k = 0.0000 0.0000 0.0000 ( 87777 PWs)   bands (ev):

  -107.8616 -69.0581 -69.0051 -66.9564 -19.8172 -18.9990 -18.9944 -18.8813
   -18.8749 -18.7927 -18.7275 -17.1526 -17.1473 -17.1179 -17.0766 -17.0644
   -16.7439 -16.3012 -16.2985 -16.1577 -16.1548 -16.1399 -15.6651 -14.3016
   -14.2922 -14.1376 -14.0084 -14.0026 -13.5021 -13.1202 -13.1176 -13.0661
   -12.8959 -12.8872 -12.4951 -12.0614 -12.0586 -11.7010 -11.5607 -11.5582
   -10.9301 -10.4119 -10.4097  -9.5629  -9.3566  -9.3525  -9.2154  -9.2012
    -9.2002  -9.1854  -8.9521  -8.9392  -8.5933  -8.5768  -8.4886  -8.4309
    -7.8901  -7.8890  -7.8718  -7.6530  -7.5444  -7.5265  -7.4347  -7.4337
    -7.4091  -6.8321  -6.8133  -6.8101  -6.7356  -6.6121  -6.6044  -6.5445
    -6.5403  -6.5389  -6.5079  -6.4442  -6.4180  -6.4010  -6.2767  -6.2693
    -6.1035  -5.5352  -5.5332  -5.0192  -4.9388  -4.8313  -4.8278  -4.7497
    -4.7131  -4.7045  -4.3925  -4.3860  -4.3677  -3.8340  -3.8278  -3.7518
    -3.7481  -3.7477  -3.4538  -3.4156  -3.3999  -2.8843  -1.8839  -1.7983
    -1.7935  -1.5972  -1.5751  -1.0615   0.0915   0.1426   0.9109   0.9625
     0.9742   1.2104   1.2269   1.5832   2.4878   2.7970   2.8132   2.8668
     3.0178   3.0447   3.4166   3.5582   3.6410   3.7383   3.7410   3.7669
     3.9338   4.2063

     occupation numbers
     1.0000   1.0000   1.0000   1.0000   1.0000   1.0000   1.0000   1.0000
     1.0000   1.0000   1.0000   1.0000   1.0000   1.0000   1.0000   1.0000
     1.0000   1.0000   1.0000   1.0000   1.0000   1.0000   1.0000   1.0000
     1.0000   1.0000   1.0000   1.0000   1.0000   1.0000   1.0000   1.0000
     1.0000   1.0000   1.0000   1.0000   1.0000   1.0000   1.0000   1.0000
     1.0000   1.0000   1.0000   1.0000   1.0000   1.0000   1.0000   1.0000
     1.0000   1.0000   1.0000   1.0000   1.0000   1.0000   1.0000   1.0000
     1.0000   1.0000   1.0000   1.0000   1.0000   1.0000   1.0000   1.0000
     1.0000   1.0000   1.0000   1.0000   1.0000   1.0000   1.0000   1.0000
     1.0000   1.0000   1.0000   1.0000   1.0000   1.0000   1.0000   1.0000
     1.0000   1.0000   1.0000   1.0000   1.0000   1.0000   1.0000   1.0000
     1.0000   1.0000   1.0000   1.0000   1.0000   1.0000   1.0000   1.0000
     1.0000   1.0000   1.0000   1.0000   1.0000   1.0000   1.0000   1.0000
     1.0000   1.0000   1.0000   0.9668   0.0000   0.0000   0.0000   0.0000
     0.0000   0.0000   0.0000   0.0000   0.0000   0.0000   0.0000   0.0000
     0.0000   0.0000   0.0000   0.0000   0.0000   0.0000   0.0000   0.0000
     0.0000   0.0000

     the Fermi energy is    -1.0501 ev

!    total energy              =    -951.82115036 Ry
     Harris-Foulkes estimate   =    -951.82115019 Ry
     estimated scf accuracy    <       0.00000076 Ry

     The total energy is the sum of the following terms:

     one-electron contribution =   -3008.23324851 Ry
     hartree contribution      =    1546.90968335 Ry
     xc contribution           =    -265.83101717 Ry
     ewald contribution        =     775.33329919 Ry
     smearing contrib. (-TS)   =       0.00013279 Ry

     total magnetization       =     0.07 Bohr mag/cell
     absolute magnetization    =     0.10 Bohr mag/cell

     convergence has been achieved in  87 iterations

     Writing output data file cobre-bridge2-distance-2.0.save/

     General routines

     Parallel routines

   This run was terminated on:   6:15:11  15Jan2023

   JOB DONE.