     Program PWSCF v.6.4.1 starts on 13Jan2023 at  1:30:44

     R & G space division:  proc/nbgrp/npool/nimage =       6
     Reading input from distance-2.0.in

     Current dimensions of program PWSCF are:
     Max number of different atomic species (ntypx) = 10
     Max number of k-points (npk) =  40000
     Max angular momentum in pseudopotentials (lmaxx) =  3

     IMPORTANT: XC functional enforced from input :
     Exchange-correlation      = RVV10 ( 1  4 13  4 3 0)
     Any further DFT definition will be discarded
     Please, verify this is what you really want

               file H.pbe-rrkjus.UPF: wavefunction(s)  1S renormalized

     Subspace diagonalization in iterative solution of the eigenvalue problem:
     a serial algorithm will be used

     bravais-lattice index     =            4
     lattice parameter (alat)  =      23.2937  a.u.
     unit-cell volume          =    8879.8548 (a.u.)^3
     number of atoms/cell      =           52
     number of atomic types    =            3
     number of electrons       =       216.00
     number of Kohn-Sham states=          130
     kinetic-energy cutoff     =      70.0000  Ry
     charge density cutoff     =     490.0000  Ry
     convergence threshold     =      1.0E-06
     mixing beta               =       0.7000
     number of iterations used =            8  plain     mixing
     Exchange-correlation      = RVV10 ( 1  4 13  4 3 0)

     celldm(1)=  23.293684  celldm(2)=   0.000000  celldm(3)=   0.811261
     celldm(4)=   0.000000  celldm(5)=   0.000000  celldm(6)=   0.000000

     crystal axes: (cart. coord. in units of alat)
               a(1) = (   1.000000   0.000000   0.000000 )
               a(2) = (  -0.500000   0.866025   0.000000 )
               a(3) = (   0.000000   0.000000   0.811261 )

     reciprocal axes: (cart. coord. in units 2 pi/alat)
               b(1) = (  1.000000  0.577350 -0.000000 )
               b(2) = (  0.000000  1.154701  0.000000 )
               b(3) = (  0.000000 -0.000000  1.232649 )

     PseudoPot. # 1 for H  read from file:
     /home/cristian/Escritorio/Proyecto_Grafeno/pseudopotenciales/H.pbe-rrkjus.UPF
     MD5 check sum: 7cc9d459525c9a0585f487a71c3c9563
     Pseudo is Ultrasoft, Zval =  1.0
     Generated by new atomic code, or converted to UPF format
     Using radial grid of 1061 points,  2 beta functions with:
                l(1) =   0
                l(2) =   0
     Q(r) pseudized with 0 coefficients

     PseudoPot. # 2 for C  read from file:
     /home/cristian/Escritorio/Proyecto_Grafeno/pseudopotenciales/C.pbe-n-rrkjus_psl.1.0.0.UPF
     MD5 check sum: 1fdd950c42eb37d8afe3dd2f8d12311e
     Pseudo is Ultrasoft + core correction, Zval =  4.0
     Generated using "atomic" code by A. Dal Corso v.6.3MaX
     Using radial grid of 1073 points,  4 beta functions with:
                l(1) =   0
                l(2) =   0
                l(3) =   1
                l(4) =   1
     Q(r) pseudized with 0 coefficients

     PseudoPot. # 3 for Ni read from file:
     /home/cristian/Escritorio/Proyecto_Grafeno/pseudopotenciales/Ni.pbe-spn-rrkjus_psl.1.0.0.UPF
     MD5 check sum: 8b3fc9aac6dafe35f580d41bb18c3945
     Pseudo is Ultrasoft + core correction, Zval = 18.0
     Generated using "atomic" code by A. Dal Corso v.6.3
     Using radial grid of 1195 points,  6 beta functions with:
                l(1) =   0
                l(2) =   0
                l(3) =   1
                l(4) =   1
                l(5) =   2
                l(6) =   2
     Q(r) pseudized with 0 coefficients

     vdW kernel table read from file rVV10_kernel_table
     MD5 check sum: b8e2538accc0c0b3206b45ba4daaba6c

     atomic species   valence    mass     pseudopotential
        H              1.00     1.00794     H ( 1.00)
        C              4.00    12.01070     C ( 1.00)
        Ni            18.00    58.69340     Ni( 1.00)

     Starting magnetic structure
     atomic species   magnetization
        H            0.500
        C            0.300
        Ni           0.800

     No symmetry found

                                    s                        frac. trans.

      isym =  1     identity

 cryst.   s( 1) = (     1          0          0      )
                  (     0          1          0      )
                  (     0          0          1      )

 cart.    s( 1) = (  1.0000000  0.0000000  0.0000000 )
                  (  0.0000000  1.0000000  0.0000000 )
                  (  0.0000000  0.0000000  1.0000000 )

     point group C_1 (1)
     there are  1 classes
     the character table:

       E
A      1.00

     the symmetry operations in each class and the name of the first element:

     E        1
          identity

   Cartesian axes

     site n.     atom                  positions (alat units)
         1           H   tau(   1) = (   0.2194937   0.4907477   0.1622522  )
         2           H   tau(   2) = (   0.2805063   0.4907477   0.1622522  )
         3           C   tau(   3) = (   0.0000000   0.0000000   0.0000000  )
         4           C   tau(   4) = (   0.0000000   0.1154701   0.0000000  )
         5           C   tau(   5) = (  -0.1000000   0.1732051   0.0000000  )
         6           C   tau(   6) = (  -0.1000000   0.2886751   0.0000000  )
         7           C   tau(   7) = (  -0.2000000   0.3464102   0.0000000  )
         8           C   tau(   8) = (  -0.2000000   0.4618802   0.0000000  )
         9           C   tau(   9) = (  -0.3000000   0.5196152   0.0000000  )
        10           C   tau(  10) = (  -0.3000000   0.6350853   0.0000000  )
        11           C   tau(  11) = (  -0.4000000   0.6928203   0.0000000  )
        12           C   tau(  12) = (  -0.4000000   0.8082904   0.0000000  )
        13           C   tau(  13) = (   0.2000000   0.0000000   0.0000000  )
        14           C   tau(  14) = (   0.2000000   0.1154701   0.0000000  )
        15           C   tau(  15) = (   0.1000000   0.1732051   0.0000000  )
        16           C   tau(  16) = (   0.1000000   0.2886751   0.0000000  )
        17           C   tau(  17) = (   0.0000000   0.3464102   0.0000000  )
        18           C   tau(  18) = (   0.0000000   0.4618802   0.0000000  )
        19           C   tau(  19) = (  -0.1000000   0.5196152   0.0000000  )
        20           C   tau(  20) = (  -0.1000000   0.6350853   0.0000000  )
        21           C   tau(  21) = (  -0.2000000   0.6928203   0.0000000  )
        22           C   tau(  22) = (  -0.2000000   0.8082904   0.0000000  )
        23           C   tau(  23) = (   0.4000000   0.0000000   0.0000000  )
        24           C   tau(  24) = (   0.4000000   0.1154701   0.0000000  )
        25           C   tau(  25) = (   0.3000000   0.1732051   0.0000000  )
        26           C   tau(  26) = (   0.3000000   0.2886751   0.0000000  )
        27           C   tau(  27) = (   0.2000000   0.3464102   0.0000000  )
        28           Ni  tau(  28) = (   0.2000000   0.4618802   0.0000000  )
        29           C   tau(  29) = (   0.1000000   0.5196152   0.0000000  )
        30           C   tau(  30) = (   0.1000000   0.6350853   0.0000000  )
        31           C   tau(  31) = (   0.0000000   0.6928203   0.0000000  )
        32           C   tau(  32) = (   0.0000000   0.8082904   0.0000000  )
        33           C   tau(  33) = (   0.6000000   0.0000000   0.0000000  )
        34           C   tau(  34) = (   0.6000000   0.1154701   0.0000000  )
        35           C   tau(  35) = (   0.5000000   0.1732051   0.0000000  )
        36           C   tau(  36) = (   0.5000000   0.2886751   0.0000000  )
        37           C   tau(  37) = (   0.4000000   0.3464102   0.0000000  )
        38           C   tau(  38) = (   0.4000000   0.4618802   0.0000000  )
        39           C   tau(  39) = (   0.3000000   0.5196152   0.0000000  )
        40           C   tau(  40) = (   0.3000000   0.6350853   0.0000000  )
        41           C   tau(  41) = (   0.2000000   0.6928203   0.0000000  )
        42           C   tau(  42) = (   0.2000000   0.8082904   0.0000000  )
        43           C   tau(  43) = (   0.8000000   0.0000000   0.0000000  )
        44           C   tau(  44) = (   0.8000000   0.1154701   0.0000000  )
        45           C   tau(  45) = (   0.7000000   0.1732051   0.0000000  )
        46           C   tau(  46) = (   0.7000000   0.2886751   0.0000000  )
        47           C   tau(  47) = (   0.6000000   0.3464102   0.0000000  )
        48           C   tau(  48) = (   0.6000000   0.4618802   0.0000000  )
        49           C   tau(  49) = (   0.5000000   0.5196152   0.0000000  )
        50           C   tau(  50) = (   0.5000000   0.6350853   0.0000000  )
        51           C   tau(  51) = (   0.4000000   0.6928203   0.0000000  )
        52           C   tau(  52) = (   0.4000000   0.8082904   0.0000000  )

   Crystallographic axes

     site n.     atom                  positions (cryst. coord.)
         1           H   tau(   1) = (  0.5028270  0.5666667  0.2000000  )
         2           H   tau(   2) = (  0.5638397  0.5666667  0.2000000  )
         3           C   tau(   3) = (  0.0000000  0.0000000  0.0000000  )
         4           C   tau(   4) = (  0.0666667  0.1333333  0.0000000  )
         5           C   tau(   5) = (  0.0000000  0.2000000  0.0000000  )
         6           C   tau(   6) = (  0.0666667  0.3333333  0.0000000  )
         7           C   tau(   7) = (  0.0000000  0.4000000  0.0000000  )
         8           C   tau(   8) = (  0.0666667  0.5333333  0.0000000  )
         9           C   tau(   9) = (  0.0000000  0.6000000  0.0000000  )
        10           C   tau(  10) = (  0.0666667  0.7333333  0.0000000  )
        11           C   tau(  11) = (  0.0000000  0.8000000  0.0000000  )
        12           C   tau(  12) = (  0.0666667  0.9333333  0.0000000  )
        13           C   tau(  13) = (  0.2000000  0.0000000  0.0000000  )
        14           C   tau(  14) = (  0.2666667  0.1333333  0.0000000  )
        15           C   tau(  15) = (  0.2000000  0.2000000  0.0000000  )
        16           C   tau(  16) = (  0.2666667  0.3333333  0.0000000  )
        17           C   tau(  17) = (  0.2000000  0.4000000  0.0000000  )
        18           C   tau(  18) = (  0.2666667  0.5333333  0.0000000  )
        19           C   tau(  19) = (  0.2000000  0.6000000  0.0000000  )
        20           C   tau(  20) = (  0.2666667  0.7333333  0.0000000  )
        21           C   tau(  21) = (  0.2000000  0.8000000  0.0000000  )
        22           C   tau(  22) = (  0.2666667  0.9333333  0.0000000  )
        23           C   tau(  23) = (  0.4000000  0.0000000  0.0000000  )
        24           C   tau(  24) = (  0.4666667  0.1333333  0.0000000  )
        25           C   tau(  25) = (  0.4000000  0.2000000  0.0000000  )
        26           C   tau(  26) = (  0.4666667  0.3333333  0.0000000  )
        27           C   tau(  27) = (  0.4000000  0.4000000  0.0000000  )
        28           Ni  tau(  28) = (  0.4666667  0.5333333  0.0000000  )
        29           C   tau(  29) = (  0.4000000  0.6000000  0.0000000  )
        30           C   tau(  30) = (  0.4666667  0.7333333  0.0000000  )
[...]
        43           C   tau(  43) = (  0.8000000  0.0000000  0.0000000  )
        44           C   tau(  44) = (  0.8666667  0.1333333  0.0000000  )
        45           C   tau(  45) = (  0.8000000  0.2000000  0.0000000  )
        46           C   tau(  46) = (  0.8666667  0.3333333  0.0000000  )
        47           C   tau(  47) = (  0.8000000  0.4000000  0.0000000  )
        48           C   tau(  48) = (  0.8666667  0.5333333  0.0000000  )
        49           C   tau(  49) = (  0.8000000  0.6000000  0.0000000  )
        50           C   tau(  50) = (  0.8666667  0.7333333  0.0000000  )
        51           C   tau(  51) = (  0.8000000  0.8000000  0.0000000  )
        52           C   tau(  52) = (  0.8666667  0.9333333  0.0000000  )

     number of k points=     1  Marzari-Vanderbilt smearing, width (Ry)=  0.0010
                       cart. coord. in units 2pi/alat
        k(    1) = (   0.0000000   0.0000000   0.0000000), wk =   1.0000000

                       cryst. coord.
        k(    1) = (   0.0000000   0.0000000   0.0000000), wk =   1.0000000

     Check: negative core charge=   -0.000002

     Initial potential from superposition of free atoms

     starting charge  215.80530, renormalised to  216.00000

     negative rho (up, down):  1.795E-04 1.985E-02

Carrying out rVV10 run using the following parameters:
Nqs =      20    Nr_points =    1024   r_max =   100.000
b_value =  6.30000    beta =  0.00901
     q_mesh =  0.00010000  0.00030000  0.00058939  0.00100810
               0.00161396  0.00249058  0.00375900  0.00559430
               0.00824984  0.01209221  0.01765183  0.02569619
               0.03733578  0.05417739  0.07854596  0.11380545
               0.16482331  0.23864234  0.34545298  0.50000000

Gradients computed in Reciprocal space

     Starting wfcs are  208 randomized atomic wfcs

     Self-consistent Calculation

     iteration #  1     ecut=    70.00 Ry     beta= 0.70
     Davidson diagonalization with overlap
     ethr =  1.00E-02,  avg # of iterations =  7.0

[...]

     total energy              =    -946.93815488 Ry
     Harris-Foulkes estimate   =    -949.62862695 Ry
     estimated scf accuracy    <      13.95746451 Ry

     total magnetization       =     6.00 Bohr mag/cell
     absolute magnetization    =     6.73 Bohr mag/cell

[...]

     Magnetic moment per site:
     atom:    1    charge:    0.2172    magn:    0.0001    constr:    0.0000
     atom:    2    charge:    0.2165    magn:    0.0002    constr:    0.0000
     atom:    3    charge:    1.7155    magn:    0.0007    constr:    0.0000
     atom:    4    charge:    1.7153    magn:   -0.0003    constr:    0.0000
     atom:    5    charge:    1.7169    magn:    0.0010    constr:    0.0000
     atom:    6    charge:    1.7145    magn:   -0.0001    constr:    0.0000
     atom:    7    charge:    1.7170    magn:    0.0010    constr:    0.0000
     atom:    8    charge:    1.7152    magn:   -0.0003    constr:    0.0000
     atom:    9    charge:    1.7155    magn:    0.0007    constr:    0.0000
     atom:   10    charge:    1.7177    magn:   -0.0002    constr:    0.0000
     atom:   11    charge:    1.7155    magn:    0.0003    constr:    0.0000
     atom:   12    charge:    1.7177    magn:   -0.0002    constr:    0.0000
     atom:   13    charge:    1.7156    magn:    0.0002    constr:    0.0000
     atom:   14    charge:    1.7175    magn:    0.0002    constr:    0.0000
     atom:   15    charge:    1.7119    magn:    0.0001    constr:    0.0000
     atom:   16    charge:    1.7113    magn:   -0.0001    constr:    0.0000
     atom:   17    charge:    1.7212    magn:    0.0023    constr:    0.0000
     atom:   18    charge:    1.7114    magn:   -0.0001    constr:    0.0000
     atom:   19    charge:    1.7119    magn:    0.0001    constr:    0.0000
     atom:   20    charge:    1.7174    magn:    0.0002    constr:    0.0000
     atom:   21    charge:    1.7156    magn:    0.0002    constr:    0.0000
     atom:   22    charge:    1.7174    magn:   -0.0001    constr:    0.0000
     atom:   23    charge:    1.7156    magn:    0.0008    constr:    0.0000
     atom:   24    charge:    1.7151    magn:   -0.0003    constr:    0.0000
     atom:   25    charge:    1.7119    magn:    0.0001    constr:    0.0000
     atom:   26    charge:    1.7109    magn:   -0.0000    constr:    0.0000
     atom:   27    charge:    1.8213    magn:    0.0019    constr:    0.0000
     atom:   28    charge:   13.4112    magn:    0.0003    constr:    0.0000
     atom:   29    charge:    1.8214    magn:    0.0019    constr:    0.0000
     atom:   30    charge:    1.7109    magn:   -0.0000    constr:    0.0000
     atom:   31    charge:    1.7119    magn:    0.0001    constr:    0.0000
     atom:   32    charge:    1.7151    magn:   -0.0003    constr:    0.0000
     atom:   33    charge:    1.7169    magn:    0.0010    constr:    0.0000
     atom:   34    charge:    1.7153    magn:   -0.0004    constr:    0.0000
     atom:   35    charge:    1.7169    magn:    0.0010    constr:    0.0000
     atom:   36    charge:    1.7147    magn:   -0.0001    constr:    0.0000
     atom:   37    charge:    1.7206    magn:    0.0023    constr:    0.0000
     atom:   38    charge:    1.7129    magn:   -0.0003    constr:    0.0000
     atom:   39    charge:    1.8252    magn:    0.0027    constr:    0.0000
     atom:   40    charge:    1.7126    magn:   -0.0003    constr:    0.0000
     atom:   41    charge:    1.7206    magn:    0.0024    constr:    0.0000
     atom:   42    charge:    1.7146    magn:   -0.0001    constr:    0.0000
     atom:   43    charge:    1.7168    magn:    0.0011    constr:    0.0000
     atom:   44    charge:    1.7153    magn:   -0.0005    constr:    0.0000
     atom:   45    charge:    1.7216    magn:    0.0042    constr:    0.0000
     atom:   46    charge:    1.7154    magn:   -0.0005    constr:    0.0000
     atom:   47    charge:    1.7168    magn:    0.0010    constr:    0.0000
     atom:   48    charge:    1.7153    magn:   -0.0003    constr:    0.0000
     atom:   49    charge:    1.7116    magn:    0.0001    constr:    0.0000
     atom:   50    charge:    1.7177    magn:   -0.0001    constr:    0.0000
     atom:   51    charge:    1.7115    magn:    0.0001    constr:    0.0000
     atom:   52    charge:    1.7153    magn:   -0.0003    constr:    0.0000

[...]

     total energy              =    -951.81232032 Ry
     Harris-Foulkes estimate   =    -951.81232644 Ry
     estimated scf accuracy    <       0.00004737 Ry

[...]

     iteration #284     ecut=    70.00 Ry     beta= 0.70
     Davidson diagonalization with overlap
     ethr =  9.79E-10,  avg # of iterations =  2.5

     negative rho (up, down):  1.226E-03 8.139E-05

     Magnetic moment per site:
     atom:    1    charge:    0.2172    magn:    0.0000    constr:    0.0000
     atom:    2    charge:    0.2165    magn:    0.0000    constr:    0.0000
     atom:    3    charge:    1.7155    magn:   -0.0000    constr:    0.0000
     atom:    4    charge:    1.7152    magn:    0.0000    constr:    0.0000
     atom:    5    charge:    1.7168    magn:   -0.0000    constr:    0.0000
     atom:    6    charge:    1.7145    magn:    0.0000    constr:    0.0000
     atom:    7    charge:    1.7169    magn:   -0.0000    constr:    0.0000
     atom:    8    charge:    1.7152    magn:    0.0000    constr:    0.0000
     atom:    9    charge:    1.7155    magn:   -0.0000    constr:    0.0000
     atom:   10    charge:    1.7177    magn:    0.0000    constr:    0.0000
     atom:   11    charge:    1.7155    magn:   -0.0000    constr:    0.0000
     atom:   12    charge:    1.7177    magn:    0.0000    constr:    0.0000
     atom:   13    charge:    1.7156    magn:   -0.0000    constr:    0.0000
     atom:   14    charge:    1.7174    magn:    0.0000    constr:    0.0000
     atom:   15    charge:    1.7119    magn:   -0.0000    constr:    0.0000
     atom:   16    charge:    1.7113    magn:    0.0000    constr:    0.0000
     atom:   17    charge:    1.7211    magn:    0.0000    constr:    0.0000
     atom:   18    charge:    1.7114    magn:    0.0000    constr:    0.0000
     atom:   19    charge:    1.7119    magn:   -0.0000    constr:    0.0000
     atom:   20    charge:    1.7174    magn:    0.0000    constr:    0.0000
     atom:   21    charge:    1.7156    magn:   -0.0000    constr:    0.0000
     atom:   22    charge:    1.7174    magn:    0.0000    constr:    0.0000
     atom:   23    charge:    1.7156    magn:   -0.0000    constr:    0.0000
     atom:   24    charge:    1.7151    magn:    0.0000    constr:    0.0000
     atom:   25    charge:    1.7119    magn:   -0.0000    constr:    0.0000
     atom:   26    charge:    1.7108    magn:    0.0000    constr:    0.0000
     atom:   27    charge:    1.8212    magn:    0.0000    constr:    0.0000
     atom:   28    charge:   13.4114    magn:    0.0000    constr:    0.0000
     atom:   29    charge:    1.8216    magn:    0.0000    constr:    0.0000
     atom:   30    charge:    1.7109    magn:    0.0000    constr:    0.0000
     atom:   31    charge:    1.7119    magn:   -0.0000    constr:    0.0000
     atom:   32    charge:    1.7151    magn:    0.0000    constr:    0.0000
     atom:   33    charge:    1.7169    magn:   -0.0000    constr:    0.0000
     atom:   34    charge:    1.7153    magn:    0.0000    constr:    0.0000
     atom:   35    charge:    1.7169    magn:   -0.0000    constr:    0.0000
     atom:   36    charge:    1.7147    magn:    0.0000    constr:    0.0000
     atom:   37    charge:    1.7206    magn:    0.0000    constr:    0.0000
     atom:   38    charge:    1.7129    magn:    0.0000    constr:    0.0000
     atom:   39    charge:    1.8252    magn:    0.0001    constr:    0.0000
     atom:   40    charge:    1.7126    magn:    0.0000    constr:    0.0000
     atom:   41    charge:    1.7206    magn:    0.0000    constr:    0.0000
     atom:   42    charge:    1.7146    magn:    0.0000    constr:    0.0000
     atom:   43    charge:    1.7168    magn:   -0.0000    constr:    0.0000
     atom:   44    charge:    1.7153    magn:    0.0000    constr:    0.0000
     atom:   45    charge:    1.7216    magn:    0.0001    constr:    0.0000
     atom:   46    charge:    1.7153    magn:    0.0000    constr:    0.0000
     atom:   47    charge:    1.7167    magn:   -0.0000    constr:    0.0000
     atom:   48    charge:    1.7153    magn:    0.0000    constr:    0.0000
     atom:   49    charge:    1.7115    magn:   -0.0000    constr:    0.0000
     atom:   50    charge:    1.7177    magn:    0.0000    constr:    0.0000
     atom:   51    charge:    1.7115    magn:   -0.0000    constr:    0.0000
     atom:   52    charge:    1.7153    magn:    0.0000    constr:    0.0000

     End of self-consistent calculation

 ------ SPIN UP ------------

          k = 0.0000 0.0000 0.0000 ( 87777 PWs)   bands (ev):

  -107.8656 -69.0654 -69.0041 -66.9632 -19.8192 -19.0030 -18.9969 -18.8803
   -18.8766 -18.7933 -18.7317 -17.1609 -17.1475 -17.1188 -17.0752 -17.0680
   -16.7457 -16.3058 -16.2995 -16.1586 -16.1561 -16.1412 -15.6694 -14.3116
   -14.2936 -14.1391 -14.0084 -14.0034 -13.5060 -13.1201 -13.1189 -13.0672
   -12.8943 -12.8918 -12.4973 -12.0638 -12.0611 -11.7021 -11.5640 -11.5582
   -10.9337 -10.4154 -10.4118  -9.5656  -9.3579  -9.3543  -9.2160  -9.2009
    -9.2007  -9.1857  -8.9564  -8.9392  -8.6579  -8.5793  -8.5530  -8.4411
    -7.9111  -7.8904  -7.8445  -7.6526  -7.5332  -7.5310  -7.4393  -7.4341
    -7.3886  -6.8339  -6.8143  -6.8123  -6.7372  -6.6128  -6.6057  -6.5444
    -6.5406  -6.5394  -6.5097  -6.4544  -6.4165  -6.4020  -6.2747  -6.2723
    -6.0838  -5.5365  -5.5318  -5.0206  -4.9389  -4.8322  -4.8282  -4.7514
    -4.7149  -4.7086  -4.3926  -4.3891  -4.3697  -3.8347  -3.8301  -3.7549
    -3.7483  -3.7480  -3.4958  -3.4079  -3.4029  -2.8652  -1.8866  -1.7992
    -1.7946  -1.5933  -1.5770  -1.0365   0.1017   0.1224   0.9080   0.9634
     0.9703   1.2008   1.2226   1.5818   2.4985   2.7918   2.8115   2.8605
     3.0002   3.0410   3.3903   3.5672   3.6468   3.7470   3.7501   3.7760
     3.9434   4.2096

     occupation numbers
     1.0000   1.0000   1.0000   1.0000   1.0000   1.0000   1.0000   1.0000
     1.0000   1.0000   1.0000   1.0000   1.0000   1.0000   1.0000   1.0000
     1.0000   1.0000   1.0000   1.0000   1.0000   1.0000   1.0000   1.0000
     1.0000   1.0000   1.0000   1.0000   1.0000   1.0000   1.0000   1.0000
     1.0000   1.0000   1.0000   1.0000   1.0000   1.0000   1.0000   1.0000
     1.0000   1.0000   1.0000   1.0000   1.0000   1.0000   1.0000   1.0000
     1.0000   1.0000   1.0000   1.0000   1.0000   1.0000   1.0000   1.0000
     1.0000   1.0000   1.0000   1.0000   1.0000   1.0000   1.0000   1.0000
     1.0000   1.0000   1.0000   1.0000   1.0000   1.0000   1.0000   1.0000
     1.0000   1.0000   1.0000   1.0000   1.0000   1.0000   1.0000   1.0000
     1.0000   1.0000   1.0000   1.0000   1.0000   1.0000   1.0000   1.0000
     1.0000   1.0000   1.0000   1.0000   1.0000   1.0000   1.0000   1.0000
     1.0000   1.0000   1.0000   1.0000   1.0000   1.0000   1.0000   1.0000
     1.0000   1.0000   1.0000   1.0013   0.0000   0.0000   0.0000   0.0000
     0.0000   0.0000   0.0000   0.0000   0.0000   0.0000   0.0000   0.0000
     0.0000   0.0000   0.0000   0.0000   0.0000   0.0000   0.0000   0.0000
     0.0000   0.0000

 ------ SPIN DOWN ----------

          k = 0.0000 0.0000 0.0000 ( 87777 PWs)   bands (ev):

  -107.8656 -69.0654 -69.0041 -66.9633 -19.8192 -19.0030 -18.9969 -18.8802
   -18.8766 -18.7932 -18.7316 -17.1608 -17.1475 -17.1188 -17.0751 -17.0679
   -16.7456 -16.3057 -16.2995 -16.1586 -16.1561 -16.1412 -15.6694 -14.3116
   -14.2936 -14.1391 -14.0084 -14.0034 -13.5060 -13.1201 -13.1189 -13.0672
   -12.8942 -12.8918 -12.4973 -12.0638 -12.0610 -11.7021 -11.5639 -11.5581
   -10.9336 -10.4154 -10.4118  -9.5656  -9.3578  -9.3543  -9.2160  -9.2009
    -9.2007  -9.1857  -8.9564  -8.9392  -8.6578  -8.5793  -8.5529  -8.4411
    -7.9110  -7.8904  -7.8444  -7.6526  -7.5332  -7.5310  -7.4393  -7.4341
    -7.3886  -6.8339  -6.8142  -6.8122  -6.7371  -6.6128  -6.6057  -6.5444
    -6.5405  -6.5394  -6.5097  -6.4544  -6.4164  -6.4020  -6.2747  -6.2723
    -6.0837  -5.5365  -5.5318  -5.0206  -4.9389  -4.8322  -4.8282  -4.7514
    -4.7149  -4.7085  -4.3926  -4.3891  -4.3696  -3.8347  -3.8301  -3.7548
    -3.7483  -3.7480  -3.4957  -3.4078  -3.4028  -2.8651  -1.8866  -1.7991
    -1.7945  -1.5932  -1.5769  -1.0364   0.1017   0.1224   0.9080   0.9635
     0.9704   1.2009   1.2227   1.5819   2.4988   2.7918   2.8115   2.8606
     3.0003   3.0411   3.3905   3.5675   3.6472   3.7472   3.7505   3.7764
     3.9438   4.2102

     occupation numbers
     1.0000   1.0000   1.0000   1.0000   1.0000   1.0000   1.0000   1.0000
     1.0000   1.0000   1.0000   1.0000   1.0000   1.0000   1.0000   1.0000
     1.0000   1.0000   1.0000   1.0000   1.0000   1.0000   1.0000   1.0000
     1.0000   1.0000   1.0000   1.0000   1.0000   1.0000   1.0000   1.0000
     1.0000   1.0000   1.0000   1.0000   1.0000   1.0000   1.0000   1.0000
     1.0000   1.0000   1.0000   1.0000   1.0000   1.0000   1.0000   1.0000
     1.0000   1.0000   1.0000   1.0000   1.0000   1.0000   1.0000   1.0000
     1.0000   1.0000   1.0000   1.0000   1.0000   1.0000   1.0000   1.0000
     1.0000   1.0000   1.0000   1.0000   1.0000   1.0000   1.0000   1.0000
     1.0000   1.0000   1.0000   1.0000   1.0000   1.0000   1.0000   1.0000
     1.0000   1.0000   1.0000   1.0000   1.0000   1.0000   1.0000   1.0000
     1.0000   1.0000   1.0000   1.0000   1.0000   1.0000   1.0000   1.0000
     1.0000   1.0000   1.0000   1.0000   1.0000   1.0000   1.0000   1.0000
     1.0000   1.0000   1.0000   0.9987   0.0000   0.0000   0.0000   0.0000
     0.0000   0.0000   0.0000   0.0000   0.0000   0.0000   0.0000   0.0000
     0.0000   0.0000   0.0000   0.0000   0.0000   0.0000   0.0000   0.0000
     0.0000   0.0000

     the Fermi energy is    -1.0239 ev

!    total energy              =    -951.81232616 Ry
     Harris-Foulkes estimate   =    -951.81232337 Ry
     estimated scf accuracy    <       0.00000047 Ry

     The total energy is the sum of the following terms:

     one-electron contribution =   -3008.25460282 Ry
     hartree contribution      =    1546.91607178 Ry
     xc contribution           =    -265.83587120 Ry
     ewald contribution        =     775.36191298 Ry
     smearing contrib. (-TS)   =       0.00016310 Ry

     total magnetization       =     0.00 Bohr mag/cell
     absolute magnetization    =     0.00 Bohr mag/cell

     convergence has been achieved in 284 iterations

     Writing output data file cobre-bridge-distance-2.0.save/

     General routines

     Parallel routines

   This run was terminated on:  11: 6:12  13Jan2023

   JOB DONE.