     Program PWSCF v.6.4.1 starts on 11Sep2022 at 18: 7:38

     R & G space division:  proc/nbgrp/npool/nimage =       6
     Reading input from cu-vcrelax.in

     Current dimensions of program PWSCF are:
     Max number of different atomic species (ntypx) = 10
     Max number of k-points (npk) =  40000
     Max angular momentum in pseudopotentials (lmaxx) =  3
               file H.pbe-rrkjus.UPF: wavefunction(s)  1S renormalized
               file Cu.pbe-dn-rrkjus_psl.1.0.0.UPF: wavefunction(s)  3D renormalized

     Subspace diagonalization in iterative solution of the eigenvalue problem:
     a serial algorithm will be used

     bravais-lattice index     =            4
     lattice parameter (alat)  =      23.2937  a.u.
     unit-cell volume          =    8879.8548 (a.u.)^3
     number of atoms/cell      =           52
     number of atomic types    =            3
     number of electrons       =       209.00
     number of Kohn-Sham states=          126
     kinetic-energy cutoff     =      70.0000  Ry
     charge density cutoff     =     490.0000  Ry
     convergence threshold     =      1.0E-10
     mixing beta               =       0.7000
     number of iterations used =            8  plain     mixing
     Exchange-correlation      = PBE ( 1  4  3  4 0 0)
     nstep                     =           50

     celldm(1)=  23.293684  celldm(2)=   0.000000  celldm(3)=   0.811261
     celldm(4)=   0.000000  celldm(5)=   0.000000  celldm(6)=   0.000000

     crystal axes: (cart. coord. in units of alat)
               a(1) = (   1.000000   0.000000   0.000000 )
               a(2) = (  -0.500000   0.866025   0.000000 )
               a(3) = (   0.000000   0.000000   0.811261 )

     reciprocal axes: (cart. coord. in units 2 pi/alat)
               b(1) = (  1.000000  0.577350 -0.000000 )
               b(2) = (  0.000000  1.154701  0.000000 )
               b(3) = (  0.000000 -0.000000  1.232649 )

     PseudoPot. # 1 for H  read from file:
     /home/cristian/Escritorio/Proyecto_Grafeno/pseudopotenciales/H.pbe-rrkjus.UPF
     MD5 check sum: 7cc9d459525c9a0585f487a71c3c9563
     Pseudo is Ultrasoft, Zval =  1.0
     Generated by new atomic code, or converted to UPF format
     Using radial grid of 1061 points,  2 beta functions with:
                l(1) =   0
                l(2) =   0
     Q(r) pseudized with 0 coefficients

     PseudoPot. # 2 for C  read from file:
     /home/cristian/Escritorio/Proyecto_Grafeno/pseudopotenciales/C.pbe-n-rrkjus_psl.1.0.0.UPF
     MD5 check sum: 1fdd950c42eb37d8afe3dd2f8d12311e
     Pseudo is Ultrasoft + core correction, Zval =  4.0
     Generated using "atomic" code by A. Dal Corso v.6.3MaX
     Using radial grid of 1073 points,  4 beta functions with:
                l(1) =   0
                l(2) =   0
                l(3) =   1
                l(4) =   1
     Q(r) pseudized with 0 coefficients

     PseudoPot. # 3 for Cu read from file:
     /home/cristian/Escritorio/Proyecto_Grafeno/pseudopotenciales/Cu.pbe-dn-rrkjus_psl.1.0.0.UPF
     MD5 check sum: ba3d6c84e19846e79d48cdc68ff7152b
     Pseudo is Ultrasoft + core correction, Zval = 11.0
     Generated using "atomic" code by A. Dal Corso v.6.3
     Using radial grid of 1199 points,  6 beta functions with:
                l(1) =   0
                l(2) =   0
                l(3) =   1
                l(4) =   1
                l(5) =   2
                l(6) =   2
     Q(r) pseudized with 0 coefficients

     atomic species   valence    mass     pseudopotential
        H              1.00     1.00794     H ( 1.00)
        C              4.00    12.01070     C ( 1.00)
        Cu            11.00    63.54600     Cu( 1.00)

     Starting magnetic structure
     atomic species   magnetization
        H            0.500
        C            0.300
        Cu           0.800

      2 Sym. Ops. (no inversion) found

                                    s                        frac. trans.

      isym =  1     identity

 cryst.   s( 1) = (     1          0          0      )
                  (     0          1          0      )
                  (     0          0          1      )

 cart.    s( 1) = (  1.0000000  0.0000000  0.0000000 )
                  (  0.0000000  1.0000000  0.0000000 )
                  (  0.0000000  0.0000000  1.0000000 )

      isym =  2     inv. 180 deg rotation - cryst. axis [1,1,0]

 cryst.   s( 2) = (     0         -1          0      )
                  (    -1          0          0      )
                  (     0          0          1      )

 cart.    s( 2) = (  0.5000000 -0.8660254  0.0000000 )
                  ( -0.8660254 -0.5000000  0.0000000 )
                  (  0.0000000  0.0000000  1.0000000 )

     point group C_s (m)
     there are  2 classes
     the character table:

       E     s
A'     1.00  1.00
A''    1.00 -1.00

     the symmetry operations in each class and the name of the first element:

     E        1
          identity
     s        2
          inv. 180 deg rotation - cryst. axis [1,1,0]

   Cartesian axes

     site n.     atom                  positions (alat units)
         1           H   tau(   1) = (   0.2999980   0.4041463   0.2272912  )
         2           H   tau(   2) = (   0.3000019   0.4041441   0.2880087  )
         3           C   tau(   3) = (   0.0000000   0.0000000   0.0000000  )
         4           C   tau(   4) = (   0.0000000   0.1154701   0.0000000  )
         5           C   tau(   5) = (  -0.1000000   0.1732051   0.0000000  )
         6           C   tau(   6) = (  -0.1000000   0.2886751   0.0000000  )
         7           C   tau(   7) = (  -0.2000000   0.3464102   0.0000000  )
         8           C   tau(   8) = (  -0.2000000   0.4618802   0.0000000  )
         9           C   tau(   9) = (  -0.3000000   0.5196152   0.0000000  )
        10           C   tau(  10) = (  -0.3000000   0.6350853   0.0000000  )
        11           C   tau(  11) = (  -0.4000000   0.6928203   0.0000000  )
        12           C   tau(  12) = (  -0.4000000   0.8082904   0.0000000  )
        13           C   tau(  13) = (   0.2000000   0.0000000   0.0000000  )
        14           C   tau(  14) = (   0.2000000   0.1154701   0.0000000  )
        15           C   tau(  15) = (   0.1000000   0.1732051   0.0000000  )
        16           C   tau(  16) = (   0.1000000   0.2886751   0.0000000  )
        17           C   tau(  17) = (   0.0000000   0.3464102   0.0000000  )
        18           C   tau(  18) = (   0.0000000   0.4618802   0.0000000  )
        19           C   tau(  19) = (  -0.1000000   0.5196152   0.0000000  )
        20           C   tau(  20) = (  -0.1000000   0.6350853   0.0000000  )
        21           C   tau(  21) = (  -0.2000000   0.6928203   0.0000000  )
        22           C   tau(  22) = (  -0.2000000   0.8082904   0.0000000  )
        23           C   tau(  23) = (   0.4000000   0.0000000   0.0000000  )
        24           C   tau(  24) = (   0.4000000   0.1154701   0.0000000  )
        25           C   tau(  25) = (   0.3000000   0.1732051   0.0000000  )
        26           C   tau(  26) = (   0.3000000   0.2886751   0.0000000  )
        27           C   tau(  27) = (   0.2000000   0.3464102   0.0000000  )
        28           Cu  tau(  28) = (   0.2000000   0.4618802   0.0000000  )
        29           C   tau(  29) = (   0.1000000   0.5196152   0.0000000  )
        30           C   tau(  30) = (   0.1000000   0.6350853   0.0000000  )
        31           C   tau(  31) = (   0.0000000   0.6928203   0.0000000  )
        32           C   tau(  32) = (   0.0000000   0.8082904   0.0000000  )
        33           C   tau(  33) = (   0.6000000   0.0000000   0.0000000  )
        34           C   tau(  34) = (   0.6000000   0.1154701   0.0000000  )
        35           C   tau(  35) = (   0.5000000   0.1732051   0.0000000  )
        36           C   tau(  36) = (   0.5000000   0.2886751   0.0000000  )
        37           C   tau(  37) = (   0.4000000   0.3464102   0.0000000  )
        38           C   tau(  38) = (   0.4000000   0.4618802   0.0000000  )
        39           C   tau(  39) = (   0.3000000   0.5196152   0.0000000  )
        40           C   tau(  40) = (   0.3000000   0.6350853   0.0000000  )
        41           C   tau(  41) = (   0.2000000   0.6928203   0.0000000  )
        42           C   tau(  42) = (   0.2000000   0.8082904   0.0000000  )
        43           C   tau(  43) = (   0.8000000   0.0000000   0.0000000  )
        44           C   tau(  44) = (   0.8000000   0.1154701   0.0000000  )
        45           C   tau(  45) = (   0.7000000   0.1732051   0.0000000  )
        46           C   tau(  46) = (   0.7000000   0.2886751   0.0000000  )
        47           C   tau(  47) = (   0.6000000   0.3464102   0.0000000  )
        48           C   tau(  48) = (   0.6000000   0.4618802   0.0000000  )
        49           C   tau(  49) = (   0.5000000   0.5196152   0.0000000  )
        50           C   tau(  50) = (   0.5000000   0.6350853   0.0000000  )
        51           C   tau(  51) = (   0.4000000   0.6928203   0.0000000  )
        52           C   tau(  52) = (   0.4000000   0.8082904   0.0000000  )

   Crystallographic axes

     site n.     atom                  positions (cryst. coord.)
         1           H   tau(   1) = (  0.5333320  0.4666680  0.2801702  )
         2           H   tau(   2) = (  0.5333346  0.4666654  0.3550135  )
         3           C   tau(   3) = (  0.0000000  0.0000000  0.0000000  )
         4           C   tau(   4) = (  0.0666667  0.1333333  0.0000000  )
         5           C   tau(   5) = (  0.0000000  0.2000000  0.0000000  )
         6           C   tau(   6) = (  0.0666667  0.3333333  0.0000000  )
         7           C   tau(   7) = (  0.0000000  0.4000000  0.0000000  )
         8           C   tau(   8) = (  0.0666667  0.5333333  0.0000000  )
         9           C   tau(   9) = (  0.0000000  0.6000000  0.0000000  )
        10           C   tau(  10) = (  0.0666667  0.7333333  0.0000000  )
        11           C   tau(  11) = (  0.0000000  0.8000000  0.0000000  )
        12           C   tau(  12) = (  0.0666667  0.9333333  0.0000000  )
        13           C   tau(  13) = (  0.2000000  0.0000000  0.0000000  )
        14           C   tau(  14) = (  0.2666667  0.1333333  0.0000000  )
        15           C   tau(  15) = (  0.2000000  0.2000000  0.0000000  )
        16           C   tau(  16) = (  0.2666667  0.3333333  0.0000000  )
        17           C   tau(  17) = (  0.2000000  0.4000000  0.0000000  )
        18           C   tau(  18) = (  0.2666667  0.5333333  0.0000000  )
        19           C   tau(  19) = (  0.2000000  0.6000000  0.0000000  )
        20           C   tau(  20) = (  0.2666667  0.7333333  0.0000000  )
        21           C   tau(  21) = (  0.2000000  0.8000000  0.0000000  )
        22           C   tau(  22) = (  0.2666667  0.9333333  0.0000000  )
        23           C   tau(  23) = (  0.4000000  0.0000000  0.0000000  )
        24           C   tau(  24) = (  0.4666667  0.1333333  0.0000000  )
        25           C   tau(  25) = (  0.4000000  0.2000000  0.0000000  )
[...]
     atom   34 type  2   force =    -0.20120835    0.05931396   -0.04943995
     atom   35 type  2   force =    -0.26759523    0.29932611   -0.44472669
     atom   36 type  2   force =    -0.66332115    0.38296864   -0.98473869
     atom   37 type  2   force =    -0.67614942    0.39037505   -1.66174560
     atom   38 type  2   force =    -1.17746483    0.06776246   -1.49342966
     atom   39 type  2   force =    -0.25486147   -0.76325618   -2.38199311
     atom   40 type  2   force =    -0.24017266   -1.22089270   -1.04456497
     atom   41 type  2   force =    -0.05882044   -0.78781840   -0.46733524
     atom   42 type  2   force =    -0.10719207   -0.44258468   -0.55495667
     atom   43 type  2   force =    -0.01435768   -0.20914918   -0.41320849
     atom   44 type  2   force =    -0.05213145    0.03009810   -0.21571043
     atom   45 type  2   force =    -0.13305269    0.07681801    0.09341379
     atom   46 type  2   force =    -0.15197157    0.14459456   -0.04943995
     atom   47 type  2   force =    -0.39302163    0.08208121   -0.44472669
     atom   48 type  2   force =    -0.38224480    0.00343081   -0.49695805
     atom   49 type  2   force =    -0.66036685   -0.35651580   -0.75531447
     atom   50 type  2   force =    -0.39570543   -0.42329004   -0.55328500
     atom   51 type  2   force =    -0.15229379   -0.59467978   -0.69544617
     atom   52 type  2   force =    -0.15976807   -0.23381593   -0.44435960
     The core correction contribution to forces
     atom    1 type  1   force =     0.00000000    0.00000000    0.00000000
     atom    2 type  1   force =     0.00000000    0.00000000    0.00000000
     atom    3 type  2   force =     0.00048408   -0.00027948   -0.00013545
     atom    4 type  2   force =    -0.00057651    0.00004585   -0.00006168
     atom    5 type  2   force =    -0.00000311   -0.00033521   -0.00012253
     atom    6 type  2   force =     0.00005883    0.00019299   -0.00028888
     atom    7 type  2   force =    -0.00046415   -0.00009572   -0.00020512
     atom    8 type  2   force =    -0.00012537    0.00018528   -0.00015030
     atom    9 type  2   force =    -0.00008485   -0.00038090   -0.00000642
     atom   10 type  2   force =    -0.00020332    0.00006942    0.00002789
     atom   11 type  2   force =     0.00042710   -0.00011791   -0.00006556
     atom   12 type  2   force =    -0.00008601    0.00004966   -0.00014359
     atom   13 type  2   force =     0.00031567   -0.00031093   -0.00006556
     atom   14 type  2   force =    -0.00010885    0.00001068   -0.00016437
     atom   15 type  2   force =     0.00008873   -0.00125784   -0.00012174
     atom   16 type  2   force =    -0.00033088   -0.00017011    0.00026450
     atom   17 type  2   force =    -0.00090525    0.00003983   -0.00012617
     atom   18 type  2   force =     0.00024308    0.00148833    0.00009715
     atom   19 type  2   force =    -0.00004197   -0.00049998   -0.00013631
     atom   20 type  2   force =    -0.00047770    0.00027580   -0.00054939
     atom   21 type  2   force =     0.00055438   -0.00032007   -0.00006245
     atom   22 type  2   force =    -0.00016178    0.00014137    0.00002789
     atom   23 type  2   force =     0.00028745    0.00026393   -0.00000642
     atom   24 type  2   force =    -0.00006656   -0.00023304   -0.00013583
     atom   25 type  2   force =     0.00040485   -0.00050066   -0.00002243
     atom   26 type  2   force =    -0.00095891   -0.00012649   -0.00010406
     atom   27 type  2   force =     0.00104990   -0.00588819    0.00084422
     atom   28 type  3   force =    -0.01922361    0.01109875    0.04571685
     atom   29 type  2   force =    -0.00120439    0.00069536   -0.00079403
     atom   30 type  2   force =    -0.00116739   -0.00095468    0.00009715
     atom   31 type  2   force =     0.00041201    0.00028633   -0.00013631
     atom   32 type  2   force =    -0.00022314    0.00001593   -0.00015030
     atom   33 type  2   force =    -0.00014918    0.00044982   -0.00020512
     atom   34 type  2   force =     0.00002892    0.00005601    0.00007483
     atom   35 type  2   force =     0.00030151   -0.00003306   -0.00021854
     atom   36 type  2   force =    -0.00050797    0.00029328   -0.00046654
     atom   37 type  2   force =     0.00093346   -0.00053893   -0.00007254
     atom   38 type  2   force =    -0.00036991    0.00089369   -0.00010406
     atom   39 type  2   force =     0.00562427    0.00203485    0.00084422
     atom   40 type  2   force =    -0.00001813    0.00037160    0.00026450
     atom   41 type  2   force =    -0.00048712    0.00076405   -0.00012617
     atom   42 type  2   force =    -0.00013772   -0.00014744   -0.00028888
     atom   43 type  2   force =     0.00028875    0.00017030   -0.00012253
     atom   44 type  2   force =    -0.00030358    0.00017527   -0.00001591
     atom   45 type  2   force =    -0.00004202    0.00002426   -0.00001452
     atom   46 type  2   force =    -0.00003404   -0.00005305    0.00007483
     atom   47 type  2   force =     0.00017938   -0.00024458   -0.00021854
     atom   48 type  2   force =     0.00016854    0.00017416   -0.00013583
     atom   49 type  2   force =     0.00063601   -0.00010027   -0.00002243
     atom   50 type  2   force =    -0.00006368    0.00008893   -0.00016437
     atom   51 type  2   force =     0.00113369    0.00055208   -0.00012174
     atom   52 type  2   force =    -0.00032796    0.00047635   -0.00006168
     The Hubbard contrib.    to forces
     atom    1 type  1   force =     0.00000000    0.00000000    0.00000000
     atom    2 type  1   force =     0.00000000    0.00000000    0.00000000
     atom    3 type  2   force =     0.00000000    0.00000000    0.00000000
     atom    4 type  2   force =     0.00000000    0.00000000    0.00000000
     atom    5 type  2   force =     0.00000000    0.00000000    0.00000000
     atom    6 type  2   force =     0.00000000    0.00000000    0.00000000
     atom    7 type  2   force =     0.00000000    0.00000000    0.00000000
     atom    8 type  2   force =     0.00000000    0.00000000    0.00000000
     atom    9 type  2   force =     0.00000000    0.00000000    0.00000000
     atom   10 type  2   force =     0.00000000    0.00000000    0.00000000
     atom   11 type  2   force =     0.00000000    0.00000000    0.00000000
     atom   12 type  2   force =     0.00000000    0.00000000    0.00000000
     atom   13 type  2   force =     0.00000000    0.00000000    0.00000000
     atom   14 type  2   force =     0.00000000    0.00000000    0.00000000
     atom   15 type  2   force =     0.00000000    0.00000000    0.00000000
     atom   16 type  2   force =     0.00000000    0.00000000    0.00000000
     atom   17 type  2   force =     0.00000000    0.00000000    0.00000000
     atom   18 type  2   force =     0.00000000    0.00000000    0.00000000
     atom   19 type  2   force =     0.00000000    0.00000000    0.00000000
     atom   20 type  2   force =     0.00000000    0.00000000    0.00000000
     atom   21 type  2   force =     0.00000000    0.00000000    0.00000000
     atom   22 type  2   force =     0.00000000    0.00000000    0.00000000
     atom   23 type  2   force =     0.00000000    0.00000000    0.00000000
     atom   24 type  2   force =     0.00000000    0.00000000    0.00000000
     atom   25 type  2   force =     0.00000000    0.00000000    0.00000000
     atom   26 type  2   force =     0.00000000    0.00000000    0.00000000
     atom   27 type  2   force =     0.00000000    0.00000000    0.00000000
     atom   28 type  3   force =     0.00000000    0.00000000    0.00000000
     atom   29 type  2   force =     0.00000000    0.00000000    0.00000000
     atom   30 type  2   force =     0.00000000    0.00000000    0.00000000
     atom   31 type  2   force =     0.00000000    0.00000000    0.00000000
     atom   32 type  2   force =     0.00000000    0.00000000    0.00000000
     atom   33 type  2   force =     0.00000000    0.00000000    0.00000000
     atom   34 type  2   force =     0.00000000    0.00000000    0.00000000
     atom   35 type  2   force =     0.00000000    0.00000000    0.00000000
     atom   36 type  2   force =     0.00000000    0.00000000    0.00000000
     atom   37 type  2   force =     0.00000000    0.00000000    0.00000000
     atom   38 type  2   force =     0.00000000    0.00000000    0.00000000
     atom   39 type  2   force =     0.00000000    0.00000000    0.00000000
     atom   40 type  2   force =     0.00000000    0.00000000    0.00000000
     atom   41 type  2   force =     0.00000000    0.00000000    0.00000000
     atom   42 type  2   force =     0.00000000    0.00000000    0.00000000
     atom   43 type  2   force =     0.00000000    0.00000000    0.00000000
     atom   44 type  2   force =     0.00000000    0.00000000    0.00000000
     atom   45 type  2   force =     0.00000000    0.00000000    0.00000000
     atom   46 type  2   force =     0.00000000    0.00000000    0.00000000
     atom   47 type  2   force =     0.00000000    0.00000000    0.00000000
     atom   48 type  2   force =     0.00000000    0.00000000    0.00000000
     atom   49 type  2   force =     0.00000000    0.00000000    0.00000000
     atom   50 type  2   force =     0.00000000    0.00000000    0.00000000
     atom   51 type  2   force =     0.00000000    0.00000000    0.00000000
     atom   52 type  2   force =     0.00000000    0.00000000    0.00000000
     The SCF correction term to forces
     atom    1 type  1   force =    -0.00000005    0.00000003   -0.00000000
     atom    2 type  1   force =    -0.00000004    0.00000002    0.00000000
     atom    3 type  2   force =     0.00000001   -0.00000000    0.00000008
     atom    4 type  2   force =     0.00000011    0.00000046    0.00000006
     atom    5 type  2   force =     0.00000028    0.00000053    0.00000006
     atom    6 type  2   force =     0.00000056    0.00000059    0.00000003
     atom    7 type  2   force =     0.00000077    0.00000043    0.00000006
     atom    8 type  2   force =     0.00000089    0.00000039    0.00000005
     atom    9 type  2   force =     0.00000070    0.00000028    0.00000008
     atom   10 type  2   force =     0.00000061   -0.00000001    0.00000008
     atom   11 type  2   force =     0.00000025   -0.00000005    0.00000008
     atom   12 type  2   force =     0.00000016   -0.00000009    0.00000008
     atom   13 type  2   force =     0.00000017   -0.00000019    0.00000008
     atom   14 type  2   force =    -0.00000027    0.00000022    0.00000006
     atom   15 type  2   force =    -0.00000005    0.00000071    0.00000003
     atom   16 type  2   force =    -0.00000011    0.00000070   -0.00000003
     atom   17 type  2   force =     0.00000026    0.00000063   -0.00000001
     atom   18 type  2   force =     0.00000009    0.00000022    0.00000004
     atom   19 type  2   force =     0.00000064    0.00000014    0.00000002
     atom   20 type  2   force =     0.00000052   -0.00000030    0.00000004
     atom   21 type  2   force =     0.00000064   -0.00000037    0.00000006
     atom   22 type  2   force =     0.00000032   -0.00000052    0.00000008
     atom   23 type  2   force =     0.00000011   -0.00000074    0.00000008
     atom   24 type  2   force =    -0.00000015   -0.00000047    0.00000009
     atom   25 type  2   force =    -0.00000039    0.00000021    0.00000006
     atom   26 type  2   force =    -0.00000077    0.00000069   -0.00000002
     atom   27 type  2   force =    -0.00000050    0.00000060   -0.00000007
     atom   28 type  3   force =    -0.00000147    0.00000085    0.00000073
     atom   29 type  2   force =    -0.00000012    0.00000007    0.00000010
     atom   30 type  2   force =    -0.00000014   -0.00000019    0.00000004
     atom   31 type  2   force =     0.00000020   -0.00000062    0.00000002
     atom   32 type  2   force =     0.00000011   -0.00000097    0.00000005
     atom   33 type  2   force =     0.00000001   -0.00000088    0.00000006
     atom   34 type  2   force =     0.00000014   -0.00000057    0.00000008
     atom   35 type  2   force =    -0.00000004   -0.00000039    0.00000010
     atom   36 type  2   force =    -0.00000028    0.00000016    0.00000011
     atom   37 type  2   force =    -0.00000080    0.00000046    0.00000002
     atom   38 type  2   force =    -0.00000098    0.00000033   -0.00000002
     atom   39 type  2   force =    -0.00000077    0.00000014   -0.00000007
     atom   40 type  2   force =    -0.00000067   -0.00000025   -0.00000003
     atom   41 type  2   force =    -0.00000041   -0.00000054   -0.00000001
     atom   42 type  2   force =    -0.00000023   -0.00000079    0.00000003
     atom   43 type  2   force =    -0.00000031   -0.00000051    0.00000006
     atom   44 type  2   force =     0.00000017   -0.00000010    0.00000007
     atom   45 type  2   force =     0.00000018   -0.00000011    0.00000008
     atom   46 type  2   force =     0.00000057    0.00000016    0.00000008
     atom   47 type  2   force =     0.00000031    0.00000023    0.00000010
     atom   48 type  2   force =     0.00000033    0.00000036    0.00000009
     atom   49 type  2   force =    -0.00000037    0.00000023    0.00000006
     atom   50 type  2   force =    -0.00000032    0.00000013    0.00000006
     atom   51 type  2   force =    -0.00000064   -0.00000031    0.00000003
     atom   52 type  2   force =    -0.00000034   -0.00000033    0.00000006

     Total force =     0.029652     Total SCF correction =     0.000005

     number of scf cycles    =  50
     number of bfgs steps    =  49

     energy   old            =    -733.4974905349 Ry
     energy   new            =    -733.4986419845 Ry

     CASE: energy  _new < energy  _old

     new trust radius        =       0.0591261575 bohr
     new conv_thr            =            6.7E-12 Ry

ATOMIC_POSITIONS (angstrom)
H        3.651207741   5.008674671   3.260846426
H        3.862967761   4.886414967   3.971793004
C        0.002963446  -0.001710946   0.083197221
C        0.000857590   1.428358013   0.062022483
C       -1.230869064   2.138083905   0.047611013
C       -1.226099617   3.567938086   0.008631934
C       -2.467880269   4.272162464   0.040609708
C       -2.482621031   5.693965023   0.054325758
C       -3.707927803   6.406048965   0.071320948
C       -3.712948127   7.829548666   0.064309872
C       -4.940160059   8.539102774   0.082950351
C       -4.930024834   9.963051609   0.088650669
C        2.461326793   0.008752723   0.082950351
C        2.463912424   1.433292206   0.067941387
C        1.234598407   2.148409616   0.033288997
C        1.242326128   3.588269425  -0.086554504
C       -0.007190245   4.290163722  -0.112901492
C       -0.048707888   5.719391173  -0.222528171
C       -1.266999795   6.419611049  -0.010364840
C       -1.258888142   7.843519851   0.017762873
C       -2.484130456   8.550913831   0.053621264
C       -2.473818733   9.975783733   0.064309872
C        4.924721707   0.008135191   0.071320948
C        4.938433017   1.424438500   0.089137047
C        3.706997092   2.125393823   0.070227181
C        3.733085755   3.544992833   0.012974438
C        2.521469013   4.191965384  -0.178791742
Cu       2.529794559   5.656122874  -1.343972217
C        1.052720451   6.508912008  -0.575926400
C        1.185751381   7.857537348  -0.222528171
C       -0.029802774   8.562499150  -0.010364840
C       -0.009185498   9.978081035   0.054325758
C        7.392745393   0.001165775   0.040609708
C        7.401830769   1.420435172   0.057548172
C        6.172958199   2.127550790   0.099681455
C        6.182792959   3.547063264   0.125252891
C        4.967652372   4.248625009   0.085425819
C        4.959732404   5.669607150   0.012974438
C        3.793629367   6.395411753  -0.178791742
C        3.676873961   7.805029966  -0.086554504
C        2.444257483   8.536195739  -0.112901492
C        2.460268545   9.952915038   0.008631934
C        9.859417240  -0.003078075   0.047611013
C        9.863699626   1.421890809   0.045897138
C        8.632254392   2.132866046   0.036408220
C        8.634025816   3.554659599   0.057548172
C        7.407209443   4.265336653   0.099681455
C        7.398859956   5.686022968   0.089137047
C        6.176096877   6.402000100   0.070227181
C        6.153932126   7.824593811   0.067941387
C        4.919965273   8.531652273   0.033288997
C        4.926677845   9.960128964   0.062022483

     Writing output data file cobre-sixhollow-2.8.save/
     NEW-OLD atomic charge density approx. for the potential

     Check: negative core charge=   -0.000002

     negative rho (up, down):  5.334E-04 6.580E-04

     Writing output data file cobre-sixhollow-2.8.save/

     General routines

     Parallel routines

   This run was terminated on:  20:18:48  12Sep2022

   JOB DONE.