     Program PWSCF v.6.4.1 starts on  1Sep2022 at 22:35: 8

     R & G space division:  proc/nbgrp/npool/nimage =       6
     Reading input from distance-2.0.in

     Current dimensions of program PWSCF are:
     Max number of different atomic species (ntypx) = 10
     Max number of k-points (npk) =  40000
     Max angular momentum in pseudopotentials (lmaxx) =  3

     IMPORTANT: XC functional enforced from input :
     Exchange-correlation      = RVV10 ( 1  4 13  4 3 0)
     Any further DFT definition will be discarded
     Please, verify this is what you really want

               file H.pbe-rrkjus.UPF: wavefunction(s)  1S renormalized
               file V.pbe-spnl-rrkjus_psl.1.0.0.UPF: wavefunction(s)  3P 3D renormalized

     Subspace diagonalization in iterative solution of the eigenvalue problem:
     a serial algorithm will be used

     bravais-lattice index     =            4
     lattice parameter (alat)  =      23.2937  a.u.
     unit-cell volume          =    8879.8548 (a.u.)^3
     number of atoms/cell      =           52
     number of atomic types    =            3
     number of electrons       =       211.00
     number of Kohn-Sham states=          127
     kinetic-energy cutoff     =      70.0000  Ry
     charge density cutoff     =     490.0000  Ry
     convergence threshold     =      1.0E-06
     mixing beta               =       0.7000
     number of iterations used =            8  plain     mixing
     Exchange-correlation      = RVV10 ( 1  4 13  4 3 0)

     celldm(1)=  23.293684  celldm(2)=   0.000000  celldm(3)=   0.811261
     celldm(4)=   0.000000  celldm(5)=   0.000000  celldm(6)=   0.000000

     crystal axes: (cart. coord. in units of alat)
               a(1) = (   1.000000   0.000000   0.000000 )
               a(2) = (  -0.500000   0.866025   0.000000 )
               a(3) = (   0.000000   0.000000   0.811261 )

     reciprocal axes: (cart. coord. in units 2 pi/alat)
               b(1) = (  1.000000  0.577350 -0.000000 )
               b(2) = (  0.000000  1.154701  0.000000 )
               b(3) = (  0.000000 -0.000000  1.232649 )

     PseudoPot. # 1 for H  read from file:
     /home/cristian/Escritorio/Proyecto_Grafeno/pseudopotenciales/H.pbe-rrkjus.UPF
     MD5 check sum: 7cc9d459525c9a0585f487a71c3c9563
     Pseudo is Ultrasoft, Zval =  1.0
     Generated by new atomic code, or converted to UPF format
     Using radial grid of 1061 points,  2 beta functions with:
                l(1) =   0
                l(2) =   0
     Q(r) pseudized with 0 coefficients

     PseudoPot. # 2 for C  read from file:
     /home/cristian/Escritorio/Proyecto_Grafeno/pseudopotenciales/C.pbe-n-rrkjus_psl.1.0.0.UPF
     MD5 check sum: 1fdd950c42eb37d8afe3dd2f8d12311e
     Pseudo is Ultrasoft + core correction, Zval =  4.0
     Generated using "atomic" code by A. Dal Corso v.6.3MaX
     Using radial grid of 1073 points,  4 beta functions with:
                l(1) =   0
                l(2) =   0
                l(3) =   1
                l(4) =   1
     Q(r) pseudized with 0 coefficients

     PseudoPot. # 3 for V  read from file:
     /home/cristian/Escritorio/Proyecto_Grafeno/pseudopotenciales/V.pbe-spnl-rrkjus_psl.1.0.0.UPF
     MD5 check sum: 79b3eb63147daf0b665d9f1bcc691206
     Pseudo is Ultrasoft + core correction, Zval = 13.0
     Generated using "atomic" code by A. Dal Corso v.6.2.2
     Using radial grid of 1181 points,  6 beta functions with:
                l(1) =   0
                l(2) =   0
                l(3) =   1
                l(4) =   1
                l(5) =   2
                l(6) =   2
     Q(r) pseudized with 0 coefficients

     vdW kernel table read from file rVV10_kernel_table
     MD5 check sum: b8e2538accc0c0b3206b45ba4daaba6c

     atomic species   valence    mass     pseudopotential
        H              1.00     1.00794     H ( 1.00)
        C              4.00    12.01070     C ( 1.00)
        V             13.00    50.94150     V ( 1.00)

     Starting magnetic structure
     atomic species   magnetization
        H            0.500
        C            0.300
        V            0.800

     No symmetry found

                                    s                        frac. trans.

      isym =  1     identity

 cryst.   s( 1) = (     1          0          0      )
                  (     0          1          0      )
                  (     0          0          1      )

 cart.    s( 1) = (  1.0000000  0.0000000  0.0000000 )
                  (  0.0000000  1.0000000  0.0000000 )
                  (  0.0000000  0.0000000  1.0000000 )

     point group C_1 (1)
     there are  1 classes
     the character table:

       E
A      1.00

     the symmetry operations in each class and the name of the first element:

     E        1
          identity

   Cartesian axes

     site n.     atom                  positions (alat units)
         1           H   tau(   1) = (   0.2694937   0.4041452   0.1622522  )
         2           H   tau(   2) = (   0.3305063   0.4041452   0.1622522  )
         3           C   tau(   3) = (   0.0000000   0.0000000   0.0000000  )
         4           C   tau(   4) = (   0.0000000   0.1154701   0.0000000  )
         5           C   tau(   5) = (  -0.1000000   0.1732051   0.0000000  )
         6           C   tau(   6) = (  -0.1000000   0.2886751   0.0000000  )
         7           C   tau(   7) = (  -0.2000000   0.3464102   0.0000000  )
         8           C   tau(   8) = (  -0.2000000   0.4618802   0.0000000  )
         9           C   tau(   9) = (  -0.3000000   0.5196152   0.0000000  )
        10           C   tau(  10) = (  -0.3000000   0.6350853   0.0000000  )
        11           C   tau(  11) = (  -0.4000000   0.6928203   0.0000000  )
        12           C   tau(  12) = (  -0.4000000   0.8082904   0.0000000  )
        13           C   tau(  13) = (   0.2000000   0.0000000   0.0000000  )
        14           C   tau(  14) = (   0.2000000   0.1154701   0.0000000  )
        15           C   tau(  15) = (   0.1000000   0.1732051   0.0000000  )
        16           C   tau(  16) = (   0.1000000   0.2886751   0.0000000  )
        17           C   tau(  17) = (   0.0000000   0.3464102   0.0000000  )
        18           C   tau(  18) = (   0.0000000   0.4618802   0.0000000  )
        19           C   tau(  19) = (  -0.1000000   0.5196152   0.0000000  )
        20           C   tau(  20) = (  -0.1000000   0.6350853   0.0000000  )
        21           C   tau(  21) = (  -0.2000000   0.6928203   0.0000000  )
        22           C   tau(  22) = (  -0.2000000   0.8082904   0.0000000  )
        23           C   tau(  23) = (   0.4000000   0.0000000   0.0000000  )
        24           C   tau(  24) = (   0.4000000   0.1154701   0.0000000  )
        25           C   tau(  25) = (   0.3000000   0.1732051   0.0000000  )
        26           C   tau(  26) = (   0.3000000   0.2886751   0.0000000  )
        27           C   tau(  27) = (   0.2000000   0.3464102   0.0000000  )
        28           V   tau(  28) = (   0.2000000   0.4618802   0.0000000  )
        29           C   tau(  29) = (   0.1000000   0.5196152   0.0000000  )
        30           C   tau(  30) = (   0.1000000   0.6350853   0.0000000  )
        31           C   tau(  31) = (   0.0000000   0.6928203   0.0000000  )
        32           C   tau(  32) = (   0.0000000   0.8082904   0.0000000  )
        33           C   tau(  33) = (   0.6000000   0.0000000   0.0000000  )
        34           C   tau(  34) = (   0.6000000   0.1154701   0.0000000  )
        35           C   tau(  35) = (   0.5000000   0.1732051   0.0000000  )
        36           C   tau(  36) = (   0.5000000   0.2886751   0.0000000  )
        37           C   tau(  37) = (   0.4000000   0.3464102   0.0000000  )
        38           C   tau(  38) = (   0.4000000   0.4618802   0.0000000  )
        39           C   tau(  39) = (   0.3000000   0.5196152   0.0000000  )
        40           C   tau(  40) = (   0.3000000   0.6350853   0.0000000  )
        41           C   tau(  41) = (   0.2000000   0.6928203   0.0000000  )
        42           C   tau(  42) = (   0.2000000   0.8082904   0.0000000  )
        43           C   tau(  43) = (   0.8000000   0.0000000   0.0000000  )
        44           C   tau(  44) = (   0.8000000   0.1154701   0.0000000  )
        45           C   tau(  45) = (   0.7000000   0.1732051   0.0000000  )
        46           C   tau(  46) = (   0.7000000   0.2886751   0.0000000  )
        47           C   tau(  47) = (   0.6000000   0.3464102   0.0000000  )
        48           C   tau(  48) = (   0.6000000   0.4618802   0.0000000  )
        49           C   tau(  49) = (   0.5000000   0.5196152   0.0000000  )
        50           C   tau(  50) = (   0.5000000   0.6350853   0.0000000  )
        51           C   tau(  51) = (   0.4000000   0.6928203   0.0000000  )
        52           C   tau(  52) = (   0.4000000   0.8082904   0.0000000  )

   Crystallographic axes

     site n.     atom                  positions (cryst. coord.)
         1           H   tau(   1) = (  0.5028270  0.4666667  0.2000000  )
         2           H   tau(   2) = (  0.5638397  0.4666667  0.2000000  )
         3           C   tau(   3) = (  0.0000000  0.0000000  0.0000000  )
         4           C   tau(   4) = (  0.0666667  0.1333333  0.0000000  )
         5           C   tau(   5) = (  0.0000000  0.2000000  0.0000000  )
         6           C   tau(   6) = (  0.0666667  0.3333333  0.0000000  )
         7           C   tau(   7) = (  0.0000000  0.4000000  0.0000000  )
         8           C   tau(   8) = (  0.0666667  0.5333333  0.0000000  )
         9           C   tau(   9) = (  0.0000000  0.6000000  0.0000000  )
        10           C   tau(  10) = (  0.0666667  0.7333333  0.0000000  )
        11           C   tau(  11) = (  0.0000000  0.8000000  0.0000000  )
        12           C   tau(  12) = (  0.0666667  0.9333333  0.0000000  )
        13           C   tau(  13) = (  0.2000000  0.0000000  0.0000000  )
        14           C   tau(  14) = (  0.2666667  0.1333333  0.0000000  )
        15           C   tau(  15) = (  0.2000000  0.2000000  0.0000000  )
        16           C   tau(  16) = (  0.2666667  0.3333333  0.0000000  )
        17           C   tau(  17) = (  0.2000000  0.4000000  0.0000000  )
        18           C   tau(  18) = (  0.2666667  0.5333333  0.0000000  )
        19           C   tau(  19) = (  0.2000000  0.6000000  0.0000000  )
        20           C   tau(  20) = (  0.2666667  0.7333333  0.0000000  )
        21           C   tau(  21) = (  0.2000000  0.8000000  0.0000000  )
        22           C   tau(  22) = (  0.2666667  0.9333333  0.0000000  )
        23           C   tau(  23) = (  0.4000000  0.0000000  0.0000000  )
        24           C   tau(  24) = (  0.4666667  0.1333333  0.0000000  )
        25           C   tau(  25) = (  0.4000000  0.2000000  0.0000000  )
        26           C   tau(  26) = (  0.4666667  0.3333333  0.0000000  )
        27           C   tau(  27) = (  0.4000000  0.4000000  0.0000000  )
        28           V   tau(  28) = (  0.4666667  0.5333333  0.0000000  )
        29           C   tau(  29) = (  0.4000000  0.6000000  0.0000000  )
        30           C   tau(  30) = (  0.4666667  0.7333333  0.0000000  )
        31           C   tau(  31) = (  0.4000000  0.8000000  0.0000000  )
        32           C   tau(  32) = (  0.4666667  0.9333333  0.0000000  )
        33           C   tau(  33) = (  0.6000000  0.0000000  0.0000000  )
        34           C   tau(  34) = (  0.6666667  0.1333333  0.0000000  )
        35           C   tau(  35) = (  0.6000000  0.2000000  0.0000000  )
        36           C   tau(  36) = (  0.6666667  0.3333333  0.0000000  )
        37           C   tau(  37) = (  0.6000000  0.4000000  0.0000000  )
        38           C   tau(  38) = (  0.6666667  0.5333333  0.0000000  )
        39           C   tau(  39) = (  0.6000000  0.6000000  0.0000000  )
        40           C   tau(  40) = (  0.6666667  0.7333333  0.0000000  )
        41           C   tau(  41) = (  0.6000000  0.8000000  0.0000000  )
        42           C   tau(  42) = (  0.6666667  0.9333333  0.0000000  )
        43           C   tau(  43) = (  0.8000000  0.0000000  0.0000000  )
        44           C   tau(  44) = (  0.8666667  0.1333333  0.0000000  )
        45           C   tau(  45) = (  0.8000000  0.2000000  0.0000000  )
        46           C   tau(  46) = (  0.8666667  0.3333333  0.0000000  )
        47           C   tau(  47) = (  0.8000000  0.4000000  0.0000000  )
        48           C   tau(  48) = (  0.8666667  0.5333333  0.0000000  )
        49           C   tau(  49) = (  0.8000000  0.6000000  0.0000000  )
        50           C   tau(  50) = (  0.8666667  0.7333333  0.0000000  )
        51           C   tau(  51) = (  0.8000000  0.8000000  0.0000000  )
        52           C   tau(  52) = (  0.8666667  0.9333333  0.0000000  )

     number of k points=     1  Marzari-Vanderbilt smearing, width (Ry)=  0.0010
                       cart. coord. in units 2pi/alat
        k(    1) = (   0.0000000   0.0000000   0.0000000), wk =   1.0000000

                       cryst. coord.
        k(    1) = (   0.0000000   0.0000000   0.0000000), wk =   1.0000000

     Check: negative core charge=   -0.000002

     Initial potential from superposition of free atoms

     starting charge  210.80465, renormalised to  211.00000

     negative rho (up, down):  1.463E-04 1.960E-02

Carrying out rVV10 run using the following parameters:
Nqs =      20    Nr_points =    1024   r_max =   100.000
b_value =  6.30000    beta =  0.00901
     q_mesh =  0.00010000  0.00030000  0.00058939  0.00100810
               0.00161396  0.00249058  0.00375900  0.00559430
               0.00824984  0.01209221  0.01765183  0.02569619
               0.03733578  0.05417739  0.07854596  0.11380545
               0.16482331  0.23864234  0.34545298  0.50000000

Gradients computed in Reciprocal space

     Starting wfcs are  208 randomized atomic wfcs

     Self-consistent Calculation

     iteration #  1     ecut=    70.00 Ry     beta= 0.70
     Davidson diagonalization with overlap
     ethr =  1.00E-02,  avg # of iterations =  3.0

[...]

     total energy              =    -752.12091320 Ry
     Harris-Foulkes estimate   =    -757.12581274 Ry
     estimated scf accuracy    <      12.99623683 Ry

     total magnetization       =     5.00 Bohr mag/cell
     absolute magnetization    =     6.06 Bohr mag/cell

[...]

     total energy              =    -757.31207678 Ry
     Harris-Foulkes estimate   =    -757.31207700 Ry
     estimated scf accuracy    <       0.00000157 Ry

[...]

     iteration # 29     ecut=    70.00 Ry     beta= 0.70
     Davidson diagonalization with overlap
     ethr =  7.43E-10,  avg # of iterations =  3.0

     negative rho (up, down):  3.421E-02 2.146E-03

     Magnetic moment per site:
     atom:    1    charge:    0.2187    magn:   -0.0001    constr:    0.0000
     atom:    2    charge:    0.2091    magn:    0.0001    constr:    0.0000
     atom:    3    charge:    1.7180    magn:   -0.0057    constr:    0.0000
     atom:    4    charge:    1.7154    magn:    0.0065    constr:    0.0000
     atom:    5    charge:    1.7182    magn:   -0.0033    constr:    0.0000
     atom:    6    charge:    1.7142    magn:    0.0023    constr:    0.0000
     atom:    7    charge:    1.7183    magn:   -0.0040    constr:    0.0000
     atom:    8    charge:    1.7160    magn:    0.0098    constr:    0.0000
     atom:    9    charge:    1.7177    magn:   -0.0069    constr:    0.0000
     atom:   10    charge:    1.7144    magn:    0.0315    constr:    0.0000
     atom:   11    charge:    1.7187    magn:   -0.0088    constr:    0.0000
     atom:   12    charge:    1.7126    magn:    0.0188    constr:    0.0000
     atom:   13    charge:    1.7185    magn:   -0.0089    constr:    0.0000
     atom:   14    charge:    1.7146    magn:    0.0235    constr:    0.0000
     atom:   15    charge:    1.7171    magn:   -0.0063    constr:    0.0000
     atom:   16    charge:    1.7093    magn:    0.0187    constr:    0.0000
     atom:   17    charge:    1.7275    magn:   -0.0029    constr:    0.0000
     atom:   18    charge:    1.7094    magn:    0.0164    constr:    0.0000
     atom:   19    charge:    1.7175    magn:   -0.0058    constr:    0.0000
     atom:   20    charge:    1.7133    magn:    0.0146    constr:    0.0000
     atom:   21    charge:    1.7185    magn:   -0.0090    constr:    0.0000
     atom:   22    charge:    1.7164    magn:    0.0422    constr:    0.0000
     atom:   23    charge:    1.7172    magn:   -0.0078    constr:    0.0000
     atom:   24    charge:    1.7160    magn:    0.0123    constr:    0.0000
     atom:   25    charge:    1.7162    magn:   -0.0095    constr:    0.0000
     atom:   26    charge:    1.7149    magn:    0.0413    constr:    0.0000
     atom:   27    charge:    1.9150    magn:    0.0002    constr:    0.0000
     atom:   28    charge:    7.8605    magn:    0.1023    constr:    0.0000
     atom:   29    charge:    1.9149    magn:   -0.0024    constr:    0.0000
     atom:   30    charge:    1.7108    magn:    0.0264    constr:    0.0000
     atom:   31    charge:    1.7172    magn:   -0.0071    constr:    0.0000
     atom:   32    charge:    1.7162    magn:    0.0120    constr:    0.0000
     atom:   33    charge:    1.7181    magn:   -0.0045    constr:    0.0000
     atom:   34    charge:    1.7142    magn:    0.0087    constr:    0.0000
     atom:   35    charge:    1.7181    magn:   -0.0048    constr:    0.0000
     atom:   36    charge:    1.7142    magn:    0.0031    constr:    0.0000
     atom:   37    charge:    1.7270    magn:   -0.0076    constr:    0.0000
     atom:   38    charge:    1.7153    magn:    0.0423    constr:    0.0000
     atom:   39    charge:    1.9153    magn:    0.0016    constr:    0.0000
     atom:   40    charge:    1.7106    magn:    0.0309    constr:    0.0000
     atom:   41    charge:    1.7269    magn:   -0.0050    constr:    0.0000
     atom:   42    charge:    1.7141    magn:    0.0026    constr:    0.0000
     atom:   43    charge:    1.7184    magn:   -0.0036    constr:    0.0000
     atom:   44    charge:    1.7136    magn:    0.0046    constr:    0.0000
     atom:   45    charge:    1.7242    magn:   -0.0030    constr:    0.0000
     atom:   46    charge:    1.7139    magn:    0.0069    constr:    0.0000
     atom:   47    charge:    1.7182    magn:   -0.0046    constr:    0.0000
     atom:   48    charge:    1.7155    magn:    0.0093    constr:    0.0000
     atom:   49    charge:    1.7161    magn:   -0.0101    constr:    0.0000
     atom:   50    charge:    1.7157    magn:    0.0311    constr:    0.0000
     atom:   51    charge:    1.7168    magn:   -0.0081    constr:    0.0000
     atom:   52    charge:    1.7151    magn:    0.0063    constr:    0.0000

     End of self-consistent calculation

 ------ SPIN UP ------------

          k = 0.0000 0.0000 0.0000 ( 87777 PWs)   bands (ev):

   -62.8242 -37.9380 -37.8862 -36.5863 -19.6482 -18.8209 -18.7830 -18.7389
   -18.6973 -18.6879 -18.2540 -16.9609 -16.9516 -16.9378 -16.8245 -16.7998
   -16.5324 -16.0961 -16.0944 -16.0046 -15.8522 -15.8418 -15.0971 -13.9110
   -13.9067 -13.8868 -13.8753 -13.8712 -13.1501 -12.9373 -12.9271 -12.9106
   -12.5270 -12.5144 -12.1256 -11.6605 -11.6562 -11.5358 -11.1593 -11.1476
   -10.1680  -9.3559  -9.3466  -9.2644  -9.2008  -9.1935  -9.1049  -9.0833
    -9.0820  -9.0662  -8.4923  -8.4728  -8.2350  -7.9106  -7.8992  -7.8634
    -7.6877  -7.6589  -7.2700  -7.2569  -6.9671  -6.9125  -6.8486  -6.7184
    -6.7094  -6.6202  -6.6071  -6.6017  -6.5519  -6.4529  -6.4401  -6.4125
    -6.3986  -6.3906  -6.3488  -5.9502  -5.2770  -5.2677  -5.1685  -5.0374
    -4.9618  -4.9550  -4.8441  -4.7597  -4.6339  -4.6184  -4.5832  -4.1983
    -4.0025  -3.9944  -3.7763  -3.7341  -3.6650  -3.6175  -3.5132  -3.5114
    -2.8512  -2.2912  -2.2724  -2.2223  -2.1985  -1.7658  -1.6990  -1.6949
    -0.5768  -0.2510  -0.2419   0.9632   1.0293   1.0662   1.2005   1.7766
     2.0337   2.0414   2.5210   2.8771   2.8860   2.9568   3.4427   3.5582
     3.7026   3.7436   3.7650   3.8060   3.9351   3.9901   3.9968

     occupation numbers
     1.0000   1.0000   1.0000   1.0000   1.0000   1.0000   1.0000   1.0000
     1.0000   1.0000   1.0000   1.0000   1.0000   1.0000   1.0000   1.0000
     1.0000   1.0000   1.0000   1.0000   1.0000   1.0000   1.0000   1.0000
     1.0000   1.0000   1.0000   1.0000   1.0000   1.0000   1.0000   1.0000
     1.0000   1.0000   1.0000   1.0000   1.0000   1.0000   1.0000   1.0000
     1.0000   1.0000   1.0000   1.0000   1.0000   1.0000   1.0000   1.0000
     1.0000   1.0000   1.0000   1.0000   1.0000   1.0000   1.0000   1.0000
     1.0000   1.0000   1.0000   1.0000   1.0000   1.0000   1.0000   1.0000
     1.0000   1.0000   1.0000   1.0000   1.0000   1.0000   1.0000   1.0000
     1.0000   1.0000   1.0000   1.0000   1.0000   1.0000   1.0000   1.0000
     1.0000   1.0000   1.0000   1.0000   1.0000   1.0000   1.0000   1.0000
     1.0000   1.0000   1.0000   1.0000   1.0000   1.0000   1.0000   1.0000
     1.0000   1.0000   1.0000   1.0000   1.0000   1.0000   1.0000   1.0000
     1.0000   0.7351   0.2649   0.0000   0.0000   0.0000   0.0000   0.0000
     0.0000   0.0000   0.0000   0.0000   0.0000   0.0000   0.0000   0.0000
     0.0000   0.0000   0.0000   0.0000   0.0000   0.0000   0.0000

 ------ SPIN DOWN ----------

          k = 0.0000 0.0000 0.0000 ( 87777 PWs)   bands (ev):

   -62.6273 -37.8185 -37.6804 -36.3169 -19.6269 -18.8045 -18.7576 -18.7189
   -18.6817 -18.6704 -18.2218 -16.9465 -16.9352 -16.9157 -16.7997 -16.7690
   -16.5182 -16.0722 -16.0646 -15.9883 -15.8318 -15.8203 -15.0823 -13.8854
   -13.8774 -13.8721 -13.8585 -13.8318 -13.1533 -12.9278 -12.9150 -12.8956
   -12.5201 -12.5055 -12.1072 -11.6416 -11.6394 -11.5228 -11.1489 -11.1330
   -10.1534  -9.3406  -9.3279  -9.2520  -9.1853  -9.1754  -9.0968  -9.0714
    -9.0662  -9.0554  -8.4852  -8.4648  -8.1941  -7.8997  -7.8873  -7.8512
    -7.6794  -7.6198  -7.2609  -7.2471  -6.8919  -6.8844  -6.8032  -6.6740
    -6.6697  -6.5958  -6.5948  -6.5880  -6.5424  -6.4441  -6.4302  -6.4076
    -6.3909  -6.3830  -6.3403  -5.8854  -5.2694  -5.2583  -5.0680  -4.9712
    -4.9513  -4.9447  -4.8383  -4.7536  -4.5952  -4.5601  -4.5387  -4.1576
    -3.9587  -3.9373  -3.6998  -3.6586  -3.6217  -3.5875  -3.5071  -3.5039
    -2.8098  -2.2368  -2.1919  -2.1619  -2.1266  -1.6896  -1.6834  -1.6623
    -0.5719  -0.0731   0.0311   1.0042   1.0841   1.1063   1.2580   1.8419
     2.0955   2.1188   2.5266   2.9474   2.9535   3.0035   3.4588   3.5774
     3.7073   3.7462   3.7713   3.8312   3.9530   4.0390   4.1513

     occupation numbers
     1.0000   1.0000   1.0000   1.0000   1.0000   1.0000   1.0000   1.0000
     1.0000   1.0000   1.0000   1.0000   1.0000   1.0000   1.0000   1.0000
     1.0000   1.0000   1.0000   1.0000   1.0000   1.0000   1.0000   1.0000
     1.0000   1.0000   1.0000   1.0000   1.0000   1.0000   1.0000   1.0000
     1.0000   1.0000   1.0000   1.0000   1.0000   1.0000   1.0000   1.0000
     1.0000   1.0000   1.0000   1.0000   1.0000   1.0000   1.0000   1.0000
     1.0000   1.0000   1.0000   1.0000   1.0000   1.0000   1.0000   1.0000
     1.0000   1.0000   1.0000   1.0000   1.0000   1.0000   1.0000   1.0000
     1.0000   1.0000   1.0000   1.0000   1.0000   1.0000   1.0000   1.0000
     1.0000   1.0000   1.0000   1.0000   1.0000   1.0000   1.0000   1.0000
     1.0000   1.0000   1.0000   1.0000   1.0000   1.0000   1.0000   1.0000
     1.0000   1.0000   1.0000   1.0000   1.0000   1.0000   1.0000   1.0000
     1.0000   1.0000   1.0000   1.0000   1.0000   1.0000   1.0000   1.0000
     1.0000   0.0000   0.0000   0.0000   0.0000   0.0000   0.0000   0.0000
     0.0000   0.0000   0.0000   0.0000   0.0000   0.0000   0.0000   0.0000
     0.0000   0.0000   0.0000   0.0000   0.0000   0.0000   0.0000

     the Fermi energy is    -0.2448 ev

!    total energy              =    -757.31207687 Ry
     Harris-Foulkes estimate   =    -757.31207711 Ry
     estimated scf accuracy    <       0.00000055 Ry

     The total energy is the sum of the following terms:

     one-electron contribution =   -2608.47818821 Ry
     hartree contribution      =    1351.00288706 Ry
     xc contribution           =    -252.72745919 Ry
     ewald contribution        =     752.89093466 Ry
     smearing contrib. (-TS)   =      -0.00025119 Ry

     total magnetization       =     1.00 Bohr mag/cell
     absolute magnetization    =     1.54 Bohr mag/cell

     convergence has been achieved in  29 iterations

     Writing output data file vanadio-sixhollow-distance-2.0.save/

     General routines

     Parallel routines

   This run was terminated on:  23:25:19   1Sep2022

   JOB DONE.