     Program PWSCF v.6.4.1 starts on  1Sep2022 at 23:25:19

     R & G space division:  proc/nbgrp/npool/nimage =       6
     Reading input from distance-1.8.in

     Current dimensions of program PWSCF are:
     Max number of different atomic species (ntypx) = 10
     Max number of k-points (npk) =  40000
     Max angular momentum in pseudopotentials (lmaxx) =  3

     IMPORTANT: XC functional enforced from input :
     Exchange-correlation      = RVV10 ( 1  4 13  4 3 0)
     Any further DFT definition will be discarded
     Please, verify this is what you really want

               file H.pbe-rrkjus.UPF: wavefunction(s)  1S renormalized
               file V.pbe-spnl-rrkjus_psl.1.0.0.UPF: wavefunction(s)  3P 3D renormalized

     Subspace diagonalization in iterative solution of the eigenvalue problem:
     a serial algorithm will be used

     bravais-lattice index     =            4
     lattice parameter (alat)  =      23.2937  a.u.
     unit-cell volume          =    8879.8548 (a.u.)^3
     number of atoms/cell      =           52
     number of atomic types    =            3
     number of electrons       =       211.00
     number of Kohn-Sham states=          127
     kinetic-energy cutoff     =      70.0000  Ry
     charge density cutoff     =     490.0000  Ry
     convergence threshold     =      1.0E-06
     mixing beta               =       0.7000
     number of iterations used =            8  plain     mixing
     Exchange-correlation      = RVV10 ( 1  4 13  4 3 0)

     celldm(1)=  23.293684  celldm(2)=   0.000000  celldm(3)=   0.811261
     celldm(4)=   0.000000  celldm(5)=   0.000000  celldm(6)=   0.000000

     crystal axes: (cart. coord. in units of alat)
               a(1) = (   1.000000   0.000000   0.000000 )
               a(2) = (  -0.500000   0.866025   0.000000 )
               a(3) = (   0.000000   0.000000   0.811261 )

     reciprocal axes: (cart. coord. in units 2 pi/alat)
               b(1) = (  1.000000  0.577350 -0.000000 )
               b(2) = (  0.000000  1.154701  0.000000 )
               b(3) = (  0.000000 -0.000000  1.232649 )

     PseudoPot. # 1 for H  read from file:
     /home/cristian/Escritorio/Proyecto_Grafeno/pseudopotenciales/H.pbe-rrkjus.UPF
     MD5 check sum: 7cc9d459525c9a0585f487a71c3c9563
     Pseudo is Ultrasoft, Zval =  1.0
     Generated by new atomic code, or converted to UPF format
     Using radial grid of 1061 points,  2 beta functions with:
                l(1) =   0
                l(2) =   0
     Q(r) pseudized with 0 coefficients

     PseudoPot. # 2 for C  read from file:
     /home/cristian/Escritorio/Proyecto_Grafeno/pseudopotenciales/C.pbe-n-rrkjus_psl.1.0.0.UPF
     MD5 check sum: 1fdd950c42eb37d8afe3dd2f8d12311e
     Pseudo is Ultrasoft + core correction, Zval =  4.0
     Generated using "atomic" code by A. Dal Corso v.6.3MaX
     Using radial grid of 1073 points,  4 beta functions with:
                l(1) =   0
                l(2) =   0
                l(3) =   1
                l(4) =   1
     Q(r) pseudized with 0 coefficients

     PseudoPot. # 3 for V  read from file:
     /home/cristian/Escritorio/Proyecto_Grafeno/pseudopotenciales/V.pbe-spnl-rrkjus_psl.1.0.0.UPF
     MD5 check sum: 79b3eb63147daf0b665d9f1bcc691206
     Pseudo is Ultrasoft + core correction, Zval = 13.0
     Generated using "atomic" code by A. Dal Corso v.6.2.2
     Using radial grid of 1181 points,  6 beta functions with:
                l(1) =   0
                l(2) =   0
                l(3) =   1
                l(4) =   1
                l(5) =   2
                l(6) =   2
     Q(r) pseudized with 0 coefficients

     vdW kernel table read from file rVV10_kernel_table
     MD5 check sum: b8e2538accc0c0b3206b45ba4daaba6c

     atomic species   valence    mass     pseudopotential
        H              1.00     1.00794     H ( 1.00)
        C              4.00    12.01070     C ( 1.00)
        V             13.00    50.94150     V ( 1.00)

     Starting magnetic structure
     atomic species   magnetization
        H            0.500
        C            0.300
        V            0.800

     No symmetry found

                                    s                        frac. trans.

      isym =  1     identity

 cryst.   s( 1) = (     1          0          0      )
                  (     0          1          0      )
                  (     0          0          1      )

 cart.    s( 1) = (  1.0000000  0.0000000  0.0000000 )
                  (  0.0000000  1.0000000  0.0000000 )
                  (  0.0000000  0.0000000  1.0000000 )

     point group C_1 (1)
     there are  1 classes
     the character table:

       E
A      1.00

     the symmetry operations in each class and the name of the first element:

     E        1
          identity

   Cartesian axes

     site n.     atom                  positions (alat units)
         1           H   tau(   1) = (   0.2694937   0.4041452   0.1460270  )
         2           H   tau(   2) = (   0.3305063   0.4041452   0.1460270  )
         3           C   tau(   3) = (   0.0000000   0.0000000   0.0000000  )
         4           C   tau(   4) = (   0.0000000   0.1154701   0.0000000  )
         5           C   tau(   5) = (  -0.1000000   0.1732051   0.0000000  )
         6           C   tau(   6) = (  -0.1000000   0.2886751   0.0000000  )
         7           C   tau(   7) = (  -0.2000000   0.3464102   0.0000000  )
         8           C   tau(   8) = (  -0.2000000   0.4618802   0.0000000  )
         9           C   tau(   9) = (  -0.3000000   0.5196152   0.0000000  )
        10           C   tau(  10) = (  -0.3000000   0.6350853   0.0000000  )
        11           C   tau(  11) = (  -0.4000000   0.6928203   0.0000000  )
        12           C   tau(  12) = (  -0.4000000   0.8082904   0.0000000  )
        13           C   tau(  13) = (   0.2000000   0.0000000   0.0000000  )
        14           C   tau(  14) = (   0.2000000   0.1154701   0.0000000  )
        15           C   tau(  15) = (   0.1000000   0.1732051   0.0000000  )
        16           C   tau(  16) = (   0.1000000   0.2886751   0.0000000  )
        17           C   tau(  17) = (   0.0000000   0.3464102   0.0000000  )
        18           C   tau(  18) = (   0.0000000   0.4618802   0.0000000  )
        19           C   tau(  19) = (  -0.1000000   0.5196152   0.0000000  )
        20           C   tau(  20) = (  -0.1000000   0.6350853   0.0000000  )
        21           C   tau(  21) = (  -0.2000000   0.6928203   0.0000000  )
        22           C   tau(  22) = (  -0.2000000   0.8082904   0.0000000  )
        23           C   tau(  23) = (   0.4000000   0.0000000   0.0000000  )
        24           C   tau(  24) = (   0.4000000   0.1154701   0.0000000  )
        25           C   tau(  25) = (   0.3000000   0.1732051   0.0000000  )
        26           C   tau(  26) = (   0.3000000   0.2886751   0.0000000  )
        27           C   tau(  27) = (   0.2000000   0.3464102   0.0000000  )
        28           V   tau(  28) = (   0.2000000   0.4618802   0.0000000  )
        29           C   tau(  29) = (   0.1000000   0.5196152   0.0000000  )
        30           C   tau(  30) = (   0.1000000   0.6350853   0.0000000  )
        31           C   tau(  31) = (   0.0000000   0.6928203   0.0000000  )
        32           C   tau(  32) = (   0.0000000   0.8082904   0.0000000  )
        33           C   tau(  33) = (   0.6000000   0.0000000   0.0000000  )
        34           C   tau(  34) = (   0.6000000   0.1154701   0.0000000  )
        35           C   tau(  35) = (   0.5000000   0.1732051   0.0000000  )
        36           C   tau(  36) = (   0.5000000   0.2886751   0.0000000  )
        37           C   tau(  37) = (   0.4000000   0.3464102   0.0000000  )
        38           C   tau(  38) = (   0.4000000   0.4618802   0.0000000  )
        39           C   tau(  39) = (   0.3000000   0.5196152   0.0000000  )
        40           C   tau(  40) = (   0.3000000   0.6350853   0.0000000  )
        41           C   tau(  41) = (   0.2000000   0.6928203   0.0000000  )
        42           C   tau(  42) = (   0.2000000   0.8082904   0.0000000  )
        43           C   tau(  43) = (   0.8000000   0.0000000   0.0000000  )
        44           C   tau(  44) = (   0.8000000   0.1154701   0.0000000  )
        45           C   tau(  45) = (   0.7000000   0.1732051   0.0000000  )
        46           C   tau(  46) = (   0.7000000   0.2886751   0.0000000  )
        47           C   tau(  47) = (   0.6000000   0.3464102   0.0000000  )
        48           C   tau(  48) = (   0.6000000   0.4618802   0.0000000  )
        49           C   tau(  49) = (   0.5000000   0.5196152   0.0000000  )
        50           C   tau(  50) = (   0.5000000   0.6350853   0.0000000  )
        51           C   tau(  51) = (   0.4000000   0.6928203   0.0000000  )
        52           C   tau(  52) = (   0.4000000   0.8082904   0.0000000  )

   Crystallographic axes

     site n.     atom                  positions (cryst. coord.)
         1           H   tau(   1) = (  0.5028270  0.4666667  0.1800000  )
         2           H   tau(   2) = (  0.5638397  0.4666667  0.1800000  )
         3           C   tau(   3) = (  0.0000000  0.0000000  0.0000000  )
         4           C   tau(   4) = (  0.0666667  0.1333333  0.0000000  )
         5           C   tau(   5) = (  0.0000000  0.2000000  0.0000000  )
         6           C   tau(   6) = (  0.0666667  0.3333333  0.0000000  )
         7           C   tau(   7) = (  0.0000000  0.4000000  0.0000000  )
         8           C   tau(   8) = (  0.0666667  0.5333333  0.0000000  )
         9           C   tau(   9) = (  0.0000000  0.6000000  0.0000000  )
        10           C   tau(  10) = (  0.0666667  0.7333333  0.0000000  )
        11           C   tau(  11) = (  0.0000000  0.8000000  0.0000000  )
        12           C   tau(  12) = (  0.0666667  0.9333333  0.0000000  )
        13           C   tau(  13) = (  0.2000000  0.0000000  0.0000000  )
        14           C   tau(  14) = (  0.2666667  0.1333333  0.0000000  )
        15           C   tau(  15) = (  0.2000000  0.2000000  0.0000000  )
        16           C   tau(  16) = (  0.2666667  0.3333333  0.0000000  )
        17           C   tau(  17) = (  0.2000000  0.4000000  0.0000000  )
        18           C   tau(  18) = (  0.2666667  0.5333333  0.0000000  )
        19           C   tau(  19) = (  0.2000000  0.6000000  0.0000000  )
        20           C   tau(  20) = (  0.2666667  0.7333333  0.0000000  )
        21           C   tau(  21) = (  0.2000000  0.8000000  0.0000000  )
        22           C   tau(  22) = (  0.2666667  0.9333333  0.0000000  )
        23           C   tau(  23) = (  0.4000000  0.0000000  0.0000000  )
        24           C   tau(  24) = (  0.4666667  0.1333333  0.0000000  )
        25           C   tau(  25) = (  0.4000000  0.2000000  0.0000000  )
        26           C   tau(  26) = (  0.4666667  0.3333333  0.0000000  )
        27           C   tau(  27) = (  0.4000000  0.4000000  0.0000000  )
        28           V   tau(  28) = (  0.4666667  0.5333333  0.0000000  )
        29           C   tau(  29) = (  0.4000000  0.6000000  0.0000000  )
        30           C   tau(  30) = (  0.4666667  0.7333333  0.0000000  )
        31           C   tau(  31) = (  0.4000000  0.8000000  0.0000000  )
        32           C   tau(  32) = (  0.4666667  0.9333333  0.0000000  )
        33           C   tau(  33) = (  0.6000000  0.0000000  0.0000000  )
        34           C   tau(  34) = (  0.6666667  0.1333333  0.0000000  )
        35           C   tau(  35) = (  0.6000000  0.2000000  0.0000000  )
        36           C   tau(  36) = (  0.6666667  0.3333333  0.0000000  )
        37           C   tau(  37) = (  0.6000000  0.4000000  0.0000000  )
        38           C   tau(  38) = (  0.6666667  0.5333333  0.0000000  )
        39           C   tau(  39) = (  0.6000000  0.6000000  0.0000000  )
        40           C   tau(  40) = (  0.6666667  0.7333333  0.0000000  )
        41           C   tau(  41) = (  0.6000000  0.8000000  0.0000000  )
        42           C   tau(  42) = (  0.6666667  0.9333333  0.0000000  )
        43           C   tau(  43) = (  0.8000000  0.0000000  0.0000000  )
        44           C   tau(  44) = (  0.8666667  0.1333333  0.0000000  )
        45           C   tau(  45) = (  0.8000000  0.2000000  0.0000000  )
        46           C   tau(  46) = (  0.8666667  0.3333333  0.0000000  )
        47           C   tau(  47) = (  0.8000000  0.4000000  0.0000000  )
        48           C   tau(  48) = (  0.8666667  0.5333333  0.0000000  )
        49           C   tau(  49) = (  0.8000000  0.6000000  0.0000000  )
        50           C   tau(  50) = (  0.8666667  0.7333333  0.0000000  )
        51           C   tau(  51) = (  0.8000000  0.8000000  0.0000000  )
        52           C   tau(  52) = (  0.8666667  0.9333333  0.0000000  )

     number of k points=     1  Marzari-Vanderbilt smearing, width (Ry)=  0.0010
                       cart. coord. in units 2pi/alat
        k(    1) = (   0.0000000   0.0000000   0.0000000), wk =   1.0000000

                       cryst. coord.
        k(    1) = (   0.0000000   0.0000000   0.0000000), wk =   1.0000000

     Check: negative core charge=   -0.000002

     Initial potential from superposition of free atoms

     starting charge  210.80465, renormalised to  211.00000

     negative rho (up, down):  1.553E-04 2.097E-02

Carrying out rVV10 run using the following parameters:
Nqs =      20    Nr_points =    1024   r_max =   100.000
b_value =  6.30000    beta =  0.00901
     q_mesh =  0.00010000  0.00030000  0.00058939  0.00100810
               0.00161396  0.00249058  0.00375900  0.00559430
               0.00824984  0.01209221  0.01765183  0.02569619
               0.03733578  0.05417739  0.07854596  0.11380545
               0.16482331  0.23864234  0.34545298  0.50000000

Gradients computed in Reciprocal space

     Starting wfcs are  208 randomized atomic wfcs

     Self-consistent Calculation

     iteration #  1     ecut=    70.00 Ry     beta= 0.70
     Davidson diagonalization with overlap
     ethr =  1.00E-02,  avg # of iterations =  3.0

[...]

     total energy              =    -751.62214478 Ry
     Harris-Foulkes estimate   =    -757.21633692 Ry
     estimated scf accuracy    <      13.67190108 Ry

     total magnetization       =     5.00 Bohr mag/cell
     absolute magnetization    =     6.06 Bohr mag/cell

[...]

     total energy              =    -757.29047828 Ry
     Harris-Foulkes estimate   =    -757.29047854 Ry
     estimated scf accuracy    <       0.00000120 Ry

[...]

     iteration # 30     ecut=    70.00 Ry     beta= 0.70
     Davidson diagonalization with overlap
     ethr =  5.69E-10,  avg # of iterations =  2.0

     negative rho (up, down):  3.405E-02 2.408E-03

     Magnetic moment per site:
     atom:    1    charge:    0.2223    magn:   -0.0001    constr:    0.0000
     atom:    2    charge:    0.2086    magn:    0.0001    constr:    0.0000
     atom:    3    charge:    1.7184    magn:   -0.0049    constr:    0.0000
     atom:    4    charge:    1.7152    magn:    0.0044    constr:    0.0000
     atom:    5    charge:    1.7181    magn:   -0.0025    constr:    0.0000
     atom:    6    charge:    1.7142    magn:    0.0021    constr:    0.0000
     atom:    7    charge:    1.7183    magn:   -0.0037    constr:    0.0000
     atom:    8    charge:    1.7162    magn:    0.0102    constr:    0.0000
     atom:    9    charge:    1.7178    magn:   -0.0068    constr:    0.0000
     atom:   10    charge:    1.7146    magn:    0.0317    constr:    0.0000
     atom:   11    charge:    1.7188    magn:   -0.0086    constr:    0.0000
     atom:   12    charge:    1.7112    magn:    0.0100    constr:    0.0000
     atom:   13    charge:    1.7184    magn:   -0.0088    constr:    0.0000
     atom:   14    charge:    1.7148    magn:    0.0239    constr:    0.0000
     atom:   15    charge:    1.7173    magn:   -0.0052    constr:    0.0000
     atom:   16    charge:    1.7084    magn:    0.0110    constr:    0.0000
     atom:   17    charge:    1.7279    magn:   -0.0011    constr:    0.0000
     atom:   18    charge:    1.7084    magn:    0.0065    constr:    0.0000
     atom:   19    charge:    1.7178    magn:   -0.0042    constr:    0.0000
     atom:   20    charge:    1.7123    magn:    0.0080    constr:    0.0000
     atom:   21    charge:    1.7184    magn:   -0.0090    constr:    0.0000
     atom:   22    charge:    1.7175    magn:    0.0502    constr:    0.0000
     atom:   23    charge:    1.7168    magn:   -0.0085    constr:    0.0000
     atom:   24    charge:    1.7162    magn:    0.0142    constr:    0.0000
     atom:   25    charge:    1.7159    magn:   -0.0106    constr:    0.0000
     atom:   26    charge:    1.7176    magn:    0.0501    constr:    0.0000
     atom:   27    charge:    1.9151    magn:    0.0004    constr:    0.0000
     atom:   28    charge:    7.8603    magn:    0.1024    constr:    0.0000
     atom:   29    charge:    1.9150    magn:   -0.0038    constr:    0.0000
     atom:   30    charge:    1.7105    magn:    0.0240    constr:    0.0000
     atom:   31    charge:    1.7174    magn:   -0.0065    constr:    0.0000
     atom:   32    charge:    1.7166    magn:    0.0138    constr:    0.0000
     atom:   33    charge:    1.7179    magn:   -0.0048    constr:    0.0000
     atom:   34    charge:    1.7144    magn:    0.0101    constr:    0.0000
     atom:   35    charge:    1.7179    magn:   -0.0052    constr:    0.0000
     atom:   36    charge:    1.7142    magn:    0.0033    constr:    0.0000
     atom:   37    charge:    1.7275    magn:   -0.0092    constr:    0.0000
     atom:   38    charge:    1.7181    magn:    0.0514    constr:    0.0000
     atom:   39    charge:    1.9153    magn:    0.0029    constr:    0.0000
     atom:   40    charge:    1.7102    magn:    0.0319    constr:    0.0000
     atom:   41    charge:    1.7269    magn:   -0.0049    constr:    0.0000
     atom:   42    charge:    1.7141    magn:    0.0025    constr:    0.0000
     atom:   43    charge:    1.7186    magn:   -0.0032    constr:    0.0000
     atom:   44    charge:    1.7134    magn:    0.0030    constr:    0.0000
     atom:   45    charge:    1.7240    magn:   -0.0030    constr:    0.0000
     atom:   46    charge:    1.7141    magn:    0.0070    constr:    0.0000
     atom:   47    charge:    1.7181    magn:   -0.0048    constr:    0.0000
     atom:   48    charge:    1.7153    magn:    0.0090    constr:    0.0000
     atom:   49    charge:    1.7157    magn:   -0.0115    constr:    0.0000
     atom:   50    charge:    1.7165    magn:    0.0367    constr:    0.0000
     atom:   51    charge:    1.7167    magn:   -0.0083    constr:    0.0000
     atom:   52    charge:    1.7146    magn:    0.0040    constr:    0.0000

     End of self-consistent calculation

 ------ SPIN UP ------------

          k = 0.0000 0.0000 0.0000 ( 87777 PWs)   bands (ev):

   -62.8136 -37.9494 -37.8621 -36.5721 -19.6571 -18.8409 -18.7767 -18.7485
   -18.7110 -18.6952 -18.2663 -16.9781 -16.9611 -16.9388 -16.8431 -16.7996
   -16.5429 -16.1060 -16.1020 -16.0129 -15.8670 -15.8476 -15.1096 -13.9264
   -13.9177 -13.8917 -13.8795 -13.8727 -13.1607 -12.9530 -12.9344 -12.9159
   -12.5434 -12.5197 -12.1348 -11.6712 -11.6650 -11.5465 -11.1766 -11.1534
   -10.1829  -9.3776  -9.3545  -9.2720  -9.2199  -9.2025  -9.1122  -9.0965
    -9.0893  -9.0721  -8.5694  -8.4781  -8.4141  -7.9218  -7.9037  -7.8676
    -7.6952  -7.6905  -7.2798  -7.2602  -6.9710  -6.9220  -6.8564  -6.7270
    -6.7143  -6.6183  -6.6170  -6.6094  -6.5586  -6.4644  -6.4436  -6.4263
    -6.4040  -6.3909  -6.3565  -5.8690  -5.2881  -5.2715  -5.1788  -4.9840
    -4.9660  -4.9606  -4.8501  -4.7675  -4.6419  -4.6231  -4.5665  -4.1716
    -4.0117  -3.9955  -3.7854  -3.7185  -3.6586  -3.6161  -3.5205  -3.5182
    -2.8162  -2.3125  -2.2811  -2.2267  -2.1905  -1.7765  -1.7081  -1.7011
    -0.5938  -0.2582  -0.2398   0.9421   1.0170   1.0582   1.2885   1.7736
     2.0251   2.0388   2.5161   2.8651   2.8817   2.9488   3.4764   3.5691
     3.6999   3.7448   3.7650   3.8206   3.9242   3.9851   3.9914

     occupation numbers
     1.0000   1.0000   1.0000   1.0000   1.0000   1.0000   1.0000   1.0000
     1.0000   1.0000   1.0000   1.0000   1.0000   1.0000   1.0000   1.0000
     1.0000   1.0000   1.0000   1.0000   1.0000   1.0000   1.0000   1.0000
     1.0000   1.0000   1.0000   1.0000   1.0000   1.0000   1.0000   1.0000
     1.0000   1.0000   1.0000   1.0000   1.0000   1.0000   1.0000   1.0000
     1.0000   1.0000   1.0000   1.0000   1.0000   1.0000   1.0000   1.0000
     1.0000   1.0000   1.0000   1.0000   1.0000   1.0000   1.0000   1.0000
     1.0000   1.0000   1.0000   1.0000   1.0000   1.0000   1.0000   1.0000
     1.0000   1.0000   1.0000   1.0000   1.0000   1.0000   1.0000   1.0000
     1.0000   1.0000   1.0000   1.0000   1.0000   1.0000   1.0000   1.0000
     1.0000   1.0000   1.0000   1.0000   1.0000   1.0000   1.0000   1.0000
     1.0000   1.0000   1.0000   1.0000   1.0000   1.0000   1.0000   1.0000
     1.0000   1.0000   1.0000   1.0000   1.0000   1.0000   1.0000   1.0000
     1.0000   0.9052   0.0948   0.0000   0.0000   0.0000   0.0000   0.0000
     0.0000   0.0000   0.0000   0.0000   0.0000   0.0000   0.0000   0.0000
     0.0000   0.0000   0.0000   0.0000   0.0000   0.0000   0.0000

 ------ SPIN DOWN ----------

          k = 0.0000 0.0000 0.0000 ( 87777 PWs)   bands (ev):

   -62.6179 -37.8623 -37.6254 -36.3043 -19.6366 -18.8287 -18.7489 -18.7288
   -18.6964 -18.6769 -18.2334 -16.9666 -16.9459 -16.9140 -16.8211 -16.7671
   -16.5286 -16.0847 -16.0704 -15.9956 -15.8473 -15.8256 -15.0948 -13.9079
   -13.8920 -13.8809 -13.8585 -13.8235 -13.1637 -12.9444 -12.9209 -12.9015
   -12.5374 -12.5102 -12.1163 -11.6524 -11.6483 -11.5339 -11.1676 -11.1373
   -10.1682  -9.3634  -9.3345  -9.2603  -9.2055  -9.1848  -9.1043  -9.0862
    -9.0714  -9.0593  -8.5459  -8.4692  -8.3850  -7.9116  -7.8922  -7.8535
    -7.6867  -7.6546  -7.2704  -7.2501  -6.9022  -6.8866  -6.8251  -6.6783
    -6.6745  -6.6067  -6.6032  -6.5887  -6.5493  -6.4558  -6.4329  -6.4219
    -6.3959  -6.3824  -6.3475  -5.8092  -5.2809  -5.2612  -5.0680  -4.9648
    -4.9500  -4.9265  -4.8442  -4.7612  -4.6072  -4.5582  -4.5285  -4.1257
    -3.9714  -3.9383  -3.7075  -3.6384  -3.6185  -3.5858  -3.5140  -3.5098
    -2.7676  -2.2679  -2.1915  -2.1704  -2.1148  -1.7077  -1.6922  -1.6623
    -0.5891  -0.1150   0.0635   0.9785   1.0696   1.0997   1.3526   1.8337
     2.0811   2.1210   2.5225   2.9322   2.9445   3.0025   3.4947   3.5900
     3.7035   3.7484   3.7709   3.8459   3.9404   4.0237   4.1312

     occupation numbers
     1.0000   1.0000   1.0000   1.0000   1.0000   1.0000   1.0000   1.0000
     1.0000   1.0000   1.0000   1.0000   1.0000   1.0000   1.0000   1.0000
     1.0000   1.0000   1.0000   1.0000   1.0000   1.0000   1.0000   1.0000
     1.0000   1.0000   1.0000   1.0000   1.0000   1.0000   1.0000   1.0000
     1.0000   1.0000   1.0000   1.0000   1.0000   1.0000   1.0000   1.0000
     1.0000   1.0000   1.0000   1.0000   1.0000   1.0000   1.0000   1.0000
     1.0000   1.0000   1.0000   1.0000   1.0000   1.0000   1.0000   1.0000
     1.0000   1.0000   1.0000   1.0000   1.0000   1.0000   1.0000   1.0000
     1.0000   1.0000   1.0000   1.0000   1.0000   1.0000   1.0000   1.0000
     1.0000   1.0000   1.0000   1.0000   1.0000   1.0000   1.0000   1.0000
     1.0000   1.0000   1.0000   1.0000   1.0000   1.0000   1.0000   1.0000
     1.0000   1.0000   1.0000   1.0000   1.0000   1.0000   1.0000   1.0000
     1.0000   1.0000   1.0000   1.0000   1.0000   1.0000   1.0000   1.0000
     1.0000   0.0000   0.0000   0.0000   0.0000   0.0000   0.0000   0.0000
     0.0000   0.0000   0.0000   0.0000   0.0000   0.0000   0.0000   0.0000
     0.0000   0.0000   0.0000   0.0000   0.0000   0.0000   0.0000

     the Fermi energy is    -0.2485 ev

!    total energy              =    -757.29047846 Ry
     Harris-Foulkes estimate   =    -757.29047848 Ry
     estimated scf accuracy    <       0.00000033 Ry

     The total energy is the sum of the following terms:

     one-electron contribution =   -2614.27328059 Ry
     hartree contribution      =    1353.86056278 Ry
     xc contribution           =    -252.75666715 Ry
     ewald contribution        =     755.87899048 Ry
     smearing contrib. (-TS)   =      -0.00008398 Ry

     total magnetization       =     1.00 Bohr mag/cell
     absolute magnetization    =     1.55 Bohr mag/cell

     convergence has been achieved in  30 iterations

     Writing output data file vanadio-sixhollow-distance-1.8.save/

     General routines

     Parallel routines

   This run was terminated on:   0:17:57   2Sep2022

   JOB DONE.