     Program PWSCF v.6.4.1 starts on  1Sep2022 at 21: 1:19

     R & G space division:  proc/nbgrp/npool/nimage =       6
     Reading input from distance-2.4.in

     Current dimensions of program PWSCF are:
     Max number of different atomic species (ntypx) = 10
     Max number of k-points (npk) =  40000
     Max angular momentum in pseudopotentials (lmaxx) =  3

     IMPORTANT: XC functional enforced from input :
     Exchange-correlation      = RVV10 ( 1  4 13  4 3 0)
     Any further DFT definition will be discarded
     Please, verify this is what you really want

               file H.pbe-rrkjus.UPF: wavefunction(s)  1S renormalized
               file V.pbe-spnl-rrkjus_psl.1.0.0.UPF: wavefunction(s)  3P 3D renormalized

     Subspace diagonalization in iterative solution of the eigenvalue problem:
     a serial algorithm will be used

     bravais-lattice index     =            4
     lattice parameter (alat)  =      23.2937  a.u.
     unit-cell volume          =    8879.8548 (a.u.)^3
     number of atoms/cell      =           52
     number of atomic types    =            3
     number of electrons       =       211.00
     number of Kohn-Sham states=          127
     kinetic-energy cutoff     =      70.0000  Ry
     charge density cutoff     =     490.0000  Ry
     convergence threshold     =      1.0E-06
     mixing beta               =       0.7000
     number of iterations used =            8  plain     mixing
     Exchange-correlation      = RVV10 ( 1  4 13  4 3 0)

     celldm(1)=  23.293684  celldm(2)=   0.000000  celldm(3)=   0.811261
     celldm(4)=   0.000000  celldm(5)=   0.000000  celldm(6)=   0.000000

     crystal axes: (cart. coord. in units of alat)
               a(1) = (   1.000000   0.000000   0.000000 )
               a(2) = (  -0.500000   0.866025   0.000000 )
               a(3) = (   0.000000   0.000000   0.811261 )

     reciprocal axes: (cart. coord. in units 2 pi/alat)
               b(1) = (  1.000000  0.577350 -0.000000 )
               b(2) = (  0.000000  1.154701  0.000000 )
               b(3) = (  0.000000 -0.000000  1.232649 )

     PseudoPot. # 1 for H  read from file:
     /home/cristian/Escritorio/Proyecto_Grafeno/pseudopotenciales/H.pbe-rrkjus.UPF
     MD5 check sum: 7cc9d459525c9a0585f487a71c3c9563
     Pseudo is Ultrasoft, Zval =  1.0
     Generated by new atomic code, or converted to UPF format
     Using radial grid of 1061 points,  2 beta functions with:
                l(1) =   0
                l(2) =   0
     Q(r) pseudized with 0 coefficients

     PseudoPot. # 2 for C  read from file:
     /home/cristian/Escritorio/Proyecto_Grafeno/pseudopotenciales/C.pbe-n-rrkjus_psl.1.0.0.UPF
     MD5 check sum: 1fdd950c42eb37d8afe3dd2f8d12311e
     Pseudo is Ultrasoft + core correction, Zval =  4.0
     Generated using "atomic" code by A. Dal Corso v.6.3MaX
     Using radial grid of 1073 points,  4 beta functions with:
                l(1) =   0
                l(2) =   0
                l(3) =   1
                l(4) =   1
     Q(r) pseudized with 0 coefficients

     PseudoPot. # 3 for V  read from file:
     /home/cristian/Escritorio/Proyecto_Grafeno/pseudopotenciales/V.pbe-spnl-rrkjus_psl.1.0.0.UPF
     MD5 check sum: 79b3eb63147daf0b665d9f1bcc691206
     Pseudo is Ultrasoft + core correction, Zval = 13.0
     Generated using "atomic" code by A. Dal Corso v.6.2.2
     Using radial grid of 1181 points,  6 beta functions with:
                l(1) =   0
                l(2) =   0
                l(3) =   1
                l(4) =   1
                l(5) =   2
                l(6) =   2
     Q(r) pseudized with 0 coefficients

     vdW kernel table read from file rVV10_kernel_table
     MD5 check sum: b8e2538accc0c0b3206b45ba4daaba6c

     atomic species   valence    mass     pseudopotential
        H              1.00     1.00794     H ( 1.00)
        C              4.00    12.01070     C ( 1.00)
        V             13.00    50.94150     V ( 1.00)

     Starting magnetic structure
     atomic species   magnetization
        H            0.500
        C            0.300
        V            0.800

     No symmetry found

                                    s                        frac. trans.

      isym =  1     identity

 cryst.   s( 1) = (     1          0          0      )
                  (     0          1          0      )
                  (     0          0          1      )

 cart.    s( 1) = (  1.0000000  0.0000000  0.0000000 )
                  (  0.0000000  1.0000000  0.0000000 )
                  (  0.0000000  0.0000000  1.0000000 )

     point group C_1 (1)
     there are  1 classes
     the character table:

       E
A      1.00

     the symmetry operations in each class and the name of the first element:

     E        1
          identity

   Cartesian axes

     site n.     atom                  positions (alat units)
         1           H   tau(   1) = (   0.2694937   0.4041452   0.1947027  )
         2           H   tau(   2) = (   0.3305063   0.4041452   0.1947027  )
         3           C   tau(   3) = (   0.0000000   0.0000000   0.0000000  )
         4           C   tau(   4) = (   0.0000000   0.1154701   0.0000000  )
         5           C   tau(   5) = (  -0.1000000   0.1732051   0.0000000  )
         6           C   tau(   6) = (  -0.1000000   0.2886751   0.0000000  )
         7           C   tau(   7) = (  -0.2000000   0.3464102   0.0000000  )
         8           C   tau(   8) = (  -0.2000000   0.4618802   0.0000000  )
         9           C   tau(   9) = (  -0.3000000   0.5196152   0.0000000  )
        10           C   tau(  10) = (  -0.3000000   0.6350853   0.0000000  )
        11           C   tau(  11) = (  -0.4000000   0.6928203   0.0000000  )
        12           C   tau(  12) = (  -0.4000000   0.8082904   0.0000000  )
        13           C   tau(  13) = (   0.2000000   0.0000000   0.0000000  )
        14           C   tau(  14) = (   0.2000000   0.1154701   0.0000000  )
        15           C   tau(  15) = (   0.1000000   0.1732051   0.0000000  )
        16           C   tau(  16) = (   0.1000000   0.2886751   0.0000000  )
        17           C   tau(  17) = (   0.0000000   0.3464102   0.0000000  )
        18           C   tau(  18) = (   0.0000000   0.4618802   0.0000000  )
        19           C   tau(  19) = (  -0.1000000   0.5196152   0.0000000  )
        20           C   tau(  20) = (  -0.1000000   0.6350853   0.0000000  )
        21           C   tau(  21) = (  -0.2000000   0.6928203   0.0000000  )
        22           C   tau(  22) = (  -0.2000000   0.8082904   0.0000000  )
        23           C   tau(  23) = (   0.4000000   0.0000000   0.0000000  )
        24           C   tau(  24) = (   0.4000000   0.1154701   0.0000000  )
        25           C   tau(  25) = (   0.3000000   0.1732051   0.0000000  )
        26           C   tau(  26) = (   0.3000000   0.2886751   0.0000000  )
        27           C   tau(  27) = (   0.2000000   0.3464102   0.0000000  )
        28           V   tau(  28) = (   0.2000000   0.4618802   0.0000000  )
        29           C   tau(  29) = (   0.1000000   0.5196152   0.0000000  )
        30           C   tau(  30) = (   0.1000000   0.6350853   0.0000000  )
        31           C   tau(  31) = (   0.0000000   0.6928203   0.0000000  )
        32           C   tau(  32) = (   0.0000000   0.8082904   0.0000000  )
        33           C   tau(  33) = (   0.6000000   0.0000000   0.0000000  )
        34           C   tau(  34) = (   0.6000000   0.1154701   0.0000000  )
        35           C   tau(  35) = (   0.5000000   0.1732051   0.0000000  )
        36           C   tau(  36) = (   0.5000000   0.2886751   0.0000000  )
        37           C   tau(  37) = (   0.4000000   0.3464102   0.0000000  )
        38           C   tau(  38) = (   0.4000000   0.4618802   0.0000000  )
        39           C   tau(  39) = (   0.3000000   0.5196152   0.0000000  )
        40           C   tau(  40) = (   0.3000000   0.6350853   0.0000000  )
        41           C   tau(  41) = (   0.2000000   0.6928203   0.0000000  )
        42           C   tau(  42) = (   0.2000000   0.8082904   0.0000000  )
        43           C   tau(  43) = (   0.8000000   0.0000000   0.0000000  )
        44           C   tau(  44) = (   0.8000000   0.1154701   0.0000000  )
        45           C   tau(  45) = (   0.7000000   0.1732051   0.0000000  )
        46           C   tau(  46) = (   0.7000000   0.2886751   0.0000000  )
        47           C   tau(  47) = (   0.6000000   0.3464102   0.0000000  )
        48           C   tau(  48) = (   0.6000000   0.4618802   0.0000000  )
        49           C   tau(  49) = (   0.5000000   0.5196152   0.0000000  )
        50           C   tau(  50) = (   0.5000000   0.6350853   0.0000000  )
        51           C   tau(  51) = (   0.4000000   0.6928203   0.0000000  )
        52           C   tau(  52) = (   0.4000000   0.8082904   0.0000000  )

   Crystallographic axes

     site n.     atom                  positions (cryst. coord.)
         1           H   tau(   1) = (  0.5028270  0.4666667  0.2400000  )
         2           H   tau(   2) = (  0.5638397  0.4666667  0.2400000  )
         3           C   tau(   3) = (  0.0000000  0.0000000  0.0000000  )
         4           C   tau(   4) = (  0.0666667  0.1333333  0.0000000  )
         5           C   tau(   5) = (  0.0000000  0.2000000  0.0000000  )
         6           C   tau(   6) = (  0.0666667  0.3333333  0.0000000  )
         7           C   tau(   7) = (  0.0000000  0.4000000  0.0000000  )
         8           C   tau(   8) = (  0.0666667  0.5333333  0.0000000  )
         9           C   tau(   9) = (  0.0000000  0.6000000  0.0000000  )
        10           C   tau(  10) = (  0.0666667  0.7333333  0.0000000  )
        11           C   tau(  11) = (  0.0000000  0.8000000  0.0000000  )
        12           C   tau(  12) = (  0.0666667  0.9333333  0.0000000  )
        13           C   tau(  13) = (  0.2000000  0.0000000  0.0000000  )
        14           C   tau(  14) = (  0.2666667  0.1333333  0.0000000  )
        15           C   tau(  15) = (  0.2000000  0.2000000  0.0000000  )
        16           C   tau(  16) = (  0.2666667  0.3333333  0.0000000  )
        17           C   tau(  17) = (  0.2000000  0.4000000  0.0000000  )
        18           C   tau(  18) = (  0.2666667  0.5333333  0.0000000  )
        19           C   tau(  19) = (  0.2000000  0.6000000  0.0000000  )
        20           C   tau(  20) = (  0.2666667  0.7333333  0.0000000  )
        21           C   tau(  21) = (  0.2000000  0.8000000  0.0000000  )
        22           C   tau(  22) = (  0.2666667  0.9333333  0.0000000  )
        23           C   tau(  23) = (  0.4000000  0.0000000  0.0000000  )
        24           C   tau(  24) = (  0.4666667  0.1333333  0.0000000  )
        25           C   tau(  25) = (  0.4000000  0.2000000  0.0000000  )
        26           C   tau(  26) = (  0.4666667  0.3333333  0.0000000  )
        27           C   tau(  27) = (  0.4000000  0.4000000  0.0000000  )
        28           V   tau(  28) = (  0.4666667  0.5333333  0.0000000  )
        29           C   tau(  29) = (  0.4000000  0.6000000  0.0000000  )
        30           C   tau(  30) = (  0.4666667  0.7333333  0.0000000  )
        31           C   tau(  31) = (  0.4000000  0.8000000  0.0000000  )
        32           C   tau(  32) = (  0.4666667  0.9333333  0.0000000  )
        33           C   tau(  33) = (  0.6000000  0.0000000  0.0000000  )
        34           C   tau(  34) = (  0.6666667  0.1333333  0.0000000  )
        35           C   tau(  35) = (  0.6000000  0.2000000  0.0000000  )
        36           C   tau(  36) = (  0.6666667  0.3333333  0.0000000  )
        37           C   tau(  37) = (  0.6000000  0.4000000  0.0000000  )
        38           C   tau(  38) = (  0.6666667  0.5333333  0.0000000  )
        39           C   tau(  39) = (  0.6000000  0.6000000  0.0000000  )
        40           C   tau(  40) = (  0.6666667  0.7333333  0.0000000  )
        41           C   tau(  41) = (  0.6000000  0.8000000  0.0000000  )
        42           C   tau(  42) = (  0.6666667  0.9333333  0.0000000  )
        43           C   tau(  43) = (  0.8000000  0.0000000  0.0000000  )
        44           C   tau(  44) = (  0.8666667  0.1333333  0.0000000  )
        45           C   tau(  45) = (  0.8000000  0.2000000  0.0000000  )
        46           C   tau(  46) = (  0.8666667  0.3333333  0.0000000  )
        47           C   tau(  47) = (  0.8000000  0.4000000  0.0000000  )
        48           C   tau(  48) = (  0.8666667  0.5333333  0.0000000  )
        49           C   tau(  49) = (  0.8000000  0.6000000  0.0000000  )
        50           C   tau(  50) = (  0.8666667  0.7333333  0.0000000  )
        51           C   tau(  51) = (  0.8000000  0.8000000  0.0000000  )
        52           C   tau(  52) = (  0.8666667  0.9333333  0.0000000  )

     number of k points=     1  Marzari-Vanderbilt smearing, width (Ry)=  0.0010
                       cart. coord. in units 2pi/alat
        k(    1) = (   0.0000000   0.0000000   0.0000000), wk =   1.0000000

                       cryst. coord.
        k(    1) = (   0.0000000   0.0000000   0.0000000), wk =   1.0000000

     Check: negative core charge=   -0.000002

     Initial potential from superposition of free atoms

     starting charge  210.80465, renormalised to  211.00000

     negative rho (up, down):  1.312E-04 1.738E-02

Carrying out rVV10 run using the following parameters:
Nqs =      20    Nr_points =    1024   r_max =   100.000
b_value =  6.30000    beta =  0.00901
     q_mesh =  0.00010000  0.00030000  0.00058939  0.00100810
               0.00161396  0.00249058  0.00375900  0.00559430
               0.00824984  0.01209221  0.01765183  0.02569619
               0.03733578  0.05417739  0.07854596  0.11380545
               0.16482331  0.23864234  0.34545298  0.50000000

Gradients computed in Reciprocal space

     Starting wfcs are  208 randomized atomic wfcs

     Self-consistent Calculation

     iteration #  1     ecut=    70.00 Ry     beta= 0.70
     Davidson diagonalization with overlap
     ethr =  1.00E-02,  avg # of iterations =  2.5

[...]

     total energy              =    -752.78413182 Ry
     Harris-Foulkes estimate   =    -756.99493078 Ry
     estimated scf accuracy    <      12.08974484 Ry

     total magnetization       =     5.00 Bohr mag/cell
     absolute magnetization    =     6.06 Bohr mag/cell

[...]

     total energy              =    -757.33079275 Ry
     Harris-Foulkes estimate   =    -757.33079308 Ry
     estimated scf accuracy    <       0.00000262 Ry

[...]

     iteration # 25     ecut=    70.00 Ry     beta= 0.70
     Davidson diagonalization with overlap
     ethr =  7.70E-10,  avg # of iterations =  2.0

     negative rho (up, down):  3.430E-02 1.890E-03

     Magnetic moment per site:
     atom:    1    charge:    0.2135    magn:   -0.0001    constr:    0.0000
     atom:    2    charge:    0.2085    magn:    0.0000    constr:    0.0000
     atom:    3    charge:    1.7177    magn:   -0.0066    constr:    0.0000
     atom:    4    charge:    1.7156    magn:    0.0087    constr:    0.0000
     atom:    5    charge:    1.7182    magn:   -0.0040    constr:    0.0000
     atom:    6    charge:    1.7141    magn:    0.0025    constr:    0.0000
     atom:    7    charge:    1.7183    magn:   -0.0041    constr:    0.0000
     atom:    8    charge:    1.7158    magn:    0.0095    constr:    0.0000
     atom:    9    charge:    1.7177    magn:   -0.0068    constr:    0.0000
     atom:   10    charge:    1.7144    magn:    0.0312    constr:    0.0000
     atom:   11    charge:    1.7186    magn:   -0.0089    constr:    0.0000
     atom:   12    charge:    1.7140    magn:    0.0284    constr:    0.0000
     atom:   13    charge:    1.7185    magn:   -0.0089    constr:    0.0000
     atom:   14    charge:    1.7145    magn:    0.0233    constr:    0.0000
     atom:   15    charge:    1.7169    magn:   -0.0076    constr:    0.0000
     atom:   16    charge:    1.7106    magn:    0.0275    constr:    0.0000
     atom:   17    charge:    1.7271    magn:   -0.0048    constr:    0.0000
     atom:   18    charge:    1.7108    magn:    0.0271    constr:    0.0000
     atom:   19    charge:    1.7171    magn:   -0.0075    constr:    0.0000
     atom:   20    charge:    1.7143    magn:    0.0214    constr:    0.0000
     atom:   21    charge:    1.7186    magn:   -0.0089    constr:    0.0000
     atom:   22    charge:    1.7148    magn:    0.0331    constr:    0.0000
     atom:   23    charge:    1.7175    magn:   -0.0070    constr:    0.0000
     atom:   24    charge:    1.7157    magn:    0.0099    constr:    0.0000
     atom:   25    charge:    1.7166    magn:   -0.0082    constr:    0.0000
     atom:   26    charge:    1.7120    magn:    0.0320    constr:    0.0000
     atom:   27    charge:    1.9149    magn:   -0.0001    constr:    0.0000
     atom:   28    charge:    7.8608    magn:    0.1021    constr:    0.0000
     atom:   29    charge:    1.9149    magn:   -0.0008    constr:    0.0000
     atom:   30    charge:    1.7110    magn:    0.0288    constr:    0.0000
     atom:   31    charge:    1.7170    magn:   -0.0077    constr:    0.0000
     atom:   32    charge:    1.7158    magn:    0.0098    constr:    0.0000
     atom:   33    charge:    1.7182    magn:   -0.0042    constr:    0.0000
     atom:   34    charge:    1.7139    magn:    0.0071    constr:    0.0000
     atom:   35    charge:    1.7182    magn:   -0.0043    constr:    0.0000
     atom:   36    charge:    1.7141    magn:    0.0027    constr:    0.0000
     atom:   37    charge:    1.7267    magn:   -0.0057    constr:    0.0000
     atom:   38    charge:    1.7123    magn:    0.0321    constr:    0.0000
     atom:   39    charge:    1.9151    magn:    0.0001    constr:    0.0000
     atom:   40    charge:    1.7108    magn:    0.0296    constr:    0.0000
     atom:   41    charge:    1.7270    magn:   -0.0051    constr:    0.0000
     atom:   42    charge:    1.7141    magn:    0.0026    constr:    0.0000
     atom:   43    charge:    1.7183    magn:   -0.0040    constr:    0.0000
     atom:   44    charge:    1.7138    magn:    0.0063    constr:    0.0000
     atom:   45    charge:    1.7243    magn:   -0.0030    constr:    0.0000
     atom:   46    charge:    1.7139    magn:    0.0068    constr:    0.0000
     atom:   47    charge:    1.7182    magn:   -0.0042    constr:    0.0000
     atom:   48    charge:    1.7157    magn:    0.0094    constr:    0.0000
     atom:   49    charge:    1.7167    magn:   -0.0083    constr:    0.0000
     atom:   50    charge:    1.7148    magn:    0.0246    constr:    0.0000
     atom:   51    charge:    1.7169    magn:   -0.0078    constr:    0.0000
     atom:   52    charge:    1.7155    magn:    0.0087    constr:    0.0000

     End of self-consistent calculation

 ------ SPIN UP ------------

          k = 0.0000 0.0000 0.0000 ( 87777 PWs)   bands (ev):

   -62.8330 -37.9244 -37.9112 -36.5982 -19.6377 -18.7977 -18.7893 -18.7267
   -18.6819 -18.6791 -18.2422 -16.9422 -16.9401 -16.9359 -16.8046 -16.7986
   -16.5203 -16.0857 -16.0850 -15.9936 -15.8375 -15.8347 -15.0849 -13.8970
   -13.8925 -13.8849 -13.8663 -13.8651 -13.1379 -12.9216 -12.9193 -12.9023
   -12.5105 -12.5073 -12.1152 -11.6485 -11.6474 -11.5242 -11.1432 -11.1405
   -10.1539  -9.3403  -9.3385  -9.2570  -9.1850  -9.1844  -9.0954  -9.0718
    -9.0715  -9.0561  -8.4683  -8.4655  -7.9161  -7.8976  -7.8919  -7.8553
    -7.6789  -7.4935  -7.2574  -7.2517  -6.9620  -6.9017  -6.8473  -6.7064
    -6.7021  -6.6368  -6.5947  -6.5930  -6.5447  -6.4386  -6.4359  -6.3951
    -6.3901  -6.3880  -6.3380  -6.1139  -5.2636  -5.2619  -5.1569  -5.1117
    -4.9498  -4.9472  -4.8361  -4.7498  -4.6238  -4.6111  -4.5985  -4.2259
    -3.9903  -3.9876  -3.7640  -3.7503  -3.6616  -3.6201  -3.5024  -3.5020
    -2.8803  -2.2684  -2.2615  -2.2172  -2.2094  -1.7528  -1.6873  -1.6855
    -0.5535  -0.2411  -0.2393   0.9708   1.0436   1.0772   1.1043   1.7862
     2.0455   2.0480   2.5383   2.8917   2.8931   2.9693   3.3851   3.5400
     3.7069   3.7437   3.7527   3.7859   3.9560   3.9982   4.0046

     occupation numbers
     1.0000   1.0000   1.0000   1.0000   1.0000   1.0000   1.0000   1.0000
     1.0000   1.0000   1.0000   1.0000   1.0000   1.0000   1.0000   1.0000
     1.0000   1.0000   1.0000   1.0000   1.0000   1.0000   1.0000   1.0000
     1.0000   1.0000   1.0000   1.0000   1.0000   1.0000   1.0000   1.0000
     1.0000   1.0000   1.0000   1.0000   1.0000   1.0000   1.0000   1.0000
     1.0000   1.0000   1.0000   1.0000   1.0000   1.0000   1.0000   1.0000
     1.0000   1.0000   1.0000   1.0000   1.0000   1.0000   1.0000   1.0000
     1.0000   1.0000   1.0000   1.0000   1.0000   1.0000   1.0000   1.0000
     1.0000   1.0000   1.0000   1.0000   1.0000   1.0000   1.0000   1.0000
     1.0000   1.0000   1.0000   1.0000   1.0000   1.0000   1.0000   1.0000
     1.0000   1.0000   1.0000   1.0000   1.0000   1.0000   1.0000   1.0000
     1.0000   1.0000   1.0000   1.0000   1.0000   1.0000   1.0000   1.0000
     1.0000   1.0000   1.0000   1.0000   1.0000   1.0000   1.0000   1.0000
     1.0000   0.5484   0.4516   0.0000   0.0000   0.0000   0.0000   0.0000
     0.0000   0.0000   0.0000   0.0000   0.0000   0.0000   0.0000   0.0000
     0.0000   0.0000   0.0000   0.0000   0.0000   0.0000   0.0000

 ------ SPIN DOWN ----------

          k = 0.0000 0.0000 0.0000 ( 87777 PWs)   bands (ev):

   -62.6358 -37.7706 -37.7398 -36.3285 -19.6160 -18.7771 -18.7669 -18.7066
   -18.6653 -18.6624 -18.2103 -16.9247 -16.9231 -16.9167 -16.7769 -16.7699
   -16.5062 -16.0592 -16.0572 -15.9778 -15.8166 -15.8136 -15.0700 -13.8633
   -13.8628 -13.8591 -13.8528 -13.8419 -13.1411 -12.9112 -12.9085 -12.8868
   -12.5026 -12.4990 -12.0968 -11.6306 -11.6296 -11.5110 -11.1311 -11.1277
   -10.1393  -9.3236  -9.3212  -9.2442  -9.1679  -9.1667  -9.0873  -9.0577
    -9.0573  -9.0468  -8.4617  -8.4585  -7.8901  -7.8862  -7.8737  -7.8331
    -7.6706  -7.4612  -7.2486  -7.2419  -6.8834  -6.8801  -6.7876  -6.6692
    -6.6598  -6.6060  -6.5832  -6.5816  -6.5351  -6.4294  -6.4264  -6.3894
    -6.3830  -6.3814  -6.3298  -6.0441  -5.2555  -5.2534  -5.0683  -5.0288
    -4.9399  -4.9372  -4.8304  -4.7437  -4.5821  -4.5588  -4.5493  -4.1883
    -3.9404  -3.9349  -3.6892  -3.6762  -3.6161  -3.5900  -3.4960  -3.4952
    -2.8444  -2.2035  -2.1911  -2.1523  -2.1422  -1.6718  -1.6703  -1.6580
    -0.5481  -0.0237  -0.0031   1.0297   1.0983   1.1192   1.1434   1.8556
     2.1150   2.1189   2.5440   2.9631   2.9641   3.0116   3.3980   3.5552
     3.7140   3.7464   3.7696   3.8054   3.9746   4.0617   4.1952

     occupation numbers
     1.0000   1.0000   1.0000   1.0000   1.0000   1.0000   1.0000   1.0000
     1.0000   1.0000   1.0000   1.0000   1.0000   1.0000   1.0000   1.0000
     1.0000   1.0000   1.0000   1.0000   1.0000   1.0000   1.0000   1.0000
     1.0000   1.0000   1.0000   1.0000   1.0000   1.0000   1.0000   1.0000
     1.0000   1.0000   1.0000   1.0000   1.0000   1.0000   1.0000   1.0000
     1.0000   1.0000   1.0000   1.0000   1.0000   1.0000   1.0000   1.0000
     1.0000   1.0000   1.0000   1.0000   1.0000   1.0000   1.0000   1.0000
     1.0000   1.0000   1.0000   1.0000   1.0000   1.0000   1.0000   1.0000
     1.0000   1.0000   1.0000   1.0000   1.0000   1.0000   1.0000   1.0000
     1.0000   1.0000   1.0000   1.0000   1.0000   1.0000   1.0000   1.0000
     1.0000   1.0000   1.0000   1.0000   1.0000   1.0000   1.0000   1.0000
     1.0000   1.0000   1.0000   1.0000   1.0000   1.0000   1.0000   1.0000
     1.0000   1.0000   1.0000   1.0000   1.0000   1.0000   1.0000   1.0000
     1.0000   0.0000   0.0000   0.0000   0.0000   0.0000   0.0000   0.0000
     0.0000   0.0000   0.0000   0.0000   0.0000   0.0000   0.0000   0.0000
     0.0000   0.0000   0.0000   0.0000   0.0000   0.0000   0.0000

     the Fermi energy is    -0.2383 ev

!    total energy              =    -757.33079258 Ry
     Harris-Foulkes estimate   =    -757.33079302 Ry
     estimated scf accuracy    <       0.00000065 Ry

     The total energy is the sum of the following terms:

     one-electron contribution =   -2597.98527930 Ry
     hartree contribution      =    1345.81176227 Ry
     xc contribution           =    -252.69187017 Ry
     ewald contribution        =     747.53491962 Ry
     smearing contrib. (-TS)   =      -0.00032500 Ry

     total magnetization       =     1.00 Bohr mag/cell
     absolute magnetization    =     1.54 Bohr mag/cell

     convergence has been achieved in  25 iterations

     Writing output data file vanadio-sixhollow-distance-2.4.save/

     General routines

     Parallel routines

   This run was terminated on:  21:47: 5   1Sep2022

   JOB DONE.