     Program PWSCF v.6.4.1 starts on  1Sep2022 at 21:47: 5

     R & G space division:  proc/nbgrp/npool/nimage =       6
     Reading input from distance-2.2.in

     Current dimensions of program PWSCF are:
     Max number of different atomic species (ntypx) = 10
     Max number of k-points (npk) =  40000
     Max angular momentum in pseudopotentials (lmaxx) =  3

     IMPORTANT: XC functional enforced from input :
     Exchange-correlation      = RVV10 ( 1  4 13  4 3 0)
     Any further DFT definition will be discarded
     Please, verify this is what you really want

               file H.pbe-rrkjus.UPF: wavefunction(s)  1S renormalized
               file V.pbe-spnl-rrkjus_psl.1.0.0.UPF: wavefunction(s)  3P 3D renormalized

     Subspace diagonalization in iterative solution of the eigenvalue problem:
     a serial algorithm will be used

     bravais-lattice index     =            4
     lattice parameter (alat)  =      23.2937  a.u.
     unit-cell volume          =    8879.8548 (a.u.)^3
     number of atoms/cell      =           52
     number of atomic types    =            3
     number of electrons       =       211.00
     number of Kohn-Sham states=          127
     kinetic-energy cutoff     =      70.0000  Ry
     charge density cutoff     =     490.0000  Ry
     convergence threshold     =      1.0E-06
     mixing beta               =       0.7000
     number of iterations used =            8  plain     mixing
     Exchange-correlation      = RVV10 ( 1  4 13  4 3 0)

     celldm(1)=  23.293684  celldm(2)=   0.000000  celldm(3)=   0.811261
     celldm(4)=   0.000000  celldm(5)=   0.000000  celldm(6)=   0.000000

     crystal axes: (cart. coord. in units of alat)
               a(1) = (   1.000000   0.000000   0.000000 )
               a(2) = (  -0.500000   0.866025   0.000000 )
               a(3) = (   0.000000   0.000000   0.811261 )

     reciprocal axes: (cart. coord. in units 2 pi/alat)
               b(1) = (  1.000000  0.577350 -0.000000 )
               b(2) = (  0.000000  1.154701  0.000000 )
               b(3) = (  0.000000 -0.000000  1.232649 )

     PseudoPot. # 1 for H  read from file:
     /home/cristian/Escritorio/Proyecto_Grafeno/pseudopotenciales/H.pbe-rrkjus.UPF
     MD5 check sum: 7cc9d459525c9a0585f487a71c3c9563
     Pseudo is Ultrasoft, Zval =  1.0
     Generated by new atomic code, or converted to UPF format
     Using radial grid of 1061 points,  2 beta functions with:
                l(1) =   0
                l(2) =   0
     Q(r) pseudized with 0 coefficients

     PseudoPot. # 2 for C  read from file:
     /home/cristian/Escritorio/Proyecto_Grafeno/pseudopotenciales/C.pbe-n-rrkjus_psl.1.0.0.UPF
     MD5 check sum: 1fdd950c42eb37d8afe3dd2f8d12311e
     Pseudo is Ultrasoft + core correction, Zval =  4.0
     Generated using "atomic" code by A. Dal Corso v.6.3MaX
     Using radial grid of 1073 points,  4 beta functions with:
                l(1) =   0
                l(2) =   0
                l(3) =   1
                l(4) =   1
     Q(r) pseudized with 0 coefficients

     PseudoPot. # 3 for V  read from file:
     /home/cristian/Escritorio/Proyecto_Grafeno/pseudopotenciales/V.pbe-spnl-rrkjus_psl.1.0.0.UPF
     MD5 check sum: 79b3eb63147daf0b665d9f1bcc691206
     Pseudo is Ultrasoft + core correction, Zval = 13.0
     Generated using "atomic" code by A. Dal Corso v.6.2.2
     Using radial grid of 1181 points,  6 beta functions with:
                l(1) =   0
                l(2) =   0
                l(3) =   1
                l(4) =   1
                l(5) =   2
                l(6) =   2
     Q(r) pseudized with 0 coefficients

     vdW kernel table read from file rVV10_kernel_table
     MD5 check sum: b8e2538accc0c0b3206b45ba4daaba6c

     atomic species   valence    mass     pseudopotential
        H              1.00     1.00794     H ( 1.00)
        C              4.00    12.01070     C ( 1.00)
        V             13.00    50.94150     V ( 1.00)

     Starting magnetic structure
     atomic species   magnetization
        H            0.500
        C            0.300
        V            0.800

     No symmetry found

                                    s                        frac. trans.

      isym =  1     identity

 cryst.   s( 1) = (     1          0          0      )
                  (     0          1          0      )
                  (     0          0          1      )

 cart.    s( 1) = (  1.0000000  0.0000000  0.0000000 )
                  (  0.0000000  1.0000000  0.0000000 )
                  (  0.0000000  0.0000000  1.0000000 )

     point group C_1 (1)
     there are  1 classes
     the character table:

       E
A      1.00

     the symmetry operations in each class and the name of the first element:

     E        1
          identity

   Cartesian axes

     site n.     atom                  positions (alat units)
         1           H   tau(   1) = (   0.2694937   0.4041452   0.1784775  )
         2           H   tau(   2) = (   0.3305063   0.4041452   0.1784775  )
         3           C   tau(   3) = (   0.0000000   0.0000000   0.0000000  )
         4           C   tau(   4) = (   0.0000000   0.1154701   0.0000000  )
         5           C   tau(   5) = (  -0.1000000   0.1732051   0.0000000  )
         6           C   tau(   6) = (  -0.1000000   0.2886751   0.0000000  )
         7           C   tau(   7) = (  -0.2000000   0.3464102   0.0000000  )
         8           C   tau(   8) = (  -0.2000000   0.4618802   0.0000000  )
         9           C   tau(   9) = (  -0.3000000   0.5196152   0.0000000  )
        10           C   tau(  10) = (  -0.3000000   0.6350853   0.0000000  )
        11           C   tau(  11) = (  -0.4000000   0.6928203   0.0000000  )
        12           C   tau(  12) = (  -0.4000000   0.8082904   0.0000000  )
        13           C   tau(  13) = (   0.2000000   0.0000000   0.0000000  )
        14           C   tau(  14) = (   0.2000000   0.1154701   0.0000000  )
        15           C   tau(  15) = (   0.1000000   0.1732051   0.0000000  )
        16           C   tau(  16) = (   0.1000000   0.2886751   0.0000000  )
        17           C   tau(  17) = (   0.0000000   0.3464102   0.0000000  )
        18           C   tau(  18) = (   0.0000000   0.4618802   0.0000000  )
        19           C   tau(  19) = (  -0.1000000   0.5196152   0.0000000  )
        20           C   tau(  20) = (  -0.1000000   0.6350853   0.0000000  )
        21           C   tau(  21) = (  -0.2000000   0.6928203   0.0000000  )
        22           C   tau(  22) = (  -0.2000000   0.8082904   0.0000000  )
        23           C   tau(  23) = (   0.4000000   0.0000000   0.0000000  )
        24           C   tau(  24) = (   0.4000000   0.1154701   0.0000000  )
        25           C   tau(  25) = (   0.3000000   0.1732051   0.0000000  )
        26           C   tau(  26) = (   0.3000000   0.2886751   0.0000000  )
        27           C   tau(  27) = (   0.2000000   0.3464102   0.0000000  )
        28           V   tau(  28) = (   0.2000000   0.4618802   0.0000000  )
        29           C   tau(  29) = (   0.1000000   0.5196152   0.0000000  )
        30           C   tau(  30) = (   0.1000000   0.6350853   0.0000000  )
        31           C   tau(  31) = (   0.0000000   0.6928203   0.0000000  )
        32           C   tau(  32) = (   0.0000000   0.8082904   0.0000000  )
        33           C   tau(  33) = (   0.6000000   0.0000000   0.0000000  )
        34           C   tau(  34) = (   0.6000000   0.1154701   0.0000000  )
        35           C   tau(  35) = (   0.5000000   0.1732051   0.0000000  )
        36           C   tau(  36) = (   0.5000000   0.2886751   0.0000000  )
        37           C   tau(  37) = (   0.4000000   0.3464102   0.0000000  )
        38           C   tau(  38) = (   0.4000000   0.4618802   0.0000000  )
        39           C   tau(  39) = (   0.3000000   0.5196152   0.0000000  )
        40           C   tau(  40) = (   0.3000000   0.6350853   0.0000000  )
        41           C   tau(  41) = (   0.2000000   0.6928203   0.0000000  )
        42           C   tau(  42) = (   0.2000000   0.8082904   0.0000000  )
        43           C   tau(  43) = (   0.8000000   0.0000000   0.0000000  )
        44           C   tau(  44) = (   0.8000000   0.1154701   0.0000000  )
        45           C   tau(  45) = (   0.7000000   0.1732051   0.0000000  )
        46           C   tau(  46) = (   0.7000000   0.2886751   0.0000000  )
        47           C   tau(  47) = (   0.6000000   0.3464102   0.0000000  )
        48           C   tau(  48) = (   0.6000000   0.4618802   0.0000000  )
        49           C   tau(  49) = (   0.5000000   0.5196152   0.0000000  )
        50           C   tau(  50) = (   0.5000000   0.6350853   0.0000000  )
        51           C   tau(  51) = (   0.4000000   0.6928203   0.0000000  )
        52           C   tau(  52) = (   0.4000000   0.8082904   0.0000000  )

   Crystallographic axes

     site n.     atom                  positions (cryst. coord.)
         1           H   tau(   1) = (  0.5028270  0.4666667  0.2200000  )
         2           H   tau(   2) = (  0.5638397  0.4666667  0.2200000  )
         3           C   tau(   3) = (  0.0000000  0.0000000  0.0000000  )
         4           C   tau(   4) = (  0.0666667  0.1333333  0.0000000  )
         5           C   tau(   5) = (  0.0000000  0.2000000  0.0000000  )
         6           C   tau(   6) = (  0.0666667  0.3333333  0.0000000  )
         7           C   tau(   7) = (  0.0000000  0.4000000  0.0000000  )
         8           C   tau(   8) = (  0.0666667  0.5333333  0.0000000  )
         9           C   tau(   9) = (  0.0000000  0.6000000  0.0000000  )
        10           C   tau(  10) = (  0.0666667  0.7333333  0.0000000  )
        11           C   tau(  11) = (  0.0000000  0.8000000  0.0000000  )
        12           C   tau(  12) = (  0.0666667  0.9333333  0.0000000  )
        13           C   tau(  13) = (  0.2000000  0.0000000  0.0000000  )
        14           C   tau(  14) = (  0.2666667  0.1333333  0.0000000  )
        15           C   tau(  15) = (  0.2000000  0.2000000  0.0000000  )
        16           C   tau(  16) = (  0.2666667  0.3333333  0.0000000  )
        17           C   tau(  17) = (  0.2000000  0.4000000  0.0000000  )
        18           C   tau(  18) = (  0.2666667  0.5333333  0.0000000  )
        19           C   tau(  19) = (  0.2000000  0.6000000  0.0000000  )
        20           C   tau(  20) = (  0.2666667  0.7333333  0.0000000  )
        21           C   tau(  21) = (  0.2000000  0.8000000  0.0000000  )
        22           C   tau(  22) = (  0.2666667  0.9333333  0.0000000  )
        23           C   tau(  23) = (  0.4000000  0.0000000  0.0000000  )
        24           C   tau(  24) = (  0.4666667  0.1333333  0.0000000  )
        25           C   tau(  25) = (  0.4000000  0.2000000  0.0000000  )
        26           C   tau(  26) = (  0.4666667  0.3333333  0.0000000  )
        27           C   tau(  27) = (  0.4000000  0.4000000  0.0000000  )
        28           V   tau(  28) = (  0.4666667  0.5333333  0.0000000  )
        29           C   tau(  29) = (  0.4000000  0.6000000  0.0000000  )
        30           C   tau(  30) = (  0.4666667  0.7333333  0.0000000  )
        31           C   tau(  31) = (  0.4000000  0.8000000  0.0000000  )
        32           C   tau(  32) = (  0.4666667  0.9333333  0.0000000  )
        33           C   tau(  33) = (  0.6000000  0.0000000  0.0000000  )
        34           C   tau(  34) = (  0.6666667  0.1333333  0.0000000  )
        35           C   tau(  35) = (  0.6000000  0.2000000  0.0000000  )
        36           C   tau(  36) = (  0.6666667  0.3333333  0.0000000  )
        37           C   tau(  37) = (  0.6000000  0.4000000  0.0000000  )
        38           C   tau(  38) = (  0.6666667  0.5333333  0.0000000  )
        39           C   tau(  39) = (  0.6000000  0.6000000  0.0000000  )
        40           C   tau(  40) = (  0.6666667  0.7333333  0.0000000  )
        41           C   tau(  41) = (  0.6000000  0.8000000  0.0000000  )
        42           C   tau(  42) = (  0.6666667  0.9333333  0.0000000  )
        43           C   tau(  43) = (  0.8000000  0.0000000  0.0000000  )
        44           C   tau(  44) = (  0.8666667  0.1333333  0.0000000  )
        45           C   tau(  45) = (  0.8000000  0.2000000  0.0000000  )
        46           C   tau(  46) = (  0.8666667  0.3333333  0.0000000  )
        47           C   tau(  47) = (  0.8000000  0.4000000  0.0000000  )
        48           C   tau(  48) = (  0.8666667  0.5333333  0.0000000  )
        49           C   tau(  49) = (  0.8000000  0.6000000  0.0000000  )
        50           C   tau(  50) = (  0.8666667  0.7333333  0.0000000  )
        51           C   tau(  51) = (  0.8000000  0.8000000  0.0000000  )
        52           C   tau(  52) = (  0.8666667  0.9333333  0.0000000  )

     number of k points=     1  Marzari-Vanderbilt smearing, width (Ry)=  0.0010
                       cart. coord. in units 2pi/alat
        k(    1) = (   0.0000000   0.0000000   0.0000000), wk =   1.0000000

                       cryst. coord.
        k(    1) = (   0.0000000   0.0000000   0.0000000), wk =   1.0000000

     Check: negative core charge=   -0.000002

     Initial potential from superposition of free atoms

     starting charge  210.80465, renormalised to  211.00000

     negative rho (up, down):  1.413E-04 1.867E-02

Carrying out rVV10 run using the following parameters:
Nqs =      20    Nr_points =    1024   r_max =   100.000
b_value =  6.30000    beta =  0.00901
     q_mesh =  0.00010000  0.00030000  0.00058939  0.00100810
               0.00161396  0.00249058  0.00375900  0.00559430
               0.00824984  0.01209221  0.01765183  0.02569619
               0.03733578  0.05417739  0.07854596  0.11380545
               0.16482331  0.23864234  0.34545298  0.50000000

Gradients computed in Reciprocal space

     Starting wfcs are  208 randomized atomic wfcs

     Self-consistent Calculation

     iteration #  1     ecut=    70.00 Ry     beta= 0.70
     Davidson diagonalization with overlap
     ethr =  1.00E-02,  avg # of iterations =  2.5

[...]

     total energy              =    -752.49931660 Ry
     Harris-Foulkes estimate   =    -757.05228722 Ry
     estimated scf accuracy    <      12.47932186 Ry

     total magnetization       =     5.00 Bohr mag/cell
     absolute magnetization    =     6.06 Bohr mag/cell

[...]

     total energy              =    -757.32439128 Ry
     Harris-Foulkes estimate   =    -757.32439137 Ry
     estimated scf accuracy    <       0.00000247 Ry

[...]

     iteration # 28     ecut=    70.00 Ry     beta= 0.70
     Davidson diagonalization with overlap
     ethr =  1.17E-09,  avg # of iterations =  2.0

     negative rho (up, down):  3.428E-02 1.968E-03

     Magnetic moment per site:
     atom:    1    charge:    0.2155    magn:   -0.0001    constr:    0.0000
     atom:    2    charge:    0.2087    magn:    0.0001    constr:    0.0000
     atom:    3    charge:    1.7178    magn:   -0.0063    constr:    0.0000
     atom:    4    charge:    1.7155    magn:    0.0080    constr:    0.0000
     atom:    5    charge:    1.7182    magn:   -0.0038    constr:    0.0000
     atom:    6    charge:    1.7141    magn:    0.0025    constr:    0.0000
     atom:    7    charge:    1.7183    magn:   -0.0041    constr:    0.0000
     atom:    8    charge:    1.7158    magn:    0.0096    constr:    0.0000
     atom:    9    charge:    1.7177    magn:   -0.0069    constr:    0.0000
     atom:   10    charge:    1.7145    magn:    0.0314    constr:    0.0000
     atom:   11    charge:    1.7186    magn:   -0.0089    constr:    0.0000
     atom:   12    charge:    1.7134    magn:    0.0250    constr:    0.0000
     atom:   13    charge:    1.7185    magn:   -0.0089    constr:    0.0000
     atom:   14    charge:    1.7146    magn:    0.0234    constr:    0.0000
     atom:   15    charge:    1.7170    magn:   -0.0072    constr:    0.0000
     atom:   16    charge:    1.7101    magn:    0.0245    constr:    0.0000
     atom:   17    charge:    1.7272    magn:   -0.0042    constr:    0.0000
     atom:   18    charge:    1.7102    magn:    0.0234    constr:    0.0000
     atom:   19    charge:    1.7172    magn:   -0.0070    constr:    0.0000
     atom:   20    charge:    1.7138    magn:    0.0191    constr:    0.0000
     atom:   21    charge:    1.7185    magn:   -0.0090    constr:    0.0000
     atom:   22    charge:    1.7154    magn:    0.0363    constr:    0.0000
     atom:   23    charge:    1.7174    magn:   -0.0073    constr:    0.0000
     atom:   24    charge:    1.7159    magn:    0.0108    constr:    0.0000
     atom:   25    charge:    1.7165    magn:   -0.0087    constr:    0.0000
     atom:   26    charge:    1.7132    magn:    0.0352    constr:    0.0000
     atom:   27    charge:    1.9150    magn:    0.0000    constr:    0.0000
     atom:   28    charge:    7.8605    magn:    0.1021    constr:    0.0000
     atom:   29    charge:    1.9148    magn:   -0.0014    constr:    0.0000
     atom:   30    charge:    1.7108    magn:    0.0280    constr:    0.0000
     atom:   31    charge:    1.7171    magn:   -0.0075    constr:    0.0000
     atom:   32    charge:    1.7160    magn:    0.0106    constr:    0.0000
     atom:   33    charge:    1.7182    magn:   -0.0044    constr:    0.0000
     atom:   34    charge:    1.7140    magn:    0.0077    constr:    0.0000
     atom:   35    charge:    1.7182    magn:   -0.0045    constr:    0.0000
     atom:   36    charge:    1.7142    magn:    0.0029    constr:    0.0000
     atom:   37    charge:    1.7268    magn:   -0.0064    constr:    0.0000
     atom:   38    charge:    1.7135    magn:    0.0357    constr:    0.0000
     atom:   39    charge:    1.9152    magn:    0.0006    constr:    0.0000
     atom:   40    charge:    1.7107    magn:    0.0300    constr:    0.0000
     atom:   41    charge:    1.7269    magn:   -0.0051    constr:    0.0000
     atom:   42    charge:    1.7141    magn:    0.0026    constr:    0.0000
     atom:   43    charge:    1.7184    magn:   -0.0039    constr:    0.0000
     atom:   44    charge:    1.7137    magn:    0.0057    constr:    0.0000
     atom:   45    charge:    1.7243    magn:   -0.0031    constr:    0.0000
     atom:   46    charge:    1.7139    magn:    0.0069    constr:    0.0000
     atom:   47    charge:    1.7182    magn:   -0.0044    constr:    0.0000
     atom:   48    charge:    1.7156    magn:    0.0095    constr:    0.0000
     atom:   49    charge:    1.7165    magn:   -0.0089    constr:    0.0000
     atom:   50    charge:    1.7152    magn:    0.0269    constr:    0.0000
     atom:   51    charge:    1.7169    magn:   -0.0080    constr:    0.0000
     atom:   52    charge:    1.7154    magn:    0.0079    constr:    0.0000

     End of self-consistent calculation

 ------ SPIN UP ------------

          k = 0.0000 0.0000 0.0000 ( 87777 PWs)   bands (ev):

   -62.8286 -37.9278 -37.9011 -36.5927 -19.6419 -18.8059 -18.7877 -18.7318
   -18.6878 -18.6828 -18.2465 -16.9492 -16.9445 -16.9369 -16.8119 -16.7996
   -16.5252 -16.0897 -16.0886 -15.9982 -15.8429 -15.8375 -15.0893 -13.9012
   -13.8984 -13.8852 -13.8704 -13.8685 -13.1428 -12.9274 -12.9223 -12.9059
   -12.5166 -12.5103 -12.1192 -11.6530 -11.6507 -11.5287 -11.1489 -11.1433
   -10.1590  -9.3454  -9.3414  -9.2596  -9.1903  -9.1877  -9.0994  -9.0764
    -9.0758  -9.0606  -8.4754  -8.4686  -8.0383  -7.9026  -7.8960  -7.8594
    -7.6824  -7.5987  -7.2624  -7.2543  -6.9642  -6.9058  -6.8451  -6.7113
    -6.7053  -6.6276  -6.5993  -6.5963  -6.5473  -6.4440  -6.4378  -6.4016
    -6.3940  -6.3898  -6.3426  -6.0365  -5.2688  -5.2646  -5.1614  -5.0819
    -4.9547  -4.9504  -4.8393  -4.7538  -4.6278  -4.6142  -4.5929  -4.2158
    -3.9954  -3.9909  -3.7689  -3.7447  -3.6639  -3.6179  -3.5070  -3.5060
    -2.8698  -2.2771  -2.2656  -2.2179  -2.2042  -1.7580  -1.6920  -1.6896
    -0.5630  -0.2450  -0.2407   0.9745   1.0381   1.0727   1.1399   1.7816
     2.0407   2.0450   2.5290   2.8860   2.8898   2.9640   3.4114   3.5485
     3.7055   3.7436   3.7622   3.7927   3.9466   3.9948   4.0014

     occupation numbers
     1.0000   1.0000   1.0000   1.0000   1.0000   1.0000   1.0000   1.0000
     1.0000   1.0000   1.0000   1.0000   1.0000   1.0000   1.0000   1.0000
     1.0000   1.0000   1.0000   1.0000   1.0000   1.0000   1.0000   1.0000
     1.0000   1.0000   1.0000   1.0000   1.0000   1.0000   1.0000   1.0000
     1.0000   1.0000   1.0000   1.0000   1.0000   1.0000   1.0000   1.0000
     1.0000   1.0000   1.0000   1.0000   1.0000   1.0000   1.0000   1.0000
     1.0000   1.0000   1.0000   1.0000   1.0000   1.0000   1.0000   1.0000
     1.0000   1.0000   1.0000   1.0000   1.0000   1.0000   1.0000   1.0000
     1.0000   1.0000   1.0000   1.0000   1.0000   1.0000   1.0000   1.0000
     1.0000   1.0000   1.0000   1.0000   1.0000   1.0000   1.0000   1.0000
     1.0000   1.0000   1.0000   1.0000   1.0000   1.0000   1.0000   1.0000
     1.0000   1.0000   1.0000   1.0000   1.0000   1.0000   1.0000   1.0000
     1.0000   1.0000   1.0000   1.0000   1.0000   1.0000   1.0000   1.0000
     1.0000   0.6148   0.3852   0.0000   0.0000   0.0000   0.0000   0.0000
     0.0000   0.0000   0.0000   0.0000   0.0000   0.0000   0.0000   0.0000
     0.0000   0.0000   0.0000   0.0000   0.0000   0.0000   0.0000

 ------ SPIN DOWN ----------

          k = 0.0000 0.0000 0.0000 ( 87777 PWs)   bands (ev):

   -62.6315 -37.7855 -37.7180 -36.3231 -19.6203 -18.7868 -18.7643 -18.7117
   -18.6715 -18.6658 -18.2145 -16.9326 -16.9278 -16.9168 -16.7852 -16.7701
   -16.5110 -16.0641 -16.0602 -15.9823 -15.8221 -15.8163 -15.0744 -13.8705
   -13.8678 -13.8635 -13.8573 -13.8386 -13.1460 -12.9173 -12.9112 -12.8905
   -12.5091 -12.5018 -12.1008 -11.6348 -11.6333 -11.5155 -11.1374 -11.1299
   -10.1444  -9.3292  -9.3237  -9.2469  -9.1738  -9.1698  -9.0912  -9.0628
    -9.0612  -9.0510  -8.4690  -8.4613  -7.9992  -7.8913  -7.8838  -7.8469
    -7.6740  -7.5613  -7.2534  -7.2445  -6.8854  -6.8832  -6.7898  -6.6716
    -6.6638  -6.5978  -6.5877  -6.5847  -6.5377  -6.4350  -6.4283  -6.3963
    -6.3866  -6.3830  -6.3343  -5.9689  -5.2608  -5.2558  -5.0687  -5.0038
    -4.9448  -4.9404  -4.8336  -4.7478  -4.5869  -4.5602  -4.5452  -4.1775
    -3.9476  -3.9365  -3.6936  -3.6707  -3.6190  -3.5877  -3.5007  -3.4990
    -2.8320  -2.2158  -2.1919  -2.1546  -2.1354  -1.6771  -1.6765  -1.6611
    -0.5580  -0.0406   0.0081   1.0224   1.0934   1.1133   1.1898   1.8496
     2.1076   2.1180   2.5345   2.9574   2.9598   3.0074   3.4257   3.5656
     3.7113   3.7459   3.7717   3.8173   3.9650   4.0522   4.1732

     occupation numbers
     1.0000   1.0000   1.0000   1.0000   1.0000   1.0000   1.0000   1.0000
     1.0000   1.0000   1.0000   1.0000   1.0000   1.0000   1.0000   1.0000
     1.0000   1.0000   1.0000   1.0000   1.0000   1.0000   1.0000   1.0000
     1.0000   1.0000   1.0000   1.0000   1.0000   1.0000   1.0000   1.0000
     1.0000   1.0000   1.0000   1.0000   1.0000   1.0000   1.0000   1.0000
     1.0000   1.0000   1.0000   1.0000   1.0000   1.0000   1.0000   1.0000
     1.0000   1.0000   1.0000   1.0000   1.0000   1.0000   1.0000   1.0000
     1.0000   1.0000   1.0000   1.0000   1.0000   1.0000   1.0000   1.0000
     1.0000   1.0000   1.0000   1.0000   1.0000   1.0000   1.0000   1.0000
     1.0000   1.0000   1.0000   1.0000   1.0000   1.0000   1.0000   1.0000
     1.0000   1.0000   1.0000   1.0000   1.0000   1.0000   1.0000   1.0000
     1.0000   1.0000   1.0000   1.0000   1.0000   1.0000   1.0000   1.0000
     1.0000   1.0000   1.0000   1.0000   1.0000   1.0000   1.0000   1.0000
     1.0000   0.0000   0.0000   0.0000   0.0000   0.0000   0.0000   0.0000
     0.0000   0.0000   0.0000   0.0000   0.0000   0.0000   0.0000   0.0000
     0.0000   0.0000   0.0000   0.0000   0.0000   0.0000   0.0000

     the Fermi energy is    -0.2410 ev

!    total energy              =    -757.32439103 Ry
     Harris-Foulkes estimate   =    -757.32439144 Ry
     estimated scf accuracy    <       0.00000086 Ry

     The total energy is the sum of the following terms:

     one-electron contribution =   -2603.04198771 Ry
     hartree contribution      =    1348.31511343 Ry
     xc contribution           =    -252.70642019 Ry
     ewald contribution        =     750.10921363 Ry
     smearing contrib. (-TS)   =      -0.00031018 Ry

     total magnetization       =     1.00 Bohr mag/cell
     absolute magnetization    =     1.54 Bohr mag/cell

     convergence has been achieved in  28 iterations

     Writing output data file vanadio-sixhollow-distance-2.2.save/

     General routines

     Parallel routines

   This run was terminated on:  22:35: 8   1Sep2022

   JOB DONE.