     Program PWSCF v.6.4.1 starts on 21Aug2022 at 15:37: 9

     R & G space division:  proc/nbgrp/npool/nimage =       6
     Reading input from distance-2.2.in

     Current dimensions of program PWSCF are:
     Max number of different atomic species (ntypx) = 10
     Max number of k-points (npk) =  40000
     Max angular momentum in pseudopotentials (lmaxx) =  3

     IMPORTANT: XC functional enforced from input :
     Exchange-correlation      = RVV10 ( 1  4 13  4 3 0)
     Any further DFT definition will be discarded
     Please, verify this is what you really want

               file H.pbe-rrkjus.UPF: wavefunction(s)  1S renormalized
               file V.pbe-spnl-rrkjus_psl.1.0.0.UPF: wavefunction(s)  3P 3D renormalized

     Subspace diagonalization in iterative solution of the eigenvalue problem:
     a serial algorithm will be used

     bravais-lattice index     =            4
     lattice parameter (alat)  =      23.2937  a.u.
     unit-cell volume          =    8879.8548 (a.u.)^3
     number of atoms/cell      =           52
     number of atomic types    =            3
     number of electrons       =       211.00
     number of Kohn-Sham states=          127
     kinetic-energy cutoff     =      70.0000  Ry
     charge density cutoff     =     490.0000  Ry
     convergence threshold     =      1.0E-06
     mixing beta               =       0.7000
     number of iterations used =            8  plain     mixing
     Exchange-correlation      = RVV10 ( 1  4 13  4 3 0)

     celldm(1)=  23.293684  celldm(2)=   0.000000  celldm(3)=   0.811261
     celldm(4)=   0.000000  celldm(5)=   0.000000  celldm(6)=   0.000000

     crystal axes: (cart. coord. in units of alat)
               a(1) = (   1.000000   0.000000   0.000000 )
               a(2) = (  -0.500000   0.866025   0.000000 )
               a(3) = (   0.000000   0.000000   0.811261 )

     reciprocal axes: (cart. coord. in units 2 pi/alat)
               b(1) = (  1.000000  0.577350 -0.000000 )
               b(2) = (  0.000000  1.154701  0.000000 )
               b(3) = (  0.000000 -0.000000  1.232649 )

     PseudoPot. # 1 for H  read from file:
     /home/cristian/Escritorio/Proyecto_Grafeno/pseudopotenciales/H.pbe-rrkjus.UPF
     MD5 check sum: 7cc9d459525c9a0585f487a71c3c9563
     Pseudo is Ultrasoft, Zval =  1.0
     Generated by new atomic code, or converted to UPF format
     Using radial grid of 1061 points,  2 beta functions with:
                l(1) =   0
                l(2) =   0
     Q(r) pseudized with 0 coefficients

     PseudoPot. # 2 for C  read from file:
     /home/cristian/Escritorio/Proyecto_Grafeno/pseudopotenciales/C.pbe-n-rrkjus_psl.1.0.0.UPF
     MD5 check sum: 1fdd950c42eb37d8afe3dd2f8d12311e
     Pseudo is Ultrasoft + core correction, Zval =  4.0
     Generated using "atomic" code by A. Dal Corso v.6.3MaX
     Using radial grid of 1073 points,  4 beta functions with:
                l(1) =   0
                l(2) =   0
                l(3) =   1
                l(4) =   1
     Q(r) pseudized with 0 coefficients

     PseudoPot. # 3 for V  read from file:
     /home/cristian/Escritorio/Proyecto_Grafeno/pseudopotenciales/V.pbe-spnl-rrkjus_psl.1.0.0.UPF
     MD5 check sum: 79b3eb63147daf0b665d9f1bcc691206
     Pseudo is Ultrasoft + core correction, Zval = 13.0
     Generated using "atomic" code by A. Dal Corso v.6.2.2
     Using radial grid of 1181 points,  6 beta functions with:
                l(1) =   0
                l(2) =   0
                l(3) =   1
                l(4) =   1
                l(5) =   2
                l(6) =   2
     Q(r) pseudized with 0 coefficients

     vdW kernel table read from file rVV10_kernel_table
     MD5 check sum: b8e2538accc0c0b3206b45ba4daaba6c

     atomic species   valence    mass     pseudopotential
        H              1.00     1.00794     H ( 1.00)
        C              4.00    12.01070     C ( 1.00)
        V             13.00    50.94150     V ( 1.00)

     Starting magnetic structure
     atomic species   magnetization
        H            0.500
        C            0.300
        V            0.800

      2 Sym. Ops. (no inversion) found

                                    s                        frac. trans.

      isym =  1     identity

 cryst.   s( 1) = (     1          0          0      )
                  (     0          1          0      )
                  (     0          0          1      )

 cart.    s( 1) = (  1.0000000  0.0000000  0.0000000 )
                  (  0.0000000  1.0000000  0.0000000 )
                  (  0.0000000  0.0000000  1.0000000 )

      isym =  2     inv. 180 deg rotation - cryst. axis [1,1,0]

 cryst.   s( 2) = (     0         -1          0      )
                  (    -1          0          0      )
                  (     0          0          1      )

 cart.    s( 2) = (  0.5000000 -0.8660254  0.0000000 )
                  ( -0.8660254 -0.5000000  0.0000000 )
                  (  0.0000000  0.0000000  1.0000000 )

     point group C_s (m)
     there are  2 classes
     the character table:

       E     s
A'     1.00  1.00
A''    1.00 -1.00

     the symmetry operations in each class and the name of the first element:

     E        1
          identity
     s        2
          inv. 180 deg rotation - cryst. axis [1,1,0]

   Cartesian axes

     site n.     atom                  positions (alat units)
         1           H   tau(   1) = (   0.2000000   0.4618802   0.1784775  )
         2           H   tau(   2) = (   0.2000000   0.4618802   0.2394901  )
         3           C   tau(   3) = (   0.0000000   0.0000000   0.0000000  )
         4           C   tau(   4) = (   0.0000000   0.1154701   0.0000000  )
         5           C   tau(   5) = (  -0.1000000   0.1732051   0.0000000  )
         6           C   tau(   6) = (  -0.1000000   0.2886751   0.0000000  )
         7           C   tau(   7) = (  -0.2000000   0.3464102   0.0000000  )
         8           C   tau(   8) = (  -0.2000000   0.4618802   0.0000000  )
         9           C   tau(   9) = (  -0.3000000   0.5196152   0.0000000  )
        10           C   tau(  10) = (  -0.3000000   0.6350853   0.0000000  )
        11           C   tau(  11) = (  -0.4000000   0.6928203   0.0000000  )
        12           C   tau(  12) = (  -0.4000000   0.8082904   0.0000000  )
        13           C   tau(  13) = (   0.2000000   0.0000000   0.0000000  )
        14           C   tau(  14) = (   0.2000000   0.1154701   0.0000000  )
        15           C   tau(  15) = (   0.1000000   0.1732051   0.0000000  )
        16           C   tau(  16) = (   0.1000000   0.2886751   0.0000000  )
        17           C   tau(  17) = (   0.0000000   0.3464102   0.0000000  )
        18           C   tau(  18) = (   0.0000000   0.4618802   0.0000000  )
        19           C   tau(  19) = (  -0.1000000   0.5196152   0.0000000  )
        20           C   tau(  20) = (  -0.1000000   0.6350853   0.0000000  )
        21           C   tau(  21) = (  -0.2000000   0.6928203   0.0000000  )
        22           C   tau(  22) = (  -0.2000000   0.8082904   0.0000000  )
        23           C   tau(  23) = (   0.4000000   0.0000000   0.0000000  )
        24           C   tau(  24) = (   0.4000000   0.1154701   0.0000000  )
        25           C   tau(  25) = (   0.3000000   0.1732051   0.0000000  )
        26           C   tau(  26) = (   0.3000000   0.2886751   0.0000000  )
        27           C   tau(  27) = (   0.2000000   0.3464102   0.0000000  )
        28           V   tau(  28) = (   0.2000000   0.4618802   0.0000000  )
        29           C   tau(  29) = (   0.1000000   0.5196152   0.0000000  )
        30           C   tau(  30) = (   0.1000000   0.6350853   0.0000000  )
        31           C   tau(  31) = (   0.0000000   0.6928203   0.0000000  )
        32           C   tau(  32) = (   0.0000000   0.8082904   0.0000000  )
        33           C   tau(  33) = (   0.6000000   0.0000000   0.0000000  )
        34           C   tau(  34) = (   0.6000000   0.1154701   0.0000000  )
        35           C   tau(  35) = (   0.5000000   0.1732051   0.0000000  )
        36           C   tau(  36) = (   0.5000000   0.2886751   0.0000000  )
        37           C   tau(  37) = (   0.4000000   0.3464102   0.0000000  )
        38           C   tau(  38) = (   0.4000000   0.4618802   0.0000000  )
        39           C   tau(  39) = (   0.3000000   0.5196152   0.0000000  )
        40           C   tau(  40) = (   0.3000000   0.6350853   0.0000000  )
        41           C   tau(  41) = (   0.2000000   0.6928203   0.0000000  )
        42           C   tau(  42) = (   0.2000000   0.8082904   0.0000000  )
        43           C   tau(  43) = (   0.8000000   0.0000000   0.0000000  )
        44           C   tau(  44) = (   0.8000000   0.1154701   0.0000000  )
        45           C   tau(  45) = (   0.7000000   0.1732051   0.0000000  )
        46           C   tau(  46) = (   0.7000000   0.2886751   0.0000000  )
        47           C   tau(  47) = (   0.6000000   0.3464102   0.0000000  )
        48           C   tau(  48) = (   0.6000000   0.4618802   0.0000000  )
        49           C   tau(  49) = (   0.5000000   0.5196152   0.0000000  )
        50           C   tau(  50) = (   0.5000000   0.6350853   0.0000000  )
        51           C   tau(  51) = (   0.4000000   0.6928203   0.0000000  )
        52           C   tau(  52) = (   0.4000000   0.8082904   0.0000000  )

   Crystallographic axes

     site n.     atom                  positions (cryst. coord.)
         1           H   tau(   1) = (  0.4666667  0.5333333  0.2200000  )
         2           H   tau(   2) = (  0.4666667  0.5333333  0.2952072  )
         3           C   tau(   3) = (  0.0000000  0.0000000  0.0000000  )
         4           C   tau(   4) = (  0.0666667  0.1333333  0.0000000  )
         5           C   tau(   5) = (  0.0000000  0.2000000  0.0000000  )
         6           C   tau(   6) = (  0.0666667  0.3333333  0.0000000  )
         7           C   tau(   7) = (  0.0000000  0.4000000  0.0000000  )
         8           C   tau(   8) = (  0.0666667  0.5333333  0.0000000  )
         9           C   tau(   9) = (  0.0000000  0.6000000  0.0000000  )
        10           C   tau(  10) = (  0.0666667  0.7333333  0.0000000  )
        11           C   tau(  11) = (  0.0000000  0.8000000  0.0000000  )
        12           C   tau(  12) = (  0.0666667  0.9333333  0.0000000  )
        13           C   tau(  13) = (  0.2000000  0.0000000  0.0000000  )
        14           C   tau(  14) = (  0.2666667  0.1333333  0.0000000  )
        15           C   tau(  15) = (  0.2000000  0.2000000  0.0000000  )
        16           C   tau(  16) = (  0.2666667  0.3333333  0.0000000  )
        17           C   tau(  17) = (  0.2000000  0.4000000  0.0000000  )
        18           C   tau(  18) = (  0.2666667  0.5333333  0.0000000  )
        19           C   tau(  19) = (  0.2000000  0.6000000  0.0000000  )
        20           C   tau(  20) = (  0.2666667  0.7333333  0.0000000  )
        21           C   tau(  21) = (  0.2000000  0.8000000  0.0000000  )
        22           C   tau(  22) = (  0.2666667  0.9333333  0.0000000  )
        23           C   tau(  23) = (  0.4000000  0.0000000  0.0000000  )
        24           C   tau(  24) = (  0.4666667  0.1333333  0.0000000  )
        25           C   tau(  25) = (  0.4000000  0.2000000  0.0000000  )
        26           C   tau(  26) = (  0.4666667  0.3333333  0.0000000  )
        27           C   tau(  27) = (  0.4000000  0.4000000  0.0000000  )
        28           V   tau(  28) = (  0.4666667  0.5333333  0.0000000  )
        29           C   tau(  29) = (  0.4000000  0.6000000  0.0000000  )
        30           C   tau(  30) = (  0.4666667  0.7333333  0.0000000  )
        31           C   tau(  31) = (  0.4000000  0.8000000  0.0000000  )
        32           C   tau(  32) = (  0.4666667  0.9333333  0.0000000  )
        33           C   tau(  33) = (  0.6000000  0.0000000  0.0000000  )
        34           C   tau(  34) = (  0.6666667  0.1333333  0.0000000  )
        35           C   tau(  35) = (  0.6000000  0.2000000  0.0000000  )
        36           C   tau(  36) = (  0.6666667  0.3333333  0.0000000  )
        37           C   tau(  37) = (  0.6000000  0.4000000  0.0000000  )
        38           C   tau(  38) = (  0.6666667  0.5333333  0.0000000  )
        39           C   tau(  39) = (  0.6000000  0.6000000  0.0000000  )
        40           C   tau(  40) = (  0.6666667  0.7333333  0.0000000  )
        41           C   tau(  41) = (  0.6000000  0.8000000  0.0000000  )
        42           C   tau(  42) = (  0.6666667  0.9333333  0.0000000  )
        43           C   tau(  43) = (  0.8000000  0.0000000  0.0000000  )
        44           C   tau(  44) = (  0.8666667  0.1333333  0.0000000  )
        45           C   tau(  45) = (  0.8000000  0.2000000  0.0000000  )
        46           C   tau(  46) = (  0.8666667  0.3333333  0.0000000  )
        47           C   tau(  47) = (  0.8000000  0.4000000  0.0000000  )
        48           C   tau(  48) = (  0.8666667  0.5333333  0.0000000  )
        49           C   tau(  49) = (  0.8000000  0.6000000  0.0000000  )
        50           C   tau(  50) = (  0.8666667  0.7333333  0.0000000  )
        51           C   tau(  51) = (  0.8000000  0.8000000  0.0000000  )
        52           C   tau(  52) = (  0.8666667  0.9333333  0.0000000  )

     number of k points=     1  Marzari-Vanderbilt smearing, width (Ry)=  0.0010
                       cart. coord. in units 2pi/alat
        k(    1) = (   0.0000000   0.0000000   0.0000000), wk =   1.0000000

                       cryst. coord.
        k(    1) = (   0.0000000   0.0000000   0.0000000), wk =   1.0000000

     Check: negative core charge=   -0.000002

     Initial potential from superposition of free atoms

     starting charge  210.80465, renormalised to  211.00000

     negative rho (up, down):  1.245E-04 1.671E-02

Carrying out rVV10 run using the following parameters:
Nqs =      20    Nr_points =    1024   r_max =   100.000
b_value =  6.30000    beta =  0.00901
     q_mesh =  0.00010000  0.00030000  0.00058939  0.00100810
               0.00161396  0.00249058  0.00375900  0.00559430
               0.00824984  0.01209221  0.01765183  0.02569619
               0.03733578  0.05417739  0.07854596  0.11380545
               0.16482331  0.23864234  0.34545298  0.50000000

Gradients computed in Reciprocal space

     Starting wfcs are  208 randomized atomic wfcs

     Self-consistent Calculation

     iteration #  1     ecut=    70.00 Ry     beta= 0.70
     Davidson diagonalization with overlap
     ethr =  1.00E-02,  avg # of iterations =  2.5

[...]

     total energy              =    -752.68554193 Ry
     Harris-Foulkes estimate   =    -757.05602425 Ry
     estimated scf accuracy    <      12.29949764 Ry

     total magnetization       =     5.00 Bohr mag/cell
     absolute magnetization    =     6.03 Bohr mag/cell

[...]

     total energy              =    -757.33209854 Ry
     Harris-Foulkes estimate   =    -757.33209438 Ry
     estimated scf accuracy    <       0.00000251 Ry

[...]

     iteration # 16     ecut=    70.00 Ry     beta= 0.70
     Davidson diagonalization with overlap
     ethr =  1.19E-09,  avg # of iterations =  3.0

     negative rho (up, down):  3.382E-02 1.849E-03

     Magnetic moment per site:
     atom:    1    charge:    0.2171    magn:   -0.0000    constr:    0.0000
     atom:    2    charge:    0.2046    magn:   -0.0001    constr:    0.0000
     atom:    3    charge:    1.7177    magn:   -0.0063    constr:    0.0000
     atom:    4    charge:    1.7157    magn:    0.0090    constr:    0.0000
     atom:    5    charge:    1.7183    magn:   -0.0039    constr:    0.0000
     atom:    6    charge:    1.7141    magn:    0.0023    constr:    0.0000
     atom:    7    charge:    1.7183    magn:   -0.0039    constr:    0.0000
     atom:    8    charge:    1.7157    magn:    0.0089    constr:    0.0000
     atom:    9    charge:    1.7177    magn:   -0.0063    constr:    0.0000
     atom:   10    charge:    1.7145    magn:    0.0304    constr:    0.0000
     atom:   11    charge:    1.7186    magn:   -0.0084    constr:    0.0000
     atom:   12    charge:    1.7145    magn:    0.0307    constr:    0.0000
     atom:   13    charge:    1.7186    magn:   -0.0084    constr:    0.0000
     atom:   14    charge:    1.7145    magn:    0.0226    constr:    0.0000
     atom:   15    charge:    1.7169    magn:   -0.0075    constr:    0.0000
     atom:   16    charge:    1.7111    magn:    0.0296    constr:    0.0000
     atom:   17    charge:    1.7269    magn:   -0.0050    constr:    0.0000
     atom:   18    charge:    1.7111    magn:    0.0296    constr:    0.0000
     atom:   19    charge:    1.7169    magn:   -0.0075    constr:    0.0000
     atom:   20    charge:    1.7145    magn:    0.0228    constr:    0.0000
     atom:   21    charge:    1.7186    magn:   -0.0084    constr:    0.0000
     atom:   22    charge:    1.7145    magn:    0.0304    constr:    0.0000
     atom:   23    charge:    1.7177    magn:   -0.0063    constr:    0.0000
     atom:   24    charge:    1.7157    magn:    0.0089    constr:    0.0000
     atom:   25    charge:    1.7169    magn:   -0.0074    constr:    0.0000
     atom:   26    charge:    1.7110    magn:    0.0293    constr:    0.0000
     atom:   27    charge:    1.9146    magn:   -0.0005    constr:    0.0000
     atom:   28    charge:    7.8611    magn:    0.1013    constr:    0.0000
     atom:   29    charge:    1.9146    magn:   -0.0005    constr:    0.0000
     atom:   30    charge:    1.7111    magn:    0.0296    constr:    0.0000
     atom:   31    charge:    1.7169    magn:   -0.0075    constr:    0.0000
     atom:   32    charge:    1.7157    magn:    0.0089    constr:    0.0000
     atom:   33    charge:    1.7183    magn:   -0.0039    constr:    0.0000
     atom:   34    charge:    1.7138    magn:    0.0065    constr:    0.0000
     atom:   35    charge:    1.7184    magn:   -0.0038    constr:    0.0000
     atom:   36    charge:    1.7142    magn:    0.0023    constr:    0.0000
     atom:   37    charge:    1.7269    magn:   -0.0048    constr:    0.0000
     atom:   38    charge:    1.7110    magn:    0.0293    constr:    0.0000
     atom:   39    charge:    1.9146    magn:   -0.0005    constr:    0.0000
     atom:   40    charge:    1.7111    magn:    0.0296    constr:    0.0000
     atom:   41    charge:    1.7269    magn:   -0.0050    constr:    0.0000
     atom:   42    charge:    1.7141    magn:    0.0023    constr:    0.0000
     atom:   43    charge:    1.7183    magn:   -0.0039    constr:    0.0000
     atom:   44    charge:    1.7138    magn:    0.0066    constr:    0.0000
     atom:   45    charge:    1.7245    magn:   -0.0028    constr:    0.0000
     atom:   46    charge:    1.7138    magn:    0.0065    constr:    0.0000
     atom:   47    charge:    1.7184    magn:   -0.0038    constr:    0.0000
     atom:   48    charge:    1.7157    magn:    0.0089    constr:    0.0000
     atom:   49    charge:    1.7169    magn:   -0.0074    constr:    0.0000
     atom:   50    charge:    1.7145    magn:    0.0226    constr:    0.0000
     atom:   51    charge:    1.7169    magn:   -0.0075    constr:    0.0000
     atom:   52    charge:    1.7157    magn:    0.0090    constr:    0.0000

     End of self-consistent calculation

 ------ SPIN UP ------------

          k = 0.0000 0.0000 0.0000 ( 87777 PWs)   bands (ev):

   -62.8003 -37.8873 -37.8869 -36.5706 -19.6173 -18.7741 -18.7738 -18.7055
   -18.6586 -18.6583 -18.2207 -16.9188 -16.9181 -16.9181 -16.7811 -16.7809
   -16.4994 -16.0648 -16.0647 -15.9715 -15.8150 -15.8150 -15.0641 -13.8760
   -13.8689 -13.8687 -13.8452 -13.8451 -13.1163 -12.8993 -12.8993 -12.8819
   -12.4877 -12.4877 -12.0956 -11.6270 -11.6269 -11.5028 -11.1207 -11.1207
   -10.1352  -9.3179  -9.3177  -9.2376  -9.1639  -9.1639  -9.0752  -9.0507
    -9.0506  -9.0350  -8.4456  -8.4456  -8.0079  -7.8754  -7.8752  -7.8391
    -7.6929  -7.6586  -7.2364  -7.2363  -6.9448  -6.9448  -6.8753  -6.6829
    -6.6829  -6.6812  -6.5725  -6.5725  -6.5253  -6.4170  -6.4168  -6.3730
    -6.3686  -6.3686  -6.3161  -6.2182  -5.2422  -5.2420  -5.1406  -5.1406
    -4.9273  -4.9272  -4.8162  -4.7286  -4.6029  -4.5914  -4.5914  -4.2138
    -3.9694  -3.9692  -3.7426  -3.7425  -3.6421  -3.5969  -3.4811  -3.4810
    -2.8499  -2.2432  -2.2432  -2.1915  -2.1912  -1.7295  -1.6657  -1.6656
    -0.5010  -0.2209  -0.2208   1.0304   1.0670   1.0968   1.0969   1.8041
     2.0678   2.0678   2.4729   2.9126   2.9127   2.9925   3.4643   3.4703
     3.4703   3.7506   3.7507   3.7934   3.9175   4.0186   4.0187

     occupation numbers
     1.0000   1.0000   1.0000   1.0000   1.0000   1.0000   1.0000   1.0000
     1.0000   1.0000   1.0000   1.0000   1.0000   1.0000   1.0000   1.0000
     1.0000   1.0000   1.0000   1.0000   1.0000   1.0000   1.0000   1.0000
     1.0000   1.0000   1.0000   1.0000   1.0000   1.0000   1.0000   1.0000
     1.0000   1.0000   1.0000   1.0000   1.0000   1.0000   1.0000   1.0000
     1.0000   1.0000   1.0000   1.0000   1.0000   1.0000   1.0000   1.0000
     1.0000   1.0000   1.0000   1.0000   1.0000   1.0000   1.0000   1.0000
     1.0000   1.0000   1.0000   1.0000   1.0000   1.0000   1.0000   1.0000
     1.0000   1.0000   1.0000   1.0000   1.0000   1.0000   1.0000   1.0000
     1.0000   1.0000   1.0000   1.0000   1.0000   1.0000   1.0000   1.0000
     1.0000   1.0000   1.0000   1.0000   1.0000   1.0000   1.0000   1.0000
     1.0000   1.0000   1.0000   1.0000   1.0000   1.0000   1.0000   1.0000
     1.0000   1.0000   1.0000   1.0000   1.0000   1.0000   1.0000   1.0000
     1.0000   0.5034   0.4966   0.0000   0.0000   0.0000   0.0000   0.0000
     0.0000   0.0000   0.0000   0.0000   0.0000   0.0000   0.0000   0.0000
     0.0000   0.0000   0.0000   0.0000   0.0000   0.0000   0.0000

 ------ SPIN DOWN ----------

          k = 0.0000 0.0000 0.0000 ( 87777 PWs)   bands (ev):

   -62.6044 -37.7262 -37.7246 -36.3029 -19.5955 -18.7526 -18.7521 -18.6854
   -18.6420 -18.6416 -18.1888 -16.9027 -16.8993 -16.8992 -16.7528 -16.7526
   -16.4853 -16.0375 -16.0374 -15.9559 -15.7942 -15.7942 -15.0495 -13.8412
   -13.8411 -13.8391 -13.8289 -13.8284 -13.1187 -12.8889 -12.8889 -12.8662
   -12.4794 -12.4794 -12.0775 -11.6091 -11.6090 -11.4896 -11.1083 -11.1083
   -10.1208  -9.3010  -9.3008  -9.2246  -9.1465  -9.1464  -9.0672  -9.0366
    -9.0365  -9.0258  -8.4389  -8.4389  -7.9892  -7.8639  -7.8638  -7.8309
    -7.6567  -7.6500  -7.2276  -7.2275  -6.8674  -6.8674  -6.8550  -6.6507
    -6.6505  -6.6312  -6.5612  -6.5612  -6.5157  -6.4075  -6.4073  -6.3672
    -6.3619  -6.3618  -6.3081  -6.1412  -5.2339  -5.2337  -5.0566  -5.0564
    -4.9174  -4.9173  -4.8104  -4.7225  -4.5610  -4.5406  -4.5404  -4.1766
    -3.9183  -3.9179  -3.6681  -3.6680  -3.5964  -3.5673  -3.4745  -3.4745
    -2.8159  -2.1759  -2.1757  -2.1260  -2.1257  -1.6494  -1.6494  -1.6352
    -0.4949   0.0023   0.0037   1.1027   1.1182   1.1182   1.1448   1.8732
     2.1384   2.1388   2.4766   2.9838   2.9839   3.0335   3.4773   3.4773
     3.4837   3.7526   3.7527   3.7993   3.9519   4.0903   4.2259

     occupation numbers
     1.0000   1.0000   1.0000   1.0000   1.0000   1.0000   1.0000   1.0000
     1.0000   1.0000   1.0000   1.0000   1.0000   1.0000   1.0000   1.0000
     1.0000   1.0000   1.0000   1.0000   1.0000   1.0000   1.0000   1.0000
     1.0000   1.0000   1.0000   1.0000   1.0000   1.0000   1.0000   1.0000
     1.0000   1.0000   1.0000   1.0000   1.0000   1.0000   1.0000   1.0000
     1.0000   1.0000   1.0000   1.0000   1.0000   1.0000   1.0000   1.0000
     1.0000   1.0000   1.0000   1.0000   1.0000   1.0000   1.0000   1.0000
     1.0000   1.0000   1.0000   1.0000   1.0000   1.0000   1.0000   1.0000
     1.0000   1.0000   1.0000   1.0000   1.0000   1.0000   1.0000   1.0000
     1.0000   1.0000   1.0000   1.0000   1.0000   1.0000   1.0000   1.0000
     1.0000   1.0000   1.0000   1.0000   1.0000   1.0000   1.0000   1.0000
     1.0000   1.0000   1.0000   1.0000   1.0000   1.0000   1.0000   1.0000
     1.0000   1.0000   1.0000   1.0000   1.0000   1.0000   1.0000   1.0000
     1.0000   0.0000   0.0000   0.0000   0.0000   0.0000   0.0000   0.0000
     0.0000   0.0000   0.0000   0.0000   0.0000   0.0000   0.0000   0.0000
     0.0000   0.0000   0.0000   0.0000   0.0000   0.0000   0.0000

     the Fermi energy is    -0.2190 ev

!    total energy              =    -757.33210023 Ry
     Harris-Foulkes estimate   =    -757.33209926 Ry
     estimated scf accuracy    <       0.00000051 Ry

     The total energy is the sum of the following terms:

     one-electron contribution =   -2596.79803556 Ry
     hartree contribution      =    1345.32549944 Ry
     xc contribution           =    -252.68891718 Ry
     ewald contribution        =     746.82968123 Ry
     smearing contrib. (-TS)   =      -0.00032817 Ry

     total magnetization       =     1.00 Bohr mag/cell
     absolute magnetization    =     1.51 Bohr mag/cell

     convergence has been achieved in  16 iterations

     Writing output data file distance-2.2.save/

     General routines

     Parallel routines

   This run was terminated on:  16: 7: 8  21Aug2022

   JOB DONE.