     Program PWSCF v.6.4.1 starts on 21Aug2022 at 10:29:51

     R & G space division:  proc/nbgrp/npool/nimage =       6
     Reading input from distance-5.0.in

     Current dimensions of program PWSCF are:
     Max number of different atomic species (ntypx) = 10
     Max number of k-points (npk) =  40000
     Max angular momentum in pseudopotentials (lmaxx) =  3

     IMPORTANT: XC functional enforced from input :
     Exchange-correlation      = RVV10 ( 1  4 13  4 3 0)
     Any further DFT definition will be discarded
     Please, verify this is what you really want

               file H.pbe-rrkjus.UPF: wavefunction(s)  1S renormalized
               file V.pbe-spnl-rrkjus_psl.1.0.0.UPF: wavefunction(s)  3P 3D renormalized

     Subspace diagonalization in iterative solution of the eigenvalue problem:
     a serial algorithm will be used

     bravais-lattice index     =            4
     lattice parameter (alat)  =      23.2937  a.u.
     unit-cell volume          =    8879.8548 (a.u.)^3
     number of atoms/cell      =           52
     number of atomic types    =            3
     number of electrons       =       211.00
     number of Kohn-Sham states=          127
     kinetic-energy cutoff     =      70.0000  Ry
     charge density cutoff     =     490.0000  Ry
     convergence threshold     =      1.0E-06
     mixing beta               =       0.7000
     number of iterations used =            8  plain     mixing
     Exchange-correlation      = RVV10 ( 1  4 13  4 3 0)

     celldm(1)=  23.293684  celldm(2)=   0.000000  celldm(3)=   0.811261
     celldm(4)=   0.000000  celldm(5)=   0.000000  celldm(6)=   0.000000

     crystal axes: (cart. coord. in units of alat)
               a(1) = (   1.000000   0.000000   0.000000 )
               a(2) = (  -0.500000   0.866025   0.000000 )
               a(3) = (   0.000000   0.000000   0.811261 )

     reciprocal axes: (cart. coord. in units 2 pi/alat)
               b(1) = (  1.000000  0.577350 -0.000000 )
               b(2) = (  0.000000  1.154701  0.000000 )
               b(3) = (  0.000000 -0.000000  1.232649 )

     PseudoPot. # 1 for H  read from file:
     /home/cristian/Escritorio/Proyecto_Grafeno/pseudopotenciales/H.pbe-rrkjus.UPF
     MD5 check sum: 7cc9d459525c9a0585f487a71c3c9563
     Pseudo is Ultrasoft, Zval =  1.0
     Generated by new atomic code, or converted to UPF format
     Using radial grid of 1061 points,  2 beta functions with:
                l(1) =   0
                l(2) =   0
     Q(r) pseudized with 0 coefficients

     PseudoPot. # 2 for C  read from file:
     /home/cristian/Escritorio/Proyecto_Grafeno/pseudopotenciales/C.pbe-n-rrkjus_psl.1.0.0.UPF
     MD5 check sum: 1fdd950c42eb37d8afe3dd2f8d12311e
     Pseudo is Ultrasoft + core correction, Zval =  4.0
     Generated using "atomic" code by A. Dal Corso v.6.3MaX
     Using radial grid of 1073 points,  4 beta functions with:
                l(1) =   0
                l(2) =   0
                l(3) =   1
                l(4) =   1
     Q(r) pseudized with 0 coefficients

     PseudoPot. # 3 for V  read from file:
     /home/cristian/Escritorio/Proyecto_Grafeno/pseudopotenciales/V.pbe-spnl-rrkjus_psl.1.0.0.UPF
     MD5 check sum: 79b3eb63147daf0b665d9f1bcc691206
     Pseudo is Ultrasoft + core correction, Zval = 13.0
     Generated using "atomic" code by A. Dal Corso v.6.2.2
     Using radial grid of 1181 points,  6 beta functions with:
                l(1) =   0
                l(2) =   0
                l(3) =   1
                l(4) =   1
                l(5) =   2
                l(6) =   2
     Q(r) pseudized with 0 coefficients

     vdW kernel table read from file rVV10_kernel_table
     MD5 check sum: b8e2538accc0c0b3206b45ba4daaba6c

     atomic species   valence    mass     pseudopotential
        H              1.00     1.00794     H ( 1.00)
        C              4.00    12.01070     C ( 1.00)
        V             13.00    50.94150     V ( 1.00)

     Starting magnetic structure
     atomic species   magnetization
        H            0.500
        C            0.300
        V            0.800

      2 Sym. Ops. (no inversion) found

                                    s                        frac. trans.

      isym =  1     identity

 cryst.   s( 1) = (     1          0          0      )
                  (     0          1          0      )
                  (     0          0          1      )

 cart.    s( 1) = (  1.0000000  0.0000000  0.0000000 )
                  (  0.0000000  1.0000000  0.0000000 )
                  (  0.0000000  0.0000000  1.0000000 )

      isym =  2     inv. 180 deg rotation - cryst. axis [1,1,0]

 cryst.   s( 2) = (     0         -1          0      )
                  (    -1          0          0      )
                  (     0          0          1      )

 cart.    s( 2) = (  0.5000000 -0.8660254  0.0000000 )
                  ( -0.8660254 -0.5000000  0.0000000 )
                  (  0.0000000  0.0000000  1.0000000 )

     point group C_s (m)
     there are  2 classes
     the character table:

       E     s
A'     1.00  1.00
A''    1.00 -1.00

     the symmetry operations in each class and the name of the first element:

     E        1
          identity
     s        2
          inv. 180 deg rotation - cryst. axis [1,1,0]

   Cartesian axes

     site n.     atom                  positions (alat units)
         1           H   tau(   1) = (   0.2000000   0.4618802   0.4056306  )
         2           H   tau(   2) = (   0.2000000   0.4618802   0.4666433  )
         3           C   tau(   3) = (   0.0000000   0.0000000   0.0000000  )
         4           C   tau(   4) = (   0.0000000   0.1154701   0.0000000  )
         5           C   tau(   5) = (  -0.1000000   0.1732051   0.0000000  )
         6           C   tau(   6) = (  -0.1000000   0.2886751   0.0000000  )
         7           C   tau(   7) = (  -0.2000000   0.3464102   0.0000000  )
         8           C   tau(   8) = (  -0.2000000   0.4618802   0.0000000  )
         9           C   tau(   9) = (  -0.3000000   0.5196152   0.0000000  )
        10           C   tau(  10) = (  -0.3000000   0.6350853   0.0000000  )
        11           C   tau(  11) = (  -0.4000000   0.6928203   0.0000000  )
        12           C   tau(  12) = (  -0.4000000   0.8082904   0.0000000  )
        13           C   tau(  13) = (   0.2000000   0.0000000   0.0000000  )
        14           C   tau(  14) = (   0.2000000   0.1154701   0.0000000  )
        15           C   tau(  15) = (   0.1000000   0.1732051   0.0000000  )
        16           C   tau(  16) = (   0.1000000   0.2886751   0.0000000  )
        17           C   tau(  17) = (   0.0000000   0.3464102   0.0000000  )
        18           C   tau(  18) = (   0.0000000   0.4618802   0.0000000  )
        19           C   tau(  19) = (  -0.1000000   0.5196152   0.0000000  )
        20           C   tau(  20) = (  -0.1000000   0.6350853   0.0000000  )
        21           C   tau(  21) = (  -0.2000000   0.6928203   0.0000000  )
        22           C   tau(  22) = (  -0.2000000   0.8082904   0.0000000  )
        23           C   tau(  23) = (   0.4000000   0.0000000   0.0000000  )
        24           C   tau(  24) = (   0.4000000   0.1154701   0.0000000  )
        25           C   tau(  25) = (   0.3000000   0.1732051   0.0000000  )
        26           C   tau(  26) = (   0.3000000   0.2886751   0.0000000  )
        27           C   tau(  27) = (   0.2000000   0.3464102   0.0000000  )
        28           V   tau(  28) = (   0.2000000   0.4618802   0.0000000  )
        29           C   tau(  29) = (   0.1000000   0.5196152   0.0000000  )
        30           C   tau(  30) = (   0.1000000   0.6350853   0.0000000  )
        31           C   tau(  31) = (   0.0000000   0.6928203   0.0000000  )
        32           C   tau(  32) = (   0.0000000   0.8082904   0.0000000  )
        33           C   tau(  33) = (   0.6000000   0.0000000   0.0000000  )
        34           C   tau(  34) = (   0.6000000   0.1154701   0.0000000  )
        35           C   tau(  35) = (   0.5000000   0.1732051   0.0000000  )
        36           C   tau(  36) = (   0.5000000   0.2886751   0.0000000  )
        37           C   tau(  37) = (   0.4000000   0.3464102   0.0000000  )
        38           C   tau(  38) = (   0.4000000   0.4618802   0.0000000  )
        39           C   tau(  39) = (   0.3000000   0.5196152   0.0000000  )
        40           C   tau(  40) = (   0.3000000   0.6350853   0.0000000  )
        41           C   tau(  41) = (   0.2000000   0.6928203   0.0000000  )
        42           C   tau(  42) = (   0.2000000   0.8082904   0.0000000  )
        43           C   tau(  43) = (   0.8000000   0.0000000   0.0000000  )
        44           C   tau(  44) = (   0.8000000   0.1154701   0.0000000  )
        45           C   tau(  45) = (   0.7000000   0.1732051   0.0000000  )
        46           C   tau(  46) = (   0.7000000   0.2886751   0.0000000  )
        47           C   tau(  47) = (   0.6000000   0.3464102   0.0000000  )
        48           C   tau(  48) = (   0.6000000   0.4618802   0.0000000  )
        49           C   tau(  49) = (   0.5000000   0.5196152   0.0000000  )
        50           C   tau(  50) = (   0.5000000   0.6350853   0.0000000  )
        51           C   tau(  51) = (   0.4000000   0.6928203   0.0000000  )
        52           C   tau(  52) = (   0.4000000   0.8082904   0.0000000  )

   Crystallographic axes

     site n.     atom                  positions (cryst. coord.)
         1           H   tau(   1) = (  0.4666667  0.5333333  0.5000000  )
         2           H   tau(   2) = (  0.4666667  0.5333333  0.5752072  )
         3           C   tau(   3) = (  0.0000000  0.0000000  0.0000000  )
         4           C   tau(   4) = (  0.0666667  0.1333333  0.0000000  )
         5           C   tau(   5) = (  0.0000000  0.2000000  0.0000000  )
         6           C   tau(   6) = (  0.0666667  0.3333333  0.0000000  )
         7           C   tau(   7) = (  0.0000000  0.4000000  0.0000000  )
         8           C   tau(   8) = (  0.0666667  0.5333333  0.0000000  )
         9           C   tau(   9) = (  0.0000000  0.6000000  0.0000000  )
        10           C   tau(  10) = (  0.0666667  0.7333333  0.0000000  )
        11           C   tau(  11) = (  0.0000000  0.8000000  0.0000000  )
        12           C   tau(  12) = (  0.0666667  0.9333333  0.0000000  )
        13           C   tau(  13) = (  0.2000000  0.0000000  0.0000000  )
        14           C   tau(  14) = (  0.2666667  0.1333333  0.0000000  )
        15           C   tau(  15) = (  0.2000000  0.2000000  0.0000000  )
        16           C   tau(  16) = (  0.2666667  0.3333333  0.0000000  )
        17           C   tau(  17) = (  0.2000000  0.4000000  0.0000000  )
        18           C   tau(  18) = (  0.2666667  0.5333333  0.0000000  )
        19           C   tau(  19) = (  0.2000000  0.6000000  0.0000000  )
        20           C   tau(  20) = (  0.2666667  0.7333333  0.0000000  )
        21           C   tau(  21) = (  0.2000000  0.8000000  0.0000000  )
        22           C   tau(  22) = (  0.2666667  0.9333333  0.0000000  )
        23           C   tau(  23) = (  0.4000000  0.0000000  0.0000000  )
        24           C   tau(  24) = (  0.4666667  0.1333333  0.0000000  )
        25           C   tau(  25) = (  0.4000000  0.2000000  0.0000000  )
        26           C   tau(  26) = (  0.4666667  0.3333333  0.0000000  )
        27           C   tau(  27) = (  0.4000000  0.4000000  0.0000000  )
        28           V   tau(  28) = (  0.4666667  0.5333333  0.0000000  )
        29           C   tau(  29) = (  0.4000000  0.6000000  0.0000000  )
        30           C   tau(  30) = (  0.4666667  0.7333333  0.0000000  )
        31           C   tau(  31) = (  0.4000000  0.8000000  0.0000000  )
        32           C   tau(  32) = (  0.4666667  0.9333333  0.0000000  )
        33           C   tau(  33) = (  0.6000000  0.0000000  0.0000000  )
        34           C   tau(  34) = (  0.6666667  0.1333333  0.0000000  )
        35           C   tau(  35) = (  0.6000000  0.2000000  0.0000000  )
        36           C   tau(  36) = (  0.6666667  0.3333333  0.0000000  )
        37           C   tau(  37) = (  0.6000000  0.4000000  0.0000000  )
        38           C   tau(  38) = (  0.6666667  0.5333333  0.0000000  )
        39           C   tau(  39) = (  0.6000000  0.6000000  0.0000000  )
        40           C   tau(  40) = (  0.6666667  0.7333333  0.0000000  )
        41           C   tau(  41) = (  0.6000000  0.8000000  0.0000000  )
        42           C   tau(  42) = (  0.6666667  0.9333333  0.0000000  )
        43           C   tau(  43) = (  0.8000000  0.0000000  0.0000000  )
        44           C   tau(  44) = (  0.8666667  0.1333333  0.0000000  )
        45           C   tau(  45) = (  0.8000000  0.2000000  0.0000000  )
        46           C   tau(  46) = (  0.8666667  0.3333333  0.0000000  )
        47           C   tau(  47) = (  0.8000000  0.4000000  0.0000000  )
        48           C   tau(  48) = (  0.8666667  0.5333333  0.0000000  )
        49           C   tau(  49) = (  0.8000000  0.6000000  0.0000000  )
        50           C   tau(  50) = (  0.8666667  0.7333333  0.0000000  )
        51           C   tau(  51) = (  0.8000000  0.8000000  0.0000000  )
        52           C   tau(  52) = (  0.8666667  0.9333333  0.0000000  )

     number of k points=     1  Marzari-Vanderbilt smearing, width (Ry)=  0.0010
                       cart. coord. in units 2pi/alat
        k(    1) = (   0.0000000   0.0000000   0.0000000), wk =   1.0000000

                       cryst. coord.
        k(    1) = (   0.0000000   0.0000000   0.0000000), wk =   1.0000000

     Check: negative core charge=   -0.000002

     Initial potential from superposition of free atoms

     starting charge  210.80465, renormalised to  211.00000

     negative rho (up, down):  1.135E-04 1.279E-02

Carrying out rVV10 run using the following parameters:
Nqs =      20    Nr_points =    1024   r_max =   100.000
b_value =  6.30000    beta =  0.00901
     q_mesh =  0.00010000  0.00030000  0.00058939  0.00100810
               0.00161396  0.00249058  0.00375900  0.00559430
               0.00824984  0.01209221  0.01765183  0.02569619
               0.03733578  0.05417739  0.07854596  0.11380545
               0.16482331  0.23864234  0.34545298  0.50000000

Gradients computed in Reciprocal space

     Starting wfcs are  208 randomized atomic wfcs

     Self-consistent Calculation

     iteration #  1     ecut=    70.00 Ry     beta= 0.70
     Davidson diagonalization with overlap
     ethr =  1.00E-02,  avg # of iterations =  3.0

[...]

     total energy              =    -753.60467459 Ry
     Harris-Foulkes estimate   =    -756.86252855 Ry
     estimated scf accuracy    <      11.01380193 Ry

     total magnetization       =     5.00 Bohr mag/cell
     absolute magnetization    =     5.99 Bohr mag/cell

[...]

     total energy              =    -757.32980776 Ry
     Harris-Foulkes estimate   =    -757.32980845 Ry
     estimated scf accuracy    <       0.00000182 Ry

[...]

     iteration # 17     ecut=    70.00 Ry     beta= 0.70
     Davidson diagonalization with overlap
     ethr =  8.62E-10,  avg # of iterations =  3.0

     negative rho (up, down):  3.386E-02 1.592E-03

     Magnetic moment per site:
     atom:    1    charge:    0.2114    magn:    0.0000    constr:    0.0000
     atom:    2    charge:    0.2113    magn:   -0.0000    constr:    0.0000
     atom:    3    charge:    1.7177    magn:   -0.0063    constr:    0.0000
     atom:    4    charge:    1.7157    magn:    0.0088    constr:    0.0000
     atom:    5    charge:    1.7183    magn:   -0.0039    constr:    0.0000
     atom:    6    charge:    1.7141    magn:    0.0023    constr:    0.0000
     atom:    7    charge:    1.7182    magn:   -0.0039    constr:    0.0000
     atom:    8    charge:    1.7157    magn:    0.0091    constr:    0.0000
     atom:    9    charge:    1.7176    magn:   -0.0065    constr:    0.0000
     atom:   10    charge:    1.7144    magn:    0.0309    constr:    0.0000
     atom:   11    charge:    1.7186    magn:   -0.0085    constr:    0.0000
     atom:   12    charge:    1.7144    magn:    0.0299    constr:    0.0000
     atom:   13    charge:    1.7186    magn:   -0.0085    constr:    0.0000
     atom:   14    charge:    1.7145    magn:    0.0230    constr:    0.0000
     atom:   15    charge:    1.7169    magn:   -0.0075    constr:    0.0000
     atom:   16    charge:    1.7111    magn:    0.0293    constr:    0.0000
     atom:   17    charge:    1.7270    magn:   -0.0050    constr:    0.0000
     atom:   18    charge:    1.7111    magn:    0.0290    constr:    0.0000
     atom:   19    charge:    1.7169    magn:   -0.0074    constr:    0.0000
     atom:   20    charge:    1.7145    magn:    0.0223    constr:    0.0000
     atom:   21    charge:    1.7185    magn:   -0.0085    constr:    0.0000
     atom:   22    charge:    1.7144    magn:    0.0309    constr:    0.0000
     atom:   23    charge:    1.7176    magn:   -0.0065    constr:    0.0000
     atom:   24    charge:    1.7157    magn:    0.0091    constr:    0.0000
     atom:   25    charge:    1.7169    magn:   -0.0077    constr:    0.0000
     atom:   26    charge:    1.7111    magn:    0.0303    constr:    0.0000
     atom:   27    charge:    1.9149    magn:   -0.0003    constr:    0.0000
     atom:   28    charge:    7.8614    magn:    0.1022    constr:    0.0000
     atom:   29    charge:    1.9149    magn:   -0.0005    constr:    0.0000
     atom:   30    charge:    1.7111    magn:    0.0290    constr:    0.0000
     atom:   31    charge:    1.7169    magn:   -0.0074    constr:    0.0000
     atom:   32    charge:    1.7157    magn:    0.0091    constr:    0.0000
     atom:   33    charge:    1.7182    magn:   -0.0039    constr:    0.0000
     atom:   34    charge:    1.7138    magn:    0.0066    constr:    0.0000
     atom:   35    charge:    1.7183    magn:   -0.0039    constr:    0.0000
     atom:   36    charge:    1.7141    magn:    0.0024    constr:    0.0000
     atom:   37    charge:    1.7270    magn:   -0.0052    constr:    0.0000
     atom:   38    charge:    1.7111    magn:    0.0303    constr:    0.0000
     atom:   39    charge:    1.9149    magn:   -0.0003    constr:    0.0000
     atom:   40    charge:    1.7111    magn:    0.0293    constr:    0.0000
     atom:   41    charge:    1.7270    magn:   -0.0050    constr:    0.0000
     atom:   42    charge:    1.7141    magn:    0.0023    constr:    0.0000
     atom:   43    charge:    1.7183    magn:   -0.0039    constr:    0.0000
     atom:   44    charge:    1.7138    magn:    0.0064    constr:    0.0000
     atom:   45    charge:    1.7245    magn:   -0.0029    constr:    0.0000
     atom:   46    charge:    1.7138    magn:    0.0066    constr:    0.0000
     atom:   47    charge:    1.7183    magn:   -0.0039    constr:    0.0000
     atom:   48    charge:    1.7157    magn:    0.0091    constr:    0.0000
     atom:   49    charge:    1.7169    magn:   -0.0077    constr:    0.0000
     atom:   50    charge:    1.7145    magn:    0.0230    constr:    0.0000
     atom:   51    charge:    1.7169    magn:   -0.0075    constr:    0.0000
     atom:   52    charge:    1.7157    magn:    0.0088    constr:    0.0000

     End of self-consistent calculation

 ------ SPIN UP ------------

          k = 0.0000 0.0000 0.0000 ( 87777 PWs)   bands (ev):

   -62.8588 -37.9441 -37.9418 -36.6266 -19.6453 -18.8033 -18.8014 -18.7325
   -18.6877 -18.6871 -18.2535 -16.9475 -16.9473 -16.9465 -16.8112 -16.8101
   -16.5273 -16.0944 -16.0944 -16.0001 -15.8458 -15.8458 -15.0950 -13.9069
   -13.9009 -13.8996 -13.8728 -13.8727 -13.1460 -12.9287 -12.9284 -12.9106
   -12.5176 -12.5173 -12.1238 -11.6575 -11.6572 -11.5325 -11.1513 -11.1512
   -10.1623  -9.3503  -9.3501  -9.2698  -9.1937  -9.1935  -9.1033  -9.0787
    -9.0785  -9.0625  -8.4749  -8.4747  -7.9064  -7.9060  -7.8710  -7.8113
    -7.6888  -7.2650  -7.2645  -6.9736  -6.9730  -6.9087  -6.7334  -6.7131
    -6.7089  -6.7084  -6.6035  -6.6033  -6.5571  -6.4460  -6.4453  -6.4017
    -6.3972  -6.3965  -6.3446  -6.3264  -5.2713  -5.2708  -5.1689  -5.1686
    -4.9569  -4.9566  -4.8456  -4.7575  -4.6299  -4.6186  -4.6183  -4.2543
    -3.9961  -3.9959  -3.7698  -3.7696  -3.6693  -3.6466  -3.5097  -3.5095
    -2.9108  -2.2711  -2.2709  -2.2388  -2.2378  -1.7589  -1.6919  -1.6916
    -0.5564  -0.2508  -0.2504   0.8347   1.0382   1.0708   1.0711   1.7774
     2.0397   2.0399   2.5988   2.8859   2.8863   2.9639   3.3599   3.4946
     3.4947   3.7488   3.7491   3.7869   3.8615   3.9912   3.9913

     occupation numbers
     1.0000   1.0000   1.0000   1.0000   1.0000   1.0000   1.0000   1.0000
     1.0000   1.0000   1.0000   1.0000   1.0000   1.0000   1.0000   1.0000
     1.0000   1.0000   1.0000   1.0000   1.0000   1.0000   1.0000   1.0000
     1.0000   1.0000   1.0000   1.0000   1.0000   1.0000   1.0000   1.0000
     1.0000   1.0000   1.0000   1.0000   1.0000   1.0000   1.0000   1.0000
     1.0000   1.0000   1.0000   1.0000   1.0000   1.0000   1.0000   1.0000
     1.0000   1.0000   1.0000   1.0000   1.0000   1.0000   1.0000   1.0000
     1.0000   1.0000   1.0000   1.0000   1.0000   1.0000   1.0000   1.0000
     1.0000   1.0000   1.0000   1.0000   1.0000   1.0000   1.0000   1.0000
     1.0000   1.0000   1.0000   1.0000   1.0000   1.0000   1.0000   1.0000
     1.0000   1.0000   1.0000   1.0000   1.0000   1.0000   1.0000   1.0000
     1.0000   1.0000   1.0000   1.0000   1.0000   1.0000   1.0000   1.0000
     1.0000   1.0000   1.0000   1.0000   1.0000   1.0000   1.0000   1.0000
     1.0000   0.5108   0.4892   0.0000   0.0000   0.0000   0.0000   0.0000
     0.0000   0.0000   0.0000   0.0000   0.0000   0.0000   0.0000   0.0000
     0.0000   0.0000   0.0000   0.0000   0.0000   0.0000   0.0000

 ------ SPIN DOWN ----------

          k = 0.0000 0.0000 0.0000 ( 87777 PWs)   bands (ev):

   -62.6617 -37.7840 -37.7768 -36.3569 -19.6235 -18.7819 -18.7793 -18.7122
   -18.6712 -18.6705 -18.2216 -16.9310 -16.9287 -16.9276 -16.7830 -16.7816
   -16.5132 -16.0673 -16.0670 -15.9845 -15.8250 -15.8250 -15.0804 -13.8700
   -13.8693 -13.8690 -13.8607 -13.8586 -13.1485 -12.9182 -12.9177 -12.8950
   -12.5094 -12.5090 -12.1055 -11.6395 -11.6394 -11.5193 -11.1390 -11.1386
   -10.1479  -9.3334  -9.3330  -9.2567  -9.1763  -9.1759  -9.0952  -9.0645
    -9.0644  -9.0533  -8.4682  -8.4678  -7.8950  -7.8945  -7.8638  -7.7591
    -7.6803  -7.2562  -7.2557  -6.8963  -6.8947  -6.8883  -6.7325  -6.6768
    -6.6759  -6.6606  -6.5921  -6.5920  -6.5474  -6.4364  -6.4356  -6.3959
    -6.3905  -6.3900  -6.3365  -6.2497  -5.2630  -5.2624  -5.0855  -5.0826
    -4.9470  -4.9467  -4.8397  -4.7515  -4.5879  -4.5680  -4.5669  -4.2167
    -3.9455  -3.9440  -3.6954  -3.6952  -3.6235  -3.6163  -3.5032  -3.5029
    -2.8780  -2.2040  -2.2026  -2.1732  -2.1715  -1.6758  -1.6757  -1.6643
    -0.5489  -0.0290  -0.0222   0.9117   1.0920   1.0922   1.1158   1.8488
     2.1097   2.1115   2.6064   2.9574   2.9576   3.0042   3.3842   3.5011
     3.5011   3.7513   3.7516   3.7918   3.9002   4.0623   4.0640

     occupation numbers
     1.0000   1.0000   1.0000   1.0000   1.0000   1.0000   1.0000   1.0000
     1.0000   1.0000   1.0000   1.0000   1.0000   1.0000   1.0000   1.0000
     1.0000   1.0000   1.0000   1.0000   1.0000   1.0000   1.0000   1.0000
     1.0000   1.0000   1.0000   1.0000   1.0000   1.0000   1.0000   1.0000
     1.0000   1.0000   1.0000   1.0000   1.0000   1.0000   1.0000   1.0000
     1.0000   1.0000   1.0000   1.0000   1.0000   1.0000   1.0000   1.0000
     1.0000   1.0000   1.0000   1.0000   1.0000   1.0000   1.0000   1.0000
     1.0000   1.0000   1.0000   1.0000   1.0000   1.0000   1.0000   1.0000
     1.0000   1.0000   1.0000   1.0000   1.0000   1.0000   1.0000   1.0000
     1.0000   1.0000   1.0000   1.0000   1.0000   1.0000   1.0000   1.0000
     1.0000   1.0000   1.0000   1.0000   1.0000   1.0000   1.0000   1.0000
     1.0000   1.0000   1.0000   1.0000   1.0000   1.0000   1.0000   1.0000
     1.0000   1.0000   1.0000   1.0000   1.0000   1.0000   1.0000   1.0000
     1.0000   0.0000   0.0000   0.0000   0.0000   0.0000   0.0000   0.0000
     0.0000   0.0000   0.0000   0.0000   0.0000   0.0000   0.0000   0.0000
     0.0000   0.0000   0.0000   0.0000   0.0000   0.0000   0.0000

     the Fermi energy is    -0.2487 ev

!    total energy              =    -757.32981078 Ry
     Harris-Foulkes estimate   =    -757.32980822 Ry
     estimated scf accuracy    <       0.00000062 Ry

     The total energy is the sum of the following terms:

     one-electron contribution =   -2568.25184037 Ry
     hartree contribution      =    1330.87728416 Ry
     xc contribution           =    -252.66304099 Ry
     ewald contribution        =     732.70811444 Ry
     smearing contrib. (-TS)   =      -0.00032802 Ry

     total magnetization       =     1.00 Bohr mag/cell
     absolute magnetization    =     1.51 Bohr mag/cell

     convergence has been achieved in  17 iterations

     Writing output data file distance-5.0.save/

     General routines

     Parallel routines

   This run was terminated on:  11: 9:22  21Aug2022

   JOB DONE.