     Program PWSCF v.6.4.1 starts on 21Aug2022 at 17: 3:39

     R & G space division:  proc/nbgrp/npool/nimage =       6
     Reading input from distance-1.8.in

     Current dimensions of program PWSCF are:
     Max number of different atomic species (ntypx) = 10
     Max number of k-points (npk) =  40000
     Max angular momentum in pseudopotentials (lmaxx) =  3

     IMPORTANT: XC functional enforced from input :
     Exchange-correlation      = RVV10 ( 1  4 13  4 3 0)
     Any further DFT definition will be discarded
     Please, verify this is what you really want

               file H.pbe-rrkjus.UPF: wavefunction(s)  1S renormalized
               file V.pbe-spnl-rrkjus_psl.1.0.0.UPF: wavefunction(s)  3P 3D renormalized

     Subspace diagonalization in iterative solution of the eigenvalue problem:
     a serial algorithm will be used

     bravais-lattice index     =            4
     lattice parameter (alat)  =      23.2937  a.u.
     unit-cell volume          =    8879.8548 (a.u.)^3
     number of atoms/cell      =           52
     number of atomic types    =            3
     number of electrons       =       211.00
     number of Kohn-Sham states=          127
     kinetic-energy cutoff     =      70.0000  Ry
     charge density cutoff     =     490.0000  Ry
     convergence threshold     =      1.0E-06
     mixing beta               =       0.7000
     number of iterations used =            8  plain     mixing
     Exchange-correlation      = RVV10 ( 1  4 13  4 3 0)

     celldm(1)=  23.293684  celldm(2)=   0.000000  celldm(3)=   0.811261
     celldm(4)=   0.000000  celldm(5)=   0.000000  celldm(6)=   0.000000

     crystal axes: (cart. coord. in units of alat)
               a(1) = (   1.000000   0.000000   0.000000 )
               a(2) = (  -0.500000   0.866025   0.000000 )
               a(3) = (   0.000000   0.000000   0.811261 )

     reciprocal axes: (cart. coord. in units 2 pi/alat)
               b(1) = (  1.000000  0.577350 -0.000000 )
               b(2) = (  0.000000  1.154701  0.000000 )
               b(3) = (  0.000000 -0.000000  1.232649 )

     PseudoPot. # 1 for H  read from file:
     /home/cristian/Escritorio/Proyecto_Grafeno/pseudopotenciales/H.pbe-rrkjus.UPF
     MD5 check sum: 7cc9d459525c9a0585f487a71c3c9563
     Pseudo is Ultrasoft, Zval =  1.0
     Generated by new atomic code, or converted to UPF format
     Using radial grid of 1061 points,  2 beta functions with:
                l(1) =   0
                l(2) =   0
     Q(r) pseudized with 0 coefficients

     PseudoPot. # 2 for C  read from file:
     /home/cristian/Escritorio/Proyecto_Grafeno/pseudopotenciales/C.pbe-n-rrkjus_psl.1.0.0.UPF
     MD5 check sum: 1fdd950c42eb37d8afe3dd2f8d12311e
     Pseudo is Ultrasoft + core correction, Zval =  4.0
     Generated using "atomic" code by A. Dal Corso v.6.3MaX
     Using radial grid of 1073 points,  4 beta functions with:
                l(1) =   0
                l(2) =   0
                l(3) =   1
                l(4) =   1
     Q(r) pseudized with 0 coefficients

     PseudoPot. # 3 for V  read from file:
     /home/cristian/Escritorio/Proyecto_Grafeno/pseudopotenciales/V.pbe-spnl-rrkjus_psl.1.0.0.UPF
     MD5 check sum: 79b3eb63147daf0b665d9f1bcc691206
     Pseudo is Ultrasoft + core correction, Zval = 13.0
     Generated using "atomic" code by A. Dal Corso v.6.2.2
     Using radial grid of 1181 points,  6 beta functions with:
                l(1) =   0
                l(2) =   0
                l(3) =   1
                l(4) =   1
                l(5) =   2
                l(6) =   2
     Q(r) pseudized with 0 coefficients

     vdW kernel table read from file rVV10_kernel_table
     MD5 check sum: b8e2538accc0c0b3206b45ba4daaba6c

     atomic species   valence    mass     pseudopotential
        H              1.00     1.00794     H ( 1.00)
        C              4.00    12.01070     C ( 1.00)
        V             13.00    50.94150     V ( 1.00)

     Starting magnetic structure
     atomic species   magnetization
        H            0.500
        C            0.300
        V            0.800

      2 Sym. Ops. (no inversion) found

                                    s                        frac. trans.

      isym =  1     identity

 cryst.   s( 1) = (     1          0          0      )
                  (     0          1          0      )
                  (     0          0          1      )

 cart.    s( 1) = (  1.0000000  0.0000000  0.0000000 )
                  (  0.0000000  1.0000000  0.0000000 )
                  (  0.0000000  0.0000000  1.0000000 )

      isym =  2     inv. 180 deg rotation - cryst. axis [1,1,0]

 cryst.   s( 2) = (     0         -1          0      )
                  (    -1          0          0      )
                  (     0          0          1      )

 cart.    s( 2) = (  0.5000000 -0.8660254  0.0000000 )
                  ( -0.8660254 -0.5000000  0.0000000 )
                  (  0.0000000  0.0000000  1.0000000 )

     point group C_s (m)
     there are  2 classes
     the character table:

       E     s
A'     1.00  1.00
A''    1.00 -1.00

     the symmetry operations in each class and the name of the first element:

     E        1
          identity
     s        2
          inv. 180 deg rotation - cryst. axis [1,1,0]

   Cartesian axes

     site n.     atom                  positions (alat units)
         1           H   tau(   1) = (   0.2000000   0.4618802   0.1460270  )
         2           H   tau(   2) = (   0.2000000   0.4618802   0.2070397  )
         3           C   tau(   3) = (   0.0000000   0.0000000   0.0000000  )
         4           C   tau(   4) = (   0.0000000   0.1154701   0.0000000  )
         5           C   tau(   5) = (  -0.1000000   0.1732051   0.0000000  )
         6           C   tau(   6) = (  -0.1000000   0.2886751   0.0000000  )
         7           C   tau(   7) = (  -0.2000000   0.3464102   0.0000000  )
         8           C   tau(   8) = (  -0.2000000   0.4618802   0.0000000  )
         9           C   tau(   9) = (  -0.3000000   0.5196152   0.0000000  )
        10           C   tau(  10) = (  -0.3000000   0.6350853   0.0000000  )
        11           C   tau(  11) = (  -0.4000000   0.6928203   0.0000000  )
        12           C   tau(  12) = (  -0.4000000   0.8082904   0.0000000  )
        13           C   tau(  13) = (   0.2000000   0.0000000   0.0000000  )
        14           C   tau(  14) = (   0.2000000   0.1154701   0.0000000  )
        15           C   tau(  15) = (   0.1000000   0.1732051   0.0000000  )
        16           C   tau(  16) = (   0.1000000   0.2886751   0.0000000  )
        17           C   tau(  17) = (   0.0000000   0.3464102   0.0000000  )
        18           C   tau(  18) = (   0.0000000   0.4618802   0.0000000  )
        19           C   tau(  19) = (  -0.1000000   0.5196152   0.0000000  )
        20           C   tau(  20) = (  -0.1000000   0.6350853   0.0000000  )
        21           C   tau(  21) = (  -0.2000000   0.6928203   0.0000000  )
        22           C   tau(  22) = (  -0.2000000   0.8082904   0.0000000  )
        23           C   tau(  23) = (   0.4000000   0.0000000   0.0000000  )
        24           C   tau(  24) = (   0.4000000   0.1154701   0.0000000  )
        25           C   tau(  25) = (   0.3000000   0.1732051   0.0000000  )
        26           C   tau(  26) = (   0.3000000   0.2886751   0.0000000  )
        27           C   tau(  27) = (   0.2000000   0.3464102   0.0000000  )
        28           V   tau(  28) = (   0.2000000   0.4618802   0.0000000  )
        29           C   tau(  29) = (   0.1000000   0.5196152   0.0000000  )
        30           C   tau(  30) = (   0.1000000   0.6350853   0.0000000  )
        31           C   tau(  31) = (   0.0000000   0.6928203   0.0000000  )
        32           C   tau(  32) = (   0.0000000   0.8082904   0.0000000  )
        33           C   tau(  33) = (   0.6000000   0.0000000   0.0000000  )
        34           C   tau(  34) = (   0.6000000   0.1154701   0.0000000  )
        35           C   tau(  35) = (   0.5000000   0.1732051   0.0000000  )
        36           C   tau(  36) = (   0.5000000   0.2886751   0.0000000  )
        37           C   tau(  37) = (   0.4000000   0.3464102   0.0000000  )
        38           C   tau(  38) = (   0.4000000   0.4618802   0.0000000  )
        39           C   tau(  39) = (   0.3000000   0.5196152   0.0000000  )
        40           C   tau(  40) = (   0.3000000   0.6350853   0.0000000  )
        41           C   tau(  41) = (   0.2000000   0.6928203   0.0000000  )
        42           C   tau(  42) = (   0.2000000   0.8082904   0.0000000  )
        43           C   tau(  43) = (   0.8000000   0.0000000   0.0000000  )
        44           C   tau(  44) = (   0.8000000   0.1154701   0.0000000  )
        45           C   tau(  45) = (   0.7000000   0.1732051   0.0000000  )
        46           C   tau(  46) = (   0.7000000   0.2886751   0.0000000  )
        47           C   tau(  47) = (   0.6000000   0.3464102   0.0000000  )
        48           C   tau(  48) = (   0.6000000   0.4618802   0.0000000  )
        49           C   tau(  49) = (   0.5000000   0.5196152   0.0000000  )
        50           C   tau(  50) = (   0.5000000   0.6350853   0.0000000  )
        51           C   tau(  51) = (   0.4000000   0.6928203   0.0000000  )
        52           C   tau(  52) = (   0.4000000   0.8082904   0.0000000  )

   Crystallographic axes

     site n.     atom                  positions (cryst. coord.)
         1           H   tau(   1) = (  0.4666667  0.5333333  0.1800000  )
         2           H   tau(   2) = (  0.4666667  0.5333333  0.2552072  )
         3           C   tau(   3) = (  0.0000000  0.0000000  0.0000000  )
         4           C   tau(   4) = (  0.0666667  0.1333333  0.0000000  )
         5           C   tau(   5) = (  0.0000000  0.2000000  0.0000000  )
         6           C   tau(   6) = (  0.0666667  0.3333333  0.0000000  )
         7           C   tau(   7) = (  0.0000000  0.4000000  0.0000000  )
         8           C   tau(   8) = (  0.0666667  0.5333333  0.0000000  )
         9           C   tau(   9) = (  0.0000000  0.6000000  0.0000000  )
        10           C   tau(  10) = (  0.0666667  0.7333333  0.0000000  )
        11           C   tau(  11) = (  0.0000000  0.8000000  0.0000000  )
        12           C   tau(  12) = (  0.0666667  0.9333333  0.0000000  )
        13           C   tau(  13) = (  0.2000000  0.0000000  0.0000000  )
        14           C   tau(  14) = (  0.2666667  0.1333333  0.0000000  )
        15           C   tau(  15) = (  0.2000000  0.2000000  0.0000000  )
        16           C   tau(  16) = (  0.2666667  0.3333333  0.0000000  )
        17           C   tau(  17) = (  0.2000000  0.4000000  0.0000000  )
        18           C   tau(  18) = (  0.2666667  0.5333333  0.0000000  )
        19           C   tau(  19) = (  0.2000000  0.6000000  0.0000000  )
        20           C   tau(  20) = (  0.2666667  0.7333333  0.0000000  )
        21           C   tau(  21) = (  0.2000000  0.8000000  0.0000000  )
        22           C   tau(  22) = (  0.2666667  0.9333333  0.0000000  )
        23           C   tau(  23) = (  0.4000000  0.0000000  0.0000000  )
        24           C   tau(  24) = (  0.4666667  0.1333333  0.0000000  )
        25           C   tau(  25) = (  0.4000000  0.2000000  0.0000000  )
        26           C   tau(  26) = (  0.4666667  0.3333333  0.0000000  )
        27           C   tau(  27) = (  0.4000000  0.4000000  0.0000000  )
        28           V   tau(  28) = (  0.4666667  0.5333333  0.0000000  )
        29           C   tau(  29) = (  0.4000000  0.6000000  0.0000000  )
        30           C   tau(  30) = (  0.4666667  0.7333333  0.0000000  )
        31           C   tau(  31) = (  0.4000000  0.8000000  0.0000000  )
        32           C   tau(  32) = (  0.4666667  0.9333333  0.0000000  )
        33           C   tau(  33) = (  0.6000000  0.0000000  0.0000000  )
        34           C   tau(  34) = (  0.6666667  0.1333333  0.0000000  )
        35           C   tau(  35) = (  0.6000000  0.2000000  0.0000000  )
        36           C   tau(  36) = (  0.6666667  0.3333333  0.0000000  )
        37           C   tau(  37) = (  0.6000000  0.4000000  0.0000000  )
        38           C   tau(  38) = (  0.6666667  0.5333333  0.0000000  )
        39           C   tau(  39) = (  0.6000000  0.6000000  0.0000000  )
        40           C   tau(  40) = (  0.6666667  0.7333333  0.0000000  )
        41           C   tau(  41) = (  0.6000000  0.8000000  0.0000000  )
        42           C   tau(  42) = (  0.6666667  0.9333333  0.0000000  )
        43           C   tau(  43) = (  0.8000000  0.0000000  0.0000000  )
        44           C   tau(  44) = (  0.8666667  0.1333333  0.0000000  )
        45           C   tau(  45) = (  0.8000000  0.2000000  0.0000000  )
        46           C   tau(  46) = (  0.8666667  0.3333333  0.0000000  )
        47           C   tau(  47) = (  0.8000000  0.4000000  0.0000000  )
        48           C   tau(  48) = (  0.8666667  0.5333333  0.0000000  )
        49           C   tau(  49) = (  0.8000000  0.6000000  0.0000000  )
        50           C   tau(  50) = (  0.8666667  0.7333333  0.0000000  )
        51           C   tau(  51) = (  0.8000000  0.8000000  0.0000000  )
        52           C   tau(  52) = (  0.8666667  0.9333333  0.0000000  )

     number of k points=     1  Marzari-Vanderbilt smearing, width (Ry)=  0.0010
                       cart. coord. in units 2pi/alat
        k(    1) = (   0.0000000   0.0000000   0.0000000), wk =   1.0000000

                       cryst. coord.
        k(    1) = (   0.0000000   0.0000000   0.0000000), wk =   1.0000000

     Check: negative core charge=   -0.000002

     Initial potential from superposition of free atoms

     starting charge  210.80465, renormalised to  211.00000

     negative rho (up, down):  1.348E-04 1.860E-02

Carrying out rVV10 run using the following parameters:
Nqs =      20    Nr_points =    1024   r_max =   100.000
b_value =  6.30000    beta =  0.00901
     q_mesh =  0.00010000  0.00030000  0.00058939  0.00100810
               0.00161396  0.00249058  0.00375900  0.00559430
               0.00824984  0.01209221  0.01765183  0.02569619
               0.03733578  0.05417739  0.07854596  0.11380545
               0.16482331  0.23864234  0.34545298  0.50000000

Gradients computed in Reciprocal space

     Starting wfcs are  208 randomized atomic wfcs

     Self-consistent Calculation

     iteration #  1     ecut=    70.00 Ry     beta= 0.70
     Davidson diagonalization with overlap
     ethr =  1.00E-02,  avg # of iterations =  4.5

[...]

     total energy              =    -751.69947796 Ry
     Harris-Foulkes estimate   =    -757.22318603 Ry
     estimated scf accuracy    <      13.63864692 Ry

     total magnetization       =     5.00 Bohr mag/cell
     absolute magnetization    =     6.02 Bohr mag/cell

[...]

     total energy              =    -757.31495011 Ry
     Harris-Foulkes estimate   =    -757.31494929 Ry
     estimated scf accuracy    <       0.00000197 Ry

[...]

     iteration # 17     ecut=    70.00 Ry     beta= 0.70
     Davidson diagonalization with overlap
     ethr =  9.36E-10,  avg # of iterations =  3.5

     negative rho (up, down):  3.294E-02 1.782E-03

     Magnetic moment per site:
     atom:    1    charge:    0.2261    magn:   -0.0000    constr:    0.0000
     atom:    2    charge:    0.2003    magn:   -0.0003    constr:    0.0000
     atom:    3    charge:    1.7177    magn:   -0.0065    constr:    0.0000
     atom:    4    charge:    1.7157    magn:    0.0092    constr:    0.0000
     atom:    5    charge:    1.7184    magn:   -0.0039    constr:    0.0000
     atom:    6    charge:    1.7142    magn:    0.0022    constr:    0.0000
     atom:    7    charge:    1.7184    magn:   -0.0039    constr:    0.0000
     atom:    8    charge:    1.7158    magn:    0.0090    constr:    0.0000
     atom:    9    charge:    1.7177    magn:   -0.0064    constr:    0.0000
     atom:   10    charge:    1.7144    magn:    0.0305    constr:    0.0000
     atom:   11    charge:    1.7186    magn:   -0.0086    constr:    0.0000
     atom:   12    charge:    1.7144    magn:    0.0313    constr:    0.0000
     atom:   13    charge:    1.7186    magn:   -0.0086    constr:    0.0000
     atom:   14    charge:    1.7146    magn:    0.0227    constr:    0.0000
     atom:   15    charge:    1.7169    magn:   -0.0077    constr:    0.0000
     atom:   16    charge:    1.7112    magn:    0.0299    constr:    0.0000
     atom:   17    charge:    1.7269    magn:   -0.0050    constr:    0.0000
     atom:   18    charge:    1.7112    magn:    0.0300    constr:    0.0000
     atom:   19    charge:    1.7169    magn:   -0.0077    constr:    0.0000
     atom:   20    charge:    1.7146    magn:    0.0233    constr:    0.0000
     atom:   21    charge:    1.7186    magn:   -0.0086    constr:    0.0000
     atom:   22    charge:    1.7144    magn:    0.0305    constr:    0.0000
     atom:   23    charge:    1.7177    magn:   -0.0064    constr:    0.0000
     atom:   24    charge:    1.7158    magn:    0.0090    constr:    0.0000
     atom:   25    charge:    1.7169    magn:   -0.0075    constr:    0.0000
     atom:   26    charge:    1.7112    magn:    0.0291    constr:    0.0000
     atom:   27    charge:    1.9142    magn:   -0.0007    constr:    0.0000
     atom:   28    charge:    7.8631    magn:    0.1000    constr:    0.0000
     atom:   29    charge:    1.9142    magn:   -0.0006    constr:    0.0000
     atom:   30    charge:    1.7112    magn:    0.0300    constr:    0.0000
     atom:   31    charge:    1.7169    magn:   -0.0077    constr:    0.0000
     atom:   32    charge:    1.7158    magn:    0.0090    constr:    0.0000
     atom:   33    charge:    1.7184    magn:   -0.0039    constr:    0.0000
     atom:   34    charge:    1.7138    magn:    0.0064    constr:    0.0000
     atom:   35    charge:    1.7184    magn:   -0.0038    constr:    0.0000
     atom:   36    charge:    1.7142    magn:    0.0022    constr:    0.0000
     atom:   37    charge:    1.7269    magn:   -0.0047    constr:    0.0000
     atom:   38    charge:    1.7112    magn:    0.0291    constr:    0.0000
     atom:   39    charge:    1.9142    magn:   -0.0007    constr:    0.0000
     atom:   40    charge:    1.7112    magn:    0.0299    constr:    0.0000
     atom:   41    charge:    1.7269    magn:   -0.0050    constr:    0.0000
     atom:   42    charge:    1.7142    magn:    0.0022    constr:    0.0000
     atom:   43    charge:    1.7184    magn:   -0.0039    constr:    0.0000
     atom:   44    charge:    1.7137    magn:    0.0065    constr:    0.0000
     atom:   45    charge:    1.7247    magn:   -0.0026    constr:    0.0000
     atom:   46    charge:    1.7138    magn:    0.0064    constr:    0.0000
     atom:   47    charge:    1.7184    magn:   -0.0038    constr:    0.0000
     atom:   48    charge:    1.7158    magn:    0.0090    constr:    0.0000
     atom:   49    charge:    1.7169    magn:   -0.0075    constr:    0.0000
     atom:   50    charge:    1.7146    magn:    0.0227    constr:    0.0000
     atom:   51    charge:    1.7169    magn:   -0.0077    constr:    0.0000
     atom:   52    charge:    1.7157    magn:    0.0092    constr:    0.0000

     End of self-consistent calculation

 ------ SPIN UP ------------

          k = 0.0000 0.0000 0.0000 ( 87777 PWs)   bands (ev):

   -62.7397 -37.8283 -37.8268 -36.5395 -19.6015 -18.7590 -18.7574 -18.6898
   -18.6417 -18.6411 -18.2019 -16.9029 -16.9015 -16.9012 -16.7642 -16.7634
   -16.4834 -16.0476 -16.0476 -15.9548 -15.7972 -15.7972 -15.0472 -13.8581
   -13.8517 -13.8508 -13.8288 -13.8288 -13.0989 -12.8826 -12.8824 -12.8656
   -12.4702 -12.4700 -12.0812 -11.6092 -11.6089 -11.4855 -11.1030 -11.1029
   -10.1284  -9.2979  -9.2977  -9.2191  -9.1469  -9.1467  -9.0593  -9.0345
    -9.0344  -9.0191  -8.8037  -8.4288  -8.4286  -7.8568  -7.8564  -7.8226
    -7.7306  -7.6407  -7.2202  -7.2197  -6.9322  -6.9318  -6.8562  -6.6687
    -6.6683  -6.6652  -6.5536  -6.5534  -6.5071  -6.4006  -6.3999  -6.3561
    -6.3524  -6.3520  -6.2994  -6.1716  -5.2257  -5.2252  -5.1305  -5.1302
    -4.9092  -4.9091  -4.7995  -4.7114  -4.5884  -4.5767  -4.5766  -4.1882
    -3.9557  -3.9554  -3.7279  -3.7276  -3.6269  -3.5609  -3.4643  -3.4642
    -2.8013  -2.2314  -2.2312  -2.1530  -2.1522  -1.7136  -1.6505  -1.6502
    -0.4498  -0.2107  -0.2105   1.0827   1.1115   1.1118   1.2397   1.8314
     2.0824   2.0825   2.4267   2.9272   2.9276   3.0086   3.4386   3.4677
     3.4677   3.7519   3.7521   3.7991   3.9322   4.0359   4.0359

     occupation numbers
     1.0000   1.0000   1.0000   1.0000   1.0000   1.0000   1.0000   1.0000
     1.0000   1.0000   1.0000   1.0000   1.0000   1.0000   1.0000   1.0000
     1.0000   1.0000   1.0000   1.0000   1.0000   1.0000   1.0000   1.0000
     1.0000   1.0000   1.0000   1.0000   1.0000   1.0000   1.0000   1.0000
     1.0000   1.0000   1.0000   1.0000   1.0000   1.0000   1.0000   1.0000
     1.0000   1.0000   1.0000   1.0000   1.0000   1.0000   1.0000   1.0000
     1.0000   1.0000   1.0000   1.0000   1.0000   1.0000   1.0000   1.0000
     1.0000   1.0000   1.0000   1.0000   1.0000   1.0000   1.0000   1.0000
     1.0000   1.0000   1.0000   1.0000   1.0000   1.0000   1.0000   1.0000
     1.0000   1.0000   1.0000   1.0000   1.0000   1.0000   1.0000   1.0000
     1.0000   1.0000   1.0000   1.0000   1.0000   1.0000   1.0000   1.0000
     1.0000   1.0000   1.0000   1.0000   1.0000   1.0000   1.0000   1.0000
     1.0000   1.0000   1.0000   1.0000   1.0000   1.0000   1.0000   1.0000
     1.0000   0.5077   0.4923   0.0000   0.0000   0.0000   0.0000   0.0000
     0.0000   0.0000   0.0000   0.0000   0.0000   0.0000   0.0000   0.0000
     0.0000   0.0000   0.0000   0.0000   0.0000   0.0000   0.0000

 ------ SPIN DOWN ----------

          k = 0.0000 0.0000 0.0000 ( 87777 PWs)   bands (ev):

   -62.5460 -37.6702 -37.6648 -36.2753 -19.5796 -18.7377 -18.7356 -18.6695
   -18.6251 -18.6243 -18.1699 -16.8869 -16.8827 -16.8821 -16.7360 -16.7348
   -16.4693 -16.0205 -16.0202 -15.9390 -15.7762 -15.7762 -15.0327 -13.8254
   -13.8253 -13.8211 -13.8113 -13.8094 -13.1011 -12.8723 -12.8719 -12.8496
   -12.4621 -12.4618 -12.0630 -11.5911 -11.5909 -11.4723 -11.0908 -11.0905
   -10.1137  -9.2812  -9.2808  -9.2061  -9.1294  -9.1291  -9.0511  -9.0203
    -9.0202  -9.0098  -8.7944  -8.4222  -8.4220  -7.8455  -7.8450  -7.8153
    -7.6819  -7.6322  -7.2114  -7.2109  -6.8550  -6.8540  -6.8361  -6.6365
    -6.6357  -6.6156  -6.5422  -6.5422  -6.4974  -6.3913  -6.3905  -6.3503
    -6.3455  -6.3451  -6.2912  -6.0929  -5.2172  -5.2167  -5.0479  -5.0459
    -4.8994  -4.8993  -4.7939  -4.7052  -4.5467  -4.5259  -4.5251  -4.1512
    -3.9052  -3.9039  -3.6532  -3.6531  -3.5807  -3.5323  -3.4578  -3.4575
    -2.7661  -2.1649  -2.1639  -2.0880  -2.0867  -1.6350  -1.6349  -1.6187
    -0.4450   0.0112   0.0167   1.1322   1.1324   1.1611   1.3062   1.8975
     2.1517   2.1531   2.4300   2.9989   2.9992   3.0500   3.4544   3.4744
     3.4746   3.7534   3.7537   3.8045   3.9696   4.1065   4.1078

     occupation numbers
     1.0000   1.0000   1.0000   1.0000   1.0000   1.0000   1.0000   1.0000
     1.0000   1.0000   1.0000   1.0000   1.0000   1.0000   1.0000   1.0000
     1.0000   1.0000   1.0000   1.0000   1.0000   1.0000   1.0000   1.0000
     1.0000   1.0000   1.0000   1.0000   1.0000   1.0000   1.0000   1.0000
     1.0000   1.0000   1.0000   1.0000   1.0000   1.0000   1.0000   1.0000
     1.0000   1.0000   1.0000   1.0000   1.0000   1.0000   1.0000   1.0000
     1.0000   1.0000   1.0000   1.0000   1.0000   1.0000   1.0000   1.0000
     1.0000   1.0000   1.0000   1.0000   1.0000   1.0000   1.0000   1.0000
     1.0000   1.0000   1.0000   1.0000   1.0000   1.0000   1.0000   1.0000
     1.0000   1.0000   1.0000   1.0000   1.0000   1.0000   1.0000   1.0000
     1.0000   1.0000   1.0000   1.0000   1.0000   1.0000   1.0000   1.0000
     1.0000   1.0000   1.0000   1.0000   1.0000   1.0000   1.0000   1.0000
     1.0000   1.0000   1.0000   1.0000   1.0000   1.0000   1.0000   1.0000
     1.0000   0.0000   0.0000   0.0000   0.0000   0.0000   0.0000   0.0000
     0.0000   0.0000   0.0000   0.0000   0.0000   0.0000   0.0000   0.0000
     0.0000   0.0000   0.0000   0.0000   0.0000   0.0000   0.0000

     the Fermi energy is    -0.2087 ev

!    total energy              =    -757.31495085 Ry
     Harris-Foulkes estimate   =    -757.31495092 Ry
     estimated scf accuracy    <       0.00000096 Ry

     The total energy is the sum of the following terms:

     one-electron contribution =   -2608.17975895 Ry
     hartree contribution      =    1351.12611321 Ry
     xc contribution           =    -252.72774866 Ry
     ewald contribution        =     752.46677165 Ry
     smearing contrib. (-TS)   =      -0.00032810 Ry

     total magnetization       =     1.00 Bohr mag/cell
     absolute magnetization    =     1.52 Bohr mag/cell

     convergence has been achieved in  17 iterations

     Writing output data file distance-1.8.save/

     General routines

     Parallel routines

   This run was terminated on:  17:35:28  21Aug2022

   JOB DONE.