     Program PWSCF v.6.4.1 starts on  2Sep2022 at 19:27:27

     R & G space division:  proc/nbgrp/npool/nimage =       6
     Reading input from distance-1.8.in

     Current dimensions of program PWSCF are:
     Max number of different atomic species (ntypx) = 10
     Max number of k-points (npk) =  40000
     Max angular momentum in pseudopotentials (lmaxx) =  3

     IMPORTANT: XC functional enforced from input :
     Exchange-correlation      = RVV10 ( 1  4 13  4 3 0)
     Any further DFT definition will be discarded
     Please, verify this is what you really want

               file H.pbe-rrkjus.UPF: wavefunction(s)  1S renormalized
               file V.pbe-spnl-rrkjus_psl.1.0.0.UPF: wavefunction(s)  3P 3D renormalized

     Subspace diagonalization in iterative solution of the eigenvalue problem:
     a serial algorithm will be used

     bravais-lattice index     =            4
     lattice parameter (alat)  =      23.2937  a.u.
     unit-cell volume          =    8879.8548 (a.u.)^3
     number of atoms/cell      =           52
     number of atomic types    =            3
     number of electrons       =       211.00
     number of Kohn-Sham states=          127
     kinetic-energy cutoff     =      70.0000  Ry
     charge density cutoff     =     490.0000  Ry
     convergence threshold     =      1.0E-06
     mixing beta               =       0.7000
     number of iterations used =            8  plain     mixing
     Exchange-correlation      = RVV10 ( 1  4 13  4 3 0)

     celldm(1)=  23.293684  celldm(2)=   0.000000  celldm(3)=   0.811261
     celldm(4)=   0.000000  celldm(5)=   0.000000  celldm(6)=   0.000000

     crystal axes: (cart. coord. in units of alat)
               a(1) = (   1.000000   0.000000   0.000000 )
               a(2) = (  -0.500000   0.866025   0.000000 )
               a(3) = (   0.000000   0.000000   0.811261 )

     reciprocal axes: (cart. coord. in units 2 pi/alat)
               b(1) = (  1.000000  0.577350 -0.000000 )
               b(2) = (  0.000000  1.154701  0.000000 )
               b(3) = (  0.000000 -0.000000  1.232649 )

     PseudoPot. # 1 for H  read from file:
     /home/cristian/Escritorio/Proyecto_Grafeno/pseudopotenciales/H.pbe-rrkjus.UPF
     MD5 check sum: 7cc9d459525c9a0585f487a71c3c9563
     Pseudo is Ultrasoft, Zval =  1.0
     Generated by new atomic code, or converted to UPF format
     Using radial grid of 1061 points,  2 beta functions with:
                l(1) =   0
                l(2) =   0
     Q(r) pseudized with 0 coefficients

     PseudoPot. # 2 for C  read from file:
     /home/cristian/Escritorio/Proyecto_Grafeno/pseudopotenciales/C.pbe-n-rrkjus_psl.1.0.0.UPF
     MD5 check sum: 1fdd950c42eb37d8afe3dd2f8d12311e
     Pseudo is Ultrasoft + core correction, Zval =  4.0
     Generated using "atomic" code by A. Dal Corso v.6.3MaX
     Using radial grid of 1073 points,  4 beta functions with:
                l(1) =   0
                l(2) =   0
                l(3) =   1
                l(4) =   1
     Q(r) pseudized with 0 coefficients

     PseudoPot. # 3 for V  read from file:
     /home/cristian/Escritorio/Proyecto_Grafeno/pseudopotenciales/V.pbe-spnl-rrkjus_psl.1.0.0.UPF
     MD5 check sum: 79b3eb63147daf0b665d9f1bcc691206
     Pseudo is Ultrasoft + core correction, Zval = 13.0
     Generated using "atomic" code by A. Dal Corso v.6.2.2
     Using radial grid of 1181 points,  6 beta functions with:
                l(1) =   0
                l(2) =   0
                l(3) =   1
                l(4) =   1
                l(5) =   2
                l(6) =   2
     Q(r) pseudized with 0 coefficients

     vdW kernel table read from file rVV10_kernel_table
     MD5 check sum: b8e2538accc0c0b3206b45ba4daaba6c

     atomic species   valence    mass     pseudopotential
        H              1.00     1.00794     H ( 1.00)
        C              4.00    12.01070     C ( 1.00)
        V             13.00    50.94150     V ( 1.00)

     Starting magnetic structure
     atomic species   magnetization
        H            0.500
        C            0.300
        V            0.800

     No symmetry found

                                    s                        frac. trans.

      isym =  1     identity

 cryst.   s( 1) = (     1          0          0      )
                  (     0          1          0      )
                  (     0          0          1      )

 cart.    s( 1) = (  1.0000000  0.0000000  0.0000000 )
                  (  0.0000000  1.0000000  0.0000000 )
                  (  0.0000000  0.0000000  1.0000000 )

     point group C_1 (1)
     there are  1 classes
     the character table:

       E
A      1.00

     the symmetry operations in each class and the name of the first element:

     E        1
          identity

   Cartesian axes

     site n.     atom                  positions (alat units)
         1           H   tau(   1) = (   0.2361603   0.4618802   0.1460270  )
         2           H   tau(   2) = (   0.2971730   0.4618802   0.1460270  )
         3           C   tau(   3) = (   0.0000000   0.0000000   0.0000000  )
         4           C   tau(   4) = (   0.0000000   0.1154701   0.0000000  )
         5           C   tau(   5) = (  -0.1000000   0.1732051   0.0000000  )
         6           C   tau(   6) = (  -0.1000000   0.2886751   0.0000000  )
         7           C   tau(   7) = (  -0.2000000   0.3464102   0.0000000  )
         8           C   tau(   8) = (  -0.2000000   0.4618802   0.0000000  )
         9           C   tau(   9) = (  -0.3000000   0.5196152   0.0000000  )
        10           C   tau(  10) = (  -0.3000000   0.6350853   0.0000000  )
        11           C   tau(  11) = (  -0.4000000   0.6928203   0.0000000  )
        12           C   tau(  12) = (  -0.4000000   0.8082904   0.0000000  )
        13           C   tau(  13) = (   0.2000000   0.0000000   0.0000000  )
        14           C   tau(  14) = (   0.2000000   0.1154701   0.0000000  )
        15           C   tau(  15) = (   0.1000000   0.1732051   0.0000000  )
        16           C   tau(  16) = (   0.1000000   0.2886751   0.0000000  )
        17           C   tau(  17) = (   0.0000000   0.3464102   0.0000000  )
        18           C   tau(  18) = (   0.0000000   0.4618802   0.0000000  )
        19           C   tau(  19) = (  -0.1000000   0.5196152   0.0000000  )
        20           C   tau(  20) = (  -0.1000000   0.6350853   0.0000000  )
        21           C   tau(  21) = (  -0.2000000   0.6928203   0.0000000  )
        22           C   tau(  22) = (  -0.2000000   0.8082904   0.0000000  )
        23           C   tau(  23) = (   0.4000000   0.0000000   0.0000000  )
        24           C   tau(  24) = (   0.4000000   0.1154701   0.0000000  )
        25           C   tau(  25) = (   0.3000000   0.1732051   0.0000000  )
        26           C   tau(  26) = (   0.3000000   0.2886751   0.0000000  )
        27           C   tau(  27) = (   0.2000000   0.3464102   0.0000000  )
        28           V   tau(  28) = (   0.2000000   0.4618802   0.0000000  )
        29           C   tau(  29) = (   0.1000000   0.5196152   0.0000000  )
        30           C   tau(  30) = (   0.1000000   0.6350853   0.0000000  )
        31           C   tau(  31) = (   0.0000000   0.6928203   0.0000000  )
        32           C   tau(  32) = (   0.0000000   0.8082904   0.0000000  )
        33           C   tau(  33) = (   0.6000000   0.0000000   0.0000000  )
        34           C   tau(  34) = (   0.6000000   0.1154701   0.0000000  )
        35           C   tau(  35) = (   0.5000000   0.1732051   0.0000000  )
        36           C   tau(  36) = (   0.5000000   0.2886751   0.0000000  )
        37           C   tau(  37) = (   0.4000000   0.3464102   0.0000000  )
        38           C   tau(  38) = (   0.4000000   0.4618802   0.0000000  )
        39           C   tau(  39) = (   0.3000000   0.5196152   0.0000000  )
        40           C   tau(  40) = (   0.3000000   0.6350853   0.0000000  )
        41           C   tau(  41) = (   0.2000000   0.6928203   0.0000000  )
        42           C   tau(  42) = (   0.2000000   0.8082904   0.0000000  )
        43           C   tau(  43) = (   0.8000000   0.0000000   0.0000000  )
        44           C   tau(  44) = (   0.8000000   0.1154701   0.0000000  )
        45           C   tau(  45) = (   0.7000000   0.1732051   0.0000000  )
        46           C   tau(  46) = (   0.7000000   0.2886751   0.0000000  )
        47           C   tau(  47) = (   0.6000000   0.3464102   0.0000000  )
        48           C   tau(  48) = (   0.6000000   0.4618802   0.0000000  )
        49           C   tau(  49) = (   0.5000000   0.5196152   0.0000000  )
        50           C   tau(  50) = (   0.5000000   0.6350853   0.0000000  )
        51           C   tau(  51) = (   0.4000000   0.6928203   0.0000000  )
        52           C   tau(  52) = (   0.4000000   0.8082904   0.0000000  )

   Crystallographic axes

     site n.     atom                  positions (cryst. coord.)
         1           H   tau(   1) = (  0.5028270  0.5333333  0.1800000  )
         2           H   tau(   2) = (  0.5638397  0.5333333  0.1800000  )
         3           C   tau(   3) = (  0.0000000  0.0000000  0.0000000  )
         4           C   tau(   4) = (  0.0666667  0.1333333  0.0000000  )
         5           C   tau(   5) = (  0.0000000  0.2000000  0.0000000  )
         6           C   tau(   6) = (  0.0666667  0.3333333  0.0000000  )
         7           C   tau(   7) = (  0.0000000  0.4000000  0.0000000  )
         8           C   tau(   8) = (  0.0666667  0.5333333  0.0000000  )
         9           C   tau(   9) = (  0.0000000  0.6000000  0.0000000  )
        10           C   tau(  10) = (  0.0666667  0.7333333  0.0000000  )
        11           C   tau(  11) = (  0.0000000  0.8000000  0.0000000  )
        12           C   tau(  12) = (  0.0666667  0.9333333  0.0000000  )
        13           C   tau(  13) = (  0.2000000  0.0000000  0.0000000  )
        14           C   tau(  14) = (  0.2666667  0.1333333  0.0000000  )
        15           C   tau(  15) = (  0.2000000  0.2000000  0.0000000  )
        16           C   tau(  16) = (  0.2666667  0.3333333  0.0000000  )
        17           C   tau(  17) = (  0.2000000  0.4000000  0.0000000  )
        18           C   tau(  18) = (  0.2666667  0.5333333  0.0000000  )
        19           C   tau(  19) = (  0.2000000  0.6000000  0.0000000  )
        20           C   tau(  20) = (  0.2666667  0.7333333  0.0000000  )
        21           C   tau(  21) = (  0.2000000  0.8000000  0.0000000  )
        22           C   tau(  22) = (  0.2666667  0.9333333  0.0000000  )
        23           C   tau(  23) = (  0.4000000  0.0000000  0.0000000  )
        24           C   tau(  24) = (  0.4666667  0.1333333  0.0000000  )
        25           C   tau(  25) = (  0.4000000  0.2000000  0.0000000  )
        26           C   tau(  26) = (  0.4666667  0.3333333  0.0000000  )
        27           C   tau(  27) = (  0.4000000  0.4000000  0.0000000  )
        28           V   tau(  28) = (  0.4666667  0.5333333  0.0000000  )
        29           C   tau(  29) = (  0.4000000  0.6000000  0.0000000  )
        30           C   tau(  30) = (  0.4666667  0.7333333  0.0000000  )
        31           C   tau(  31) = (  0.4000000  0.8000000  0.0000000  )
        32           C   tau(  32) = (  0.4666667  0.9333333  0.0000000  )
        33           C   tau(  33) = (  0.6000000  0.0000000  0.0000000  )
        34           C   tau(  34) = (  0.6666667  0.1333333  0.0000000  )
        35           C   tau(  35) = (  0.6000000  0.2000000  0.0000000  )
        36           C   tau(  36) = (  0.6666667  0.3333333  0.0000000  )
        37           C   tau(  37) = (  0.6000000  0.4000000  0.0000000  )
        38           C   tau(  38) = (  0.6666667  0.5333333  0.0000000  )
        39           C   tau(  39) = (  0.6000000  0.6000000  0.0000000  )
        40           C   tau(  40) = (  0.6666667  0.7333333  0.0000000  )
        41           C   tau(  41) = (  0.6000000  0.8000000  0.0000000  )
        42           C   tau(  42) = (  0.6666667  0.9333333  0.0000000  )
        43           C   tau(  43) = (  0.8000000  0.0000000  0.0000000  )
        44           C   tau(  44) = (  0.8666667  0.1333333  0.0000000  )
        45           C   tau(  45) = (  0.8000000  0.2000000  0.0000000  )
        46           C   tau(  46) = (  0.8666667  0.3333333  0.0000000  )
        47           C   tau(  47) = (  0.8000000  0.4000000  0.0000000  )
        48           C   tau(  48) = (  0.8666667  0.5333333  0.0000000  )
        49           C   tau(  49) = (  0.8000000  0.6000000  0.0000000  )
        50           C   tau(  50) = (  0.8666667  0.7333333  0.0000000  )
        51           C   tau(  51) = (  0.8000000  0.8000000  0.0000000  )
        52           C   tau(  52) = (  0.8666667  0.9333333  0.0000000  )

     number of k points=     1  Marzari-Vanderbilt smearing, width (Ry)=  0.0010
                       cart. coord. in units 2pi/alat
        k(    1) = (   0.0000000   0.0000000   0.0000000), wk =   1.0000000

                       cryst. coord.
        k(    1) = (   0.0000000   0.0000000   0.0000000), wk =   1.0000000

     Check: negative core charge=   -0.000002

     Initial potential from superposition of free atoms

     starting charge  210.80465, renormalised to  211.00000

     negative rho (up, down):  1.539E-04 2.077E-02

Carrying out rVV10 run using the following parameters:
Nqs =      20    Nr_points =    1024   r_max =   100.000
b_value =  6.30000    beta =  0.00901
     q_mesh =  0.00010000  0.00030000  0.00058939  0.00100810
               0.00161396  0.00249058  0.00375900  0.00559430
               0.00824984  0.01209221  0.01765183  0.02569619
               0.03733578  0.05417739  0.07854596  0.11380545
               0.16482331  0.23864234  0.34545298  0.50000000

Gradients computed in Reciprocal space

     Starting wfcs are  208 randomized atomic wfcs

     Self-consistent Calculation

     iteration #  1     ecut=    70.00 Ry     beta= 0.70
     Davidson diagonalization with overlap
     ethr =  1.00E-02,  avg # of iterations =  3.0

[...]

     total energy              =    -748.93233196 Ry
     Harris-Foulkes estimate   =    -757.31053484 Ry
     estimated scf accuracy    <      16.55524658 Ry

     total magnetization       =     7.00 Bohr mag/cell
     absolute magnetization    =     7.56 Bohr mag/cell

[...]

     total energy              =    -757.29464453 Ry
     Harris-Foulkes estimate   =    -757.29464451 Ry
     estimated scf accuracy    <       0.00000186 Ry

[...]

     iteration # 33     ecut=    70.00 Ry     beta= 0.70
     Davidson diagonalization with overlap
     ethr =  8.81E-10,  avg # of iterations =  3.0

     negative rho (up, down):  3.249E-02 2.557E-03

     Magnetic moment per site:
     atom:    1    charge:    0.2262    magn:   -0.0002    constr:    0.0000
     atom:    2    charge:    0.2017    magn:   -0.0000    constr:    0.0000
     atom:    3    charge:    1.7187    magn:   -0.0040    constr:    0.0000
     atom:    4    charge:    1.7148    magn:    0.0024    constr:    0.0000
     atom:    5    charge:    1.7186    magn:   -0.0023    constr:    0.0000
     atom:    6    charge:    1.7142    magn:    0.0022    constr:    0.0000
     atom:    7    charge:    1.7181    magn:   -0.0043    constr:    0.0000
     atom:    8    charge:    1.7166    magn:    0.0143    constr:    0.0000
     atom:    9    charge:    1.7169    magn:   -0.0083    constr:    0.0000
     atom:   10    charge:    1.7172    magn:    0.0481    constr:    0.0000
     atom:   11    charge:    1.7185    magn:   -0.0087    constr:    0.0000
     atom:   12    charge:    1.7102    magn:    0.0028    constr:    0.0000
     atom:   13    charge:    1.7187    magn:   -0.0084    constr:    0.0000
     atom:   14    charge:    1.7160    magn:    0.0354    constr:    0.0000
     atom:   15    charge:    1.7168    magn:   -0.0073    constr:    0.0000
     atom:   16    charge:    1.7094    magn:    0.0237    constr:    0.0000
     atom:   17    charge:    1.7276    magn:   -0.0027    constr:    0.0000
     atom:   18    charge:    1.7093    magn:    0.0151    constr:    0.0000
     atom:   19    charge:    1.7176    magn:   -0.0050    constr:    0.0000
     atom:   20    charge:    1.7122    magn:    0.0031    constr:    0.0000
     atom:   21    charge:    1.7182    magn:   -0.0088    constr:    0.0000
     atom:   22    charge:    1.7161    magn:    0.0410    constr:    0.0000
     atom:   23    charge:    1.7173    magn:   -0.0075    constr:    0.0000
     atom:   24    charge:    1.7156    magn:    0.0116    constr:    0.0000
     atom:   25    charge:    1.7158    magn:   -0.0124    constr:    0.0000
     atom:   26    charge:    1.7163    magn:    0.0603    constr:    0.0000
     atom:   27    charge:    1.9118    magn:    0.0009    constr:    0.0000
     atom:   28    charge:    7.8611    magn:    0.1020    constr:    0.0000
     atom:   29    charge:    1.9151    magn:   -0.0036    constr:    0.0000
     atom:   30    charge:    1.7088    magn:    0.0075    constr:    0.0000
     atom:   31    charge:    1.7178    magn:   -0.0039    constr:    0.0000
     atom:   32    charge:    1.7164    magn:    0.0118    constr:    0.0000
     atom:   33    charge:    1.7182    magn:   -0.0038    constr:    0.0000
     atom:   34    charge:    1.7141    magn:    0.0086    constr:    0.0000
     atom:   35    charge:    1.7181    magn:   -0.0053    constr:    0.0000
     atom:   36    charge:    1.7144    magn:    0.0032    constr:    0.0000
     atom:   37    charge:    1.7251    magn:   -0.0110    constr:    0.0000
     atom:   38    charge:    1.7202    magn:    0.0559    constr:    0.0000
     atom:   39    charge:    1.9156    magn:    0.0002    constr:    0.0000
     atom:   40    charge:    1.7098    magn:    0.0140    constr:    0.0000
     atom:   41    charge:    1.7279    magn:   -0.0016    constr:    0.0000
     atom:   42    charge:    1.7141    magn:    0.0020    constr:    0.0000
     atom:   43    charge:    1.7187    magn:   -0.0027    constr:    0.0000
     atom:   44    charge:    1.7131    magn:    0.0017    constr:    0.0000
     atom:   45    charge:    1.7245    magn:   -0.0032    constr:    0.0000
     atom:   46    charge:    1.7144    magn:    0.0100    constr:    0.0000
     atom:   47    charge:    1.7177    magn:   -0.0057    constr:    0.0000
     atom:   48    charge:    1.7162    magn:    0.0128    constr:    0.0000
     atom:   49    charge:    1.7157    magn:   -0.0118    constr:    0.0000
     atom:   50    charge:    1.7159    magn:    0.0301    constr:    0.0000
     atom:   51    charge:    1.7171    magn:   -0.0054    constr:    0.0000
     atom:   52    charge:    1.7150    magn:    0.0025    constr:    0.0000

     End of self-consistent calculation

 ------ SPIN UP ------------

          k = 0.0000 0.0000 0.0000 ( 87777 PWs)   bands (ev):

   -62.7604 -37.9070 -37.8169 -36.5274 -19.6280 -18.8141 -18.7523 -18.7147
   -18.6762 -18.6680 -18.2392 -16.9450 -16.9334 -16.9123 -16.8130 -16.7716
   -16.5118 -16.0799 -16.0705 -15.9816 -15.8414 -15.8208 -15.0901 -13.8977
   -13.8942 -13.8660 -13.8538 -13.8496 -13.1357 -12.9176 -12.9061 -12.8904
   -12.5178 -12.4927 -12.1149 -11.6485 -11.6329 -11.5138 -11.1601 -11.1277
   -10.2085  -9.4411  -9.3325  -9.2702  -9.1958  -9.1790  -9.1655  -9.0795
    -9.0596  -9.0533  -9.0407  -8.4524  -8.4368  -7.8933  -7.8781  -7.8451
    -7.7386  -7.6669  -7.2516  -7.2348  -6.9477  -6.9058  -6.8590  -6.7026
    -6.6824  -6.6703  -6.5873  -6.5823  -6.5346  -6.4332  -6.4190  -6.3952
    -6.3736  -6.3632  -6.3259  -6.0861  -5.2595  -5.2411  -5.1474  -5.0221
    -4.9416  -4.9303  -4.8244  -4.7383  -4.6223  -4.6122  -4.5953  -4.1872
    -3.9801  -3.9585  -3.7620  -3.7472  -3.6517  -3.5923  -3.4941  -3.4853
    -2.7715  -2.2650  -2.2459  -2.1942  -2.1773  -1.7484  -1.6789  -1.6722
    -0.4522  -0.2468  -0.2162   1.0246   1.0677   1.0882   1.5771   1.8854
     2.0503   2.0764   2.4669   2.8899   2.9074   2.9777   3.3648   3.5132
     3.7026   3.7402   3.7576   3.8066   3.9101   3.9975   4.0135

     occupation numbers
     1.0000   1.0000   1.0000   1.0000   1.0000   1.0000   1.0000   1.0000
     1.0000   1.0000   1.0000   1.0000   1.0000   1.0000   1.0000   1.0000
     1.0000   1.0000   1.0000   1.0000   1.0000   1.0000   1.0000   1.0000
     1.0000   1.0000   1.0000   1.0000   1.0000   1.0000   1.0000   1.0000
     1.0000   1.0000   1.0000   1.0000   1.0000   1.0000   1.0000   1.0000
     1.0000   1.0000   1.0000   1.0000   1.0000   1.0000   1.0000   1.0000
     1.0000   1.0000   1.0000   1.0000   1.0000   1.0000   1.0000   1.0000
     1.0000   1.0000   1.0000   1.0000   1.0000   1.0000   1.0000   1.0000
     1.0000   1.0000   1.0000   1.0000   1.0000   1.0000   1.0000   1.0000
     1.0000   1.0000   1.0000   1.0000   1.0000   1.0000   1.0000   1.0000
     1.0000   1.0000   1.0000   1.0000   1.0000   1.0000   1.0000   1.0000
     1.0000   1.0000   1.0000   1.0000   1.0000   1.0000   1.0000   1.0000
     1.0000   1.0000   1.0000   1.0000   1.0000   1.0000   1.0000   1.0000
     1.0000   0.9922   0.0078   0.0000   0.0000   0.0000   0.0000   0.0000
     0.0000   0.0000   0.0000   0.0000   0.0000   0.0000   0.0000   0.0000
     0.0000   0.0000   0.0000   0.0000   0.0000   0.0000   0.0000

 ------ SPIN DOWN ----------

          k = 0.0000 0.0000 0.0000 ( 87777 PWs)   bands (ev):

   -62.5655 -37.8354 -37.5653 -36.2617 -19.6076 -18.8042 -18.7218 -18.6950
   -18.6631 -18.6490 -18.2064 -16.9338 -16.9207 -16.8851 -16.7922 -16.7377
   -16.4974 -16.0570 -16.0400 -15.9645 -15.8213 -15.7990 -15.0756 -13.8789
   -13.8691 -13.8496 -13.8310 -13.8088 -13.1389 -12.9091 -12.8923 -12.8761
   -12.5115 -12.4826 -12.0965 -11.6293 -11.6169 -11.5010 -11.1496 -11.1129
   -10.1929  -9.4221  -9.3178  -9.2529  -9.1770  -9.1667  -9.1485  -9.0703
    -9.0483  -9.0372  -9.0267  -8.4455  -8.4291  -7.8829  -7.8670  -7.8357
    -7.6968  -7.6584  -7.2421  -7.2264  -6.8865  -6.8666  -6.8148  -6.6656
    -6.6405  -6.6341  -6.5773  -6.5719  -6.5255  -6.4247  -6.4082  -6.3912
    -6.3653  -6.3539  -6.3171  -6.0043  -5.2528  -5.2305  -5.0550  -4.9571
    -4.9324  -4.9195  -4.8184  -4.7321  -4.5887  -4.5746  -4.5256  -4.1443
    -3.9407  -3.9031  -3.6943  -3.6702  -3.6001  -3.5639  -3.4882  -3.4768
    -2.7294  -2.2065  -2.1766  -2.1362  -2.1014  -1.6816  -1.6621  -1.6312
    -0.4507  -0.1136   0.0932   1.0659   1.0978   1.1349   1.6569   1.9405
     2.0953   2.1683   2.4732   2.9541   2.9740   3.0290   3.3906   3.5216
     3.7082   3.7454   3.7608   3.8133   3.9460   4.0275   4.1113

     occupation numbers
     1.0000   1.0000   1.0000   1.0000   1.0000   1.0000   1.0000   1.0000
     1.0000   1.0000   1.0000   1.0000   1.0000   1.0000   1.0000   1.0000
     1.0000   1.0000   1.0000   1.0000   1.0000   1.0000   1.0000   1.0000
     1.0000   1.0000   1.0000   1.0000   1.0000   1.0000   1.0000   1.0000
     1.0000   1.0000   1.0000   1.0000   1.0000   1.0000   1.0000   1.0000
     1.0000   1.0000   1.0000   1.0000   1.0000   1.0000   1.0000   1.0000
     1.0000   1.0000   1.0000   1.0000   1.0000   1.0000   1.0000   1.0000
     1.0000   1.0000   1.0000   1.0000   1.0000   1.0000   1.0000   1.0000
     1.0000   1.0000   1.0000   1.0000   1.0000   1.0000   1.0000   1.0000
     1.0000   1.0000   1.0000   1.0000   1.0000   1.0000   1.0000   1.0000
     1.0000   1.0000   1.0000   1.0000   1.0000   1.0000   1.0000   1.0000
     1.0000   1.0000   1.0000   1.0000   1.0000   1.0000   1.0000   1.0000
     1.0000   1.0000   1.0000   1.0000   1.0000   1.0000   1.0000   1.0000
     1.0000   0.0000   0.0000   0.0000   0.0000   0.0000   0.0000   0.0000
     0.0000   0.0000   0.0000   0.0000   0.0000   0.0000   0.0000   0.0000
     0.0000   0.0000   0.0000   0.0000   0.0000   0.0000   0.0000

     the Fermi energy is    -0.2345 ev

!    total energy              =    -757.29464430 Ry
     Harris-Foulkes estimate   =    -757.29464483 Ry
     estimated scf accuracy    <       0.00000096 Ry

     The total energy is the sum of the following terms:

     one-electron contribution =   -2617.14026200 Ry
     hartree contribution      =    1355.41405973 Ry
     xc contribution           =    -252.75879047 Ry
     ewald contribution        =     757.19028613 Ry
     smearing contrib. (-TS)   =       0.00006231 Ry

     total magnetization       =     1.00 Bohr mag/cell
     absolute magnetization    =     1.56 Bohr mag/cell

     convergence has been achieved in  33 iterations

     Writing output data file vanadio-baricentro-distance-1.8.save/

     General routines

     Parallel routines

   This run was terminated on:  20:21:26   2Sep2022

   JOB DONE.