     Program PWSCF v.6.4.1 starts on 24Aug2022 at  3:12:38

     R & G space division:  proc/nbgrp/npool/nimage =       6
     Reading input from distance-1.8.in

     Current dimensions of program PWSCF are:
     Max number of different atomic species (ntypx) = 10
     Max number of k-points (npk) =  40000
     Max angular momentum in pseudopotentials (lmaxx) =  3

     IMPORTANT: XC functional enforced from input :
     Exchange-correlation      = RVV10 ( 1  4 13  4 3 0)
     Any further DFT definition will be discarded
     Please, verify this is what you really want

               file H.pbe-rrkjus.UPF: wavefunction(s)  1S renormalized
               file V.pbe-spnl-rrkjus_psl.1.0.0.UPF: wavefunction(s)  3P 3D renormalized

     Subspace diagonalization in iterative solution of the eigenvalue problem:
     a serial algorithm will be used

     bravais-lattice index     =            4
     lattice parameter (alat)  =      23.2937  a.u.
     unit-cell volume          =    8879.8548 (a.u.)^3
     number of atoms/cell      =           52
     number of atomic types    =            3
     number of electrons       =       211.00
     number of Kohn-Sham states=          127
     kinetic-energy cutoff     =      70.0000  Ry
     charge density cutoff     =     490.0000  Ry
     convergence threshold     =      1.0E-06
     mixing beta               =       0.7000
     number of iterations used =            8  plain     mixing
     Exchange-correlation      = RVV10 ( 1  4 13  4 3 0)

     celldm(1)=  23.293684  celldm(2)=   0.000000  celldm(3)=   0.811261
     celldm(4)=   0.000000  celldm(5)=   0.000000  celldm(6)=   0.000000

     crystal axes: (cart. coord. in units of alat)
               a(1) = (   1.000000   0.000000   0.000000 )
               a(2) = (  -0.500000   0.866025   0.000000 )
               a(3) = (   0.000000   0.000000   0.811261 )

     reciprocal axes: (cart. coord. in units 2 pi/alat)
               b(1) = (  1.000000  0.577350 -0.000000 )
               b(2) = (  0.000000  1.154701  0.000000 )
               b(3) = (  0.000000 -0.000000  1.232649 )

     PseudoPot. # 1 for H  read from file:
     /home/cristian/Escritorio/Proyecto_Grafeno/pseudopotenciales/H.pbe-rrkjus.UPF
     MD5 check sum: 7cc9d459525c9a0585f487a71c3c9563
     Pseudo is Ultrasoft, Zval =  1.0
     Generated by new atomic code, or converted to UPF format
     Using radial grid of 1061 points,  2 beta functions with:
                l(1) =   0
                l(2) =   0
     Q(r) pseudized with 0 coefficients

     PseudoPot. # 2 for C  read from file:
     /home/cristian/Escritorio/Proyecto_Grafeno/pseudopotenciales/C.pbe-n-rrkjus_psl.1.0.0.UPF
     MD5 check sum: 1fdd950c42eb37d8afe3dd2f8d12311e
     Pseudo is Ultrasoft + core correction, Zval =  4.0
     Generated using "atomic" code by A. Dal Corso v.6.3MaX
     Using radial grid of 1073 points,  4 beta functions with:
                l(1) =   0
                l(2) =   0
                l(3) =   1
                l(4) =   1
     Q(r) pseudized with 0 coefficients

     PseudoPot. # 3 for V  read from file:
     /home/cristian/Escritorio/Proyecto_Grafeno/pseudopotenciales/V.pbe-spnl-rrkjus_psl.1.0.0.UPF
     MD5 check sum: 79b3eb63147daf0b665d9f1bcc691206
     Pseudo is Ultrasoft + core correction, Zval = 13.0
     Generated using "atomic" code by A. Dal Corso v.6.2.2
     Using radial grid of 1181 points,  6 beta functions with:
                l(1) =   0
                l(2) =   0
                l(3) =   1
                l(4) =   1
                l(5) =   2
                l(6) =   2
     Q(r) pseudized with 0 coefficients

     vdW kernel table read from file rVV10_kernel_table
     MD5 check sum: b8e2538accc0c0b3206b45ba4daaba6c

     atomic species   valence    mass     pseudopotential
        H              1.00     1.00794     H ( 1.00)
        C              4.00    12.01070     C ( 1.00)
        V             13.00    50.94150     V ( 1.00)

     Starting magnetic structure
     atomic species   magnetization
        H            0.500
        C            0.300
        V            0.800

     No symmetry found

                                    s                        frac. trans.

      isym =  1     identity

 cryst.   s( 1) = (     1          0          0      )
                  (     0          1          0      )
                  (     0          0          1      )

 cart.    s( 1) = (  1.0000000  0.0000000  0.0000000 )
                  (  0.0000000  1.0000000  0.0000000 )
                  (  0.0000000  0.0000000  1.0000000 )

     point group C_1 (1)
     there are  1 classes
     the character table:

       E
A      1.00

     the symmetry operations in each class and the name of the first element:

     E        1
          identity

   Cartesian axes

     site n.     atom                  positions (alat units)
         1           H   tau(   1) = (   0.2666667   0.4618802   0.1460270  )
         2           H   tau(   2) = (   0.2666667   0.4618802   0.2070397  )
         3           C   tau(   3) = (   0.0000000   0.0000000   0.0000000  )
         4           C   tau(   4) = (   0.0000000   0.1154701   0.0000000  )
         5           C   tau(   5) = (  -0.1000000   0.1732051   0.0000000  )
         6           C   tau(   6) = (  -0.1000000   0.2886751   0.0000000  )
         7           C   tau(   7) = (  -0.2000000   0.3464102   0.0000000  )
         8           C   tau(   8) = (  -0.2000000   0.4618802   0.0000000  )
         9           C   tau(   9) = (  -0.3000000   0.5196152   0.0000000  )
        10           C   tau(  10) = (  -0.3000000   0.6350853   0.0000000  )
        11           C   tau(  11) = (  -0.4000000   0.6928203   0.0000000  )
        12           C   tau(  12) = (  -0.4000000   0.8082904   0.0000000  )
        13           C   tau(  13) = (   0.2000000   0.0000000   0.0000000  )
        14           C   tau(  14) = (   0.2000000   0.1154701   0.0000000  )
        15           C   tau(  15) = (   0.1000000   0.1732051   0.0000000  )
        16           C   tau(  16) = (   0.1000000   0.2886751   0.0000000  )
        17           C   tau(  17) = (   0.0000000   0.3464102   0.0000000  )
        18           C   tau(  18) = (   0.0000000   0.4618802   0.0000000  )
        19           C   tau(  19) = (  -0.1000000   0.5196152   0.0000000  )
        20           C   tau(  20) = (  -0.1000000   0.6350853   0.0000000  )
        21           C   tau(  21) = (  -0.2000000   0.6928203   0.0000000  )
        22           C   tau(  22) = (  -0.2000000   0.8082904   0.0000000  )
        23           C   tau(  23) = (   0.4000000   0.0000000   0.0000000  )
        24           C   tau(  24) = (   0.4000000   0.1154701   0.0000000  )
        25           C   tau(  25) = (   0.3000000   0.1732051   0.0000000  )
        26           C   tau(  26) = (   0.3000000   0.2886751   0.0000000  )
        27           C   tau(  27) = (   0.2000000   0.3464102   0.0000000  )
        28           V   tau(  28) = (   0.2000000   0.4618802   0.0000000  )
        29           C   tau(  29) = (   0.1000000   0.5196152   0.0000000  )
        30           C   tau(  30) = (   0.1000000   0.6350853   0.0000000  )
        31           C   tau(  31) = (   0.0000000   0.6928203   0.0000000  )
        32           C   tau(  32) = (   0.0000000   0.8082904   0.0000000  )
        33           C   tau(  33) = (   0.6000000   0.0000000   0.0000000  )
        34           C   tau(  34) = (   0.6000000   0.1154701   0.0000000  )
        35           C   tau(  35) = (   0.5000000   0.1732051   0.0000000  )
        36           C   tau(  36) = (   0.5000000   0.2886751   0.0000000  )
        37           C   tau(  37) = (   0.4000000   0.3464102   0.0000000  )
        38           C   tau(  38) = (   0.4000000   0.4618802   0.0000000  )
        39           C   tau(  39) = (   0.3000000   0.5196152   0.0000000  )
        40           C   tau(  40) = (   0.3000000   0.6350853   0.0000000  )
        41           C   tau(  41) = (   0.2000000   0.6928203   0.0000000  )
        42           C   tau(  42) = (   0.2000000   0.8082904   0.0000000  )
        43           C   tau(  43) = (   0.8000000   0.0000000   0.0000000  )
        44           C   tau(  44) = (   0.8000000   0.1154701   0.0000000  )
        45           C   tau(  45) = (   0.7000000   0.1732051   0.0000000  )
        46           C   tau(  46) = (   0.7000000   0.2886751   0.0000000  )
        47           C   tau(  47) = (   0.6000000   0.3464102   0.0000000  )
        48           C   tau(  48) = (   0.6000000   0.4618802   0.0000000  )
        49           C   tau(  49) = (   0.5000000   0.5196152   0.0000000  )
        50           C   tau(  50) = (   0.5000000   0.6350853   0.0000000  )
        51           C   tau(  51) = (   0.4000000   0.6928203   0.0000000  )
        52           C   tau(  52) = (   0.4000000   0.8082904   0.0000000  )

   Crystallographic axes

     site n.     atom                  positions (cryst. coord.)
         1           H   tau(   1) = (  0.5333333  0.5333333  0.1800000  )
         2           H   tau(   2) = (  0.5333333  0.5333333  0.2552072  )
         3           C   tau(   3) = (  0.0000000  0.0000000  0.0000000  )
         4           C   tau(   4) = (  0.0666667  0.1333333  0.0000000  )
         5           C   tau(   5) = (  0.0000000  0.2000000  0.0000000  )
         6           C   tau(   6) = (  0.0666667  0.3333333  0.0000000  )
         7           C   tau(   7) = (  0.0000000  0.4000000  0.0000000  )
         8           C   tau(   8) = (  0.0666667  0.5333333  0.0000000  )
         9           C   tau(   9) = (  0.0000000  0.6000000  0.0000000  )
        10           C   tau(  10) = (  0.0666667  0.7333333  0.0000000  )
        11           C   tau(  11) = (  0.0000000  0.8000000  0.0000000  )
        12           C   tau(  12) = (  0.0666667  0.9333333  0.0000000  )
        13           C   tau(  13) = (  0.2000000  0.0000000  0.0000000  )
        14           C   tau(  14) = (  0.2666667  0.1333333  0.0000000  )
        15           C   tau(  15) = (  0.2000000  0.2000000  0.0000000  )
        16           C   tau(  16) = (  0.2666667  0.3333333  0.0000000  )
        17           C   tau(  17) = (  0.2000000  0.4000000  0.0000000  )
        18           C   tau(  18) = (  0.2666667  0.5333333  0.0000000  )
        19           C   tau(  19) = (  0.2000000  0.6000000  0.0000000  )
        20           C   tau(  20) = (  0.2666667  0.7333333  0.0000000  )
        21           C   tau(  21) = (  0.2000000  0.8000000  0.0000000  )
        22           C   tau(  22) = (  0.2666667  0.9333333  0.0000000  )
        23           C   tau(  23) = (  0.4000000  0.0000000  0.0000000  )
        24           C   tau(  24) = (  0.4666667  0.1333333  0.0000000  )
        25           C   tau(  25) = (  0.4000000  0.2000000  0.0000000  )
        26           C   tau(  26) = (  0.4666667  0.3333333  0.0000000  )
        27           C   tau(  27) = (  0.4000000  0.4000000  0.0000000  )
        28           V   tau(  28) = (  0.4666667  0.5333333  0.0000000  )
        29           C   tau(  29) = (  0.4000000  0.6000000  0.0000000  )
        30           C   tau(  30) = (  0.4666667  0.7333333  0.0000000  )
        31           C   tau(  31) = (  0.4000000  0.8000000  0.0000000  )
        32           C   tau(  32) = (  0.4666667  0.9333333  0.0000000  )
        33           C   tau(  33) = (  0.6000000  0.0000000  0.0000000  )
        34           C   tau(  34) = (  0.6666667  0.1333333  0.0000000  )
        35           C   tau(  35) = (  0.6000000  0.2000000  0.0000000  )
        36           C   tau(  36) = (  0.6666667  0.3333333  0.0000000  )
        37           C   tau(  37) = (  0.6000000  0.4000000  0.0000000  )
        38           C   tau(  38) = (  0.6666667  0.5333333  0.0000000  )
        39           C   tau(  39) = (  0.6000000  0.6000000  0.0000000  )
        40           C   tau(  40) = (  0.6666667  0.7333333  0.0000000  )
        41           C   tau(  41) = (  0.6000000  0.8000000  0.0000000  )
        42           C   tau(  42) = (  0.6666667  0.9333333  0.0000000  )
        43           C   tau(  43) = (  0.8000000  0.0000000  0.0000000  )
        44           C   tau(  44) = (  0.8666667  0.1333333  0.0000000  )
        45           C   tau(  45) = (  0.8000000  0.2000000  0.0000000  )
        46           C   tau(  46) = (  0.8666667  0.3333333  0.0000000  )
        47           C   tau(  47) = (  0.8000000  0.4000000  0.0000000  )
        48           C   tau(  48) = (  0.8666667  0.5333333  0.0000000  )
        49           C   tau(  49) = (  0.8000000  0.6000000  0.0000000  )
        50           C   tau(  50) = (  0.8666667  0.7333333  0.0000000  )
        51           C   tau(  51) = (  0.8000000  0.8000000  0.0000000  )
        52           C   tau(  52) = (  0.8666667  0.9333333  0.0000000  )

     number of k points=     1  Marzari-Vanderbilt smearing, width (Ry)=  0.0010
                       cart. coord. in units 2pi/alat
        k(    1) = (   0.0000000   0.0000000   0.0000000), wk =   1.0000000

                       cryst. coord.
        k(    1) = (   0.0000000   0.0000000   0.0000000), wk =   1.0000000

     Check: negative core charge=   -0.000002

     Initial potential from superposition of free atoms

     starting charge  210.80465, renormalised to  211.00000

     negative rho (up, down):  1.374E-04 1.870E-02

Carrying out rVV10 run using the following parameters:
Nqs =      20    Nr_points =    1024   r_max =   100.000
b_value =  6.30000    beta =  0.00901
     q_mesh =  0.00010000  0.00030000  0.00058939  0.00100810
               0.00161396  0.00249058  0.00375900  0.00559430
               0.00824984  0.01209221  0.01765183  0.02569619
               0.03733578  0.05417739  0.07854596  0.11380545
               0.16482331  0.23864234  0.34545298  0.50000000

Gradients computed in Reciprocal space

     Starting wfcs are  208 randomized atomic wfcs

     Self-consistent Calculation

     iteration #  1     ecut=    70.00 Ry     beta= 0.70
     Davidson diagonalization with overlap
     ethr =  1.00E-02,  avg # of iterations =  3.0

[...]

     total energy              =    -752.03514227 Ry
     Harris-Foulkes estimate   =    -757.17397859 Ry
     estimated scf accuracy    <      13.16633065 Ry

     total magnetization       =     5.00 Bohr mag/cell
     absolute magnetization    =     6.05 Bohr mag/cell

[...]

     total energy              =    -757.31768591 Ry
     Harris-Foulkes estimate   =    -757.31768605 Ry
     estimated scf accuracy    <       0.00000121 Ry

[...]

     iteration # 37     ecut=    70.00 Ry     beta= 0.70
     Davidson diagonalization with overlap
     ethr =  5.75E-10,  avg # of iterations =  1.5

     negative rho (up, down):  3.357E-02 2.993E-03

     Magnetic moment per site:
     atom:    1    charge:    0.2193    magn:   -0.0000    constr:    0.0000
     atom:    2    charge:    0.2071    magn:    0.0005    constr:    0.0000
     atom:    3    charge:    1.7172    magn:   -0.0075    constr:    0.0000
     atom:    4    charge:    1.7164    magn:    0.0120    constr:    0.0000
     atom:    5    charge:    1.7180    magn:   -0.0040    constr:    0.0000
     atom:    6    charge:    1.7141    magn:    0.0022    constr:    0.0000
     atom:    7    charge:    1.7187    magn:   -0.0031    constr:    0.0000
     atom:    8    charge:    1.7149    magn:    0.0042    constr:    0.0000
     atom:    9    charge:    1.7187    magn:   -0.0047    constr:    0.0000
     atom:   10    charge:    1.7110    magn:    0.0099    constr:    0.0000
     atom:   11    charge:    1.7187    magn:   -0.0087    constr:    0.0000
     atom:   12    charge:    1.7159    magn:    0.0403    constr:    0.0000
     atom:   13    charge:    1.7183    magn:   -0.0088    constr:    0.0000
     atom:   14    charge:    1.7125    magn:    0.0073    constr:    0.0000
     atom:   15    charge:    1.7175    magn:   -0.0051    constr:    0.0000
     atom:   16    charge:    1.7092    magn:    0.0144    constr:    0.0000
     atom:   17    charge:    1.7276    magn:   -0.0029    constr:    0.0000
     atom:   18    charge:    1.7094    magn:    0.0215    constr:    0.0000
     atom:   19    charge:    1.7170    magn:   -0.0070    constr:    0.0000
     atom:   20    charge:    1.7153    magn:    0.0302    constr:    0.0000
     atom:   21    charge:    1.7188    magn:   -0.0086    constr:    0.0000
     atom:   22    charge:    1.7162    magn:    0.0418    constr:    0.0000
     atom:   23    charge:    1.7172    magn:   -0.0076    constr:    0.0000
     atom:   24    charge:    1.7164    magn:    0.0122    constr:    0.0000
     atom:   25    charge:    1.7175    magn:   -0.0052    constr:    0.0000
     atom:   26    charge:    1.7099    magn:    0.0160    constr:    0.0000
     atom:   27    charge:    1.9151    magn:   -0.0041    constr:    0.0000
     atom:   28    charge:    7.8614    magn:    0.1000    constr:    0.0000
     atom:   29    charge:    1.9138    magn:    0.0008    constr:    0.0000
     atom:   30    charge:    1.7137    magn:    0.0517    constr:    0.0000
     atom:   31    charge:    1.7162    magn:   -0.0109    constr:    0.0000
     atom:   32    charge:    1.7157    magn:    0.0116    constr:    0.0000
     atom:   33    charge:    1.7182    magn:   -0.0047    constr:    0.0000
     atom:   34    charge:    1.7141    magn:    0.0086    constr:    0.0000
     atom:   35    charge:    1.7181    magn:   -0.0042    constr:    0.0000
     atom:   36    charge:    1.7142    magn:    0.0023    constr:    0.0000
     atom:   37    charge:    1.7274    magn:   -0.0037    constr:    0.0000
     atom:   38    charge:    1.7118    magn:    0.0225    constr:    0.0000
     atom:   39    charge:    1.9162    magn:    0.0005    constr:    0.0000
     atom:   40    charge:    1.7145    magn:    0.0511    constr:    0.0000
     atom:   41    charge:    1.7256    magn:   -0.0088    constr:    0.0000
     atom:   42    charge:    1.7141    magn:    0.0030    constr:    0.0000
     atom:   43    charge:    1.7182    magn:   -0.0048    constr:    0.0000
     atom:   44    charge:    1.7141    magn:    0.0084    constr:    0.0000
     atom:   45    charge:    1.7246    magn:   -0.0029    constr:    0.0000
     atom:   46    charge:    1.7132    magn:    0.0031    constr:    0.0000
     atom:   47    charge:    1.7186    magn:   -0.0034    constr:    0.0000
     atom:   48    charge:    1.7150    magn:    0.0041    constr:    0.0000
     atom:   49    charge:    1.7167    magn:   -0.0072    constr:    0.0000
     atom:   50    charge:    1.7157    magn:    0.0313    constr:    0.0000
     atom:   51    charge:    1.7160    magn:   -0.0109    constr:    0.0000
     atom:   52    charge:    1.7157    magn:    0.0112    constr:    0.0000

     End of self-consistent calculation

 ------ SPIN UP ------------

          k = 0.0000 0.0000 0.0000 ( 87777 PWs)   bands (ev):

   -62.8157 -37.9331 -37.8822 -36.5840 -19.6340 -18.8185 -18.7613 -18.7223
   -18.6878 -18.6585 -18.2378 -16.9423 -16.9401 -16.9202 -16.8088 -16.7854
   -16.5155 -16.0803 -16.0785 -15.9856 -15.8339 -15.8303 -15.0857 -13.9045
   -13.8949 -13.8763 -13.8562 -13.8522 -13.1340 -12.9187 -12.9122 -12.8956
   -12.5063 -12.5060 -12.1144 -11.6471 -11.6403 -11.5176 -11.1429 -11.1372
   -10.1652  -9.3461  -9.3321  -9.2541  -9.1846  -9.1796  -9.0907  -9.0661
    -9.0620  -9.0480  -8.5506  -8.4634  -8.3642  -7.8968  -7.8836  -7.8537
    -7.7256  -7.6729  -7.2554  -7.2441  -6.9713  -6.9001  -6.8502  -6.7004
    -6.6943  -6.6784  -6.5946  -6.5866  -6.5423  -6.4421  -6.4228  -6.3983
    -6.3755  -6.3722  -6.3296  -6.1366  -5.2641  -5.2481  -5.1638  -5.0637
    -4.9440  -4.9415  -4.8308  -4.7421  -4.6202  -4.6082  -4.6012  -4.2120
    -3.9866  -3.9742  -3.7590  -3.7527  -3.6554  -3.6161  -3.4971  -3.4935
    -2.8315  -2.2740  -2.2549  -2.2241  -2.1956  -1.7449  -1.6839  -1.6742
    -0.4992  -0.2540  -0.2383   1.0481   1.0742   1.0874   1.2329   1.8036
     2.0418   2.0551   2.4732   2.8904   2.9014   2.9773   3.4949   3.5224
     3.5277   3.7376   3.7533   3.7886   3.9076   3.9993   4.0080

     occupation numbers
     1.0000   1.0000   1.0000   1.0000   1.0000   1.0000   1.0000   1.0000
     1.0000   1.0000   1.0000   1.0000   1.0000   1.0000   1.0000   1.0000
     1.0000   1.0000   1.0000   1.0000   1.0000   1.0000   1.0000   1.0000
     1.0000   1.0000   1.0000   1.0000   1.0000   1.0000   1.0000   1.0000
     1.0000   1.0000   1.0000   1.0000   1.0000   1.0000   1.0000   1.0000
     1.0000   1.0000   1.0000   1.0000   1.0000   1.0000   1.0000   1.0000
     1.0000   1.0000   1.0000   1.0000   1.0000   1.0000   1.0000   1.0000
     1.0000   1.0000   1.0000   1.0000   1.0000   1.0000   1.0000   1.0000
     1.0000   1.0000   1.0000   1.0000   1.0000   1.0000   1.0000   1.0000
     1.0000   1.0000   1.0000   1.0000   1.0000   1.0000   1.0000   1.0000
     1.0000   1.0000   1.0000   1.0000   1.0000   1.0000   1.0000   1.0000
     1.0000   1.0000   1.0000   1.0000   1.0000   1.0000   1.0000   1.0000
     1.0000   1.0000   1.0000   1.0000   1.0000   1.0000   1.0000   1.0000
     1.0000   0.8642   0.1358   0.0000   0.0000   0.0000   0.0000   0.0000
     0.0000   0.0000   0.0000   0.0000   0.0000   0.0000   0.0000   0.0000
     0.0000   0.0000   0.0000   0.0000   0.0000   0.0000   0.0000

 ------ SPIN DOWN ----------

          k = 0.0000 0.0000 0.0000 ( 87777 PWs)   bands (ev):

   -62.6238 -37.8392 -37.6590 -36.3216 -19.6132 -18.8058 -18.7322 -18.7024
   -18.6739 -18.6405 -18.2049 -16.9293 -16.9263 -16.8952 -16.7866 -16.7526
   -16.5007 -16.0566 -16.0485 -15.9686 -15.8123 -15.8093 -15.0710 -13.8793
   -13.8734 -13.8509 -13.8478 -13.8077 -13.1369 -12.9099 -12.8992 -12.8802
   -12.4996 -12.4964 -12.0963 -11.6268 -11.6246 -11.5048 -11.1290 -11.1262
   -10.1506  -9.3321  -9.3123  -9.2417  -9.1711  -9.1611  -9.0827  -9.0526
    -9.0478  -9.0353  -8.5316  -8.4582  -8.3425  -7.8863  -7.8712  -7.8456
    -7.6814  -7.6640  -7.2460  -7.2357  -6.9127  -6.8733  -6.7776  -6.6692
    -6.6530  -6.6392  -6.5831  -6.5771  -6.5331  -6.4333  -6.4120  -6.3944
    -6.3702  -6.3607  -6.3211  -6.0576  -5.2571  -5.2383  -5.1127  -4.9544
    -4.9347  -4.9311  -4.8249  -4.7358  -4.5861  -4.5674  -4.5354  -4.1738
    -3.9529  -3.9086  -3.6870  -3.6796  -3.6044  -3.5875  -3.4915  -3.4856
    -2.7956  -2.2124  -2.1872  -2.1649  -2.1224  -1.6809  -1.6607  -1.6369
    -0.4956  -0.1033   0.0556   1.0892   1.1054   1.1363   1.3066   1.8710
     2.0985   2.1353   2.4780   2.9603   2.9679   3.0221   3.5009   3.5312
     3.5505   3.7387   3.7559   3.7949   3.9381   4.0581   4.0896

     occupation numbers
     1.0000   1.0000   1.0000   1.0000   1.0000   1.0000   1.0000   1.0000
     1.0000   1.0000   1.0000   1.0000   1.0000   1.0000   1.0000   1.0000
     1.0000   1.0000   1.0000   1.0000   1.0000   1.0000   1.0000   1.0000
     1.0000   1.0000   1.0000   1.0000   1.0000   1.0000   1.0000   1.0000
     1.0000   1.0000   1.0000   1.0000   1.0000   1.0000   1.0000   1.0000
     1.0000   1.0000   1.0000   1.0000   1.0000   1.0000   1.0000   1.0000
     1.0000   1.0000   1.0000   1.0000   1.0000   1.0000   1.0000   1.0000
     1.0000   1.0000   1.0000   1.0000   1.0000   1.0000   1.0000   1.0000
     1.0000   1.0000   1.0000   1.0000   1.0000   1.0000   1.0000   1.0000
     1.0000   1.0000   1.0000   1.0000   1.0000   1.0000   1.0000   1.0000
     1.0000   1.0000   1.0000   1.0000   1.0000   1.0000   1.0000   1.0000
     1.0000   1.0000   1.0000   1.0000   1.0000   1.0000   1.0000   1.0000
     1.0000   1.0000   1.0000   1.0000   1.0000   1.0000   1.0000   1.0000
     1.0000   0.0000   0.0000   0.0000   0.0000   0.0000   0.0000   0.0000
     0.0000   0.0000   0.0000   0.0000   0.0000   0.0000   0.0000   0.0000
     0.0000   0.0000   0.0000   0.0000   0.0000   0.0000   0.0000

     the Fermi energy is    -0.2452 ev

!    total energy              =    -757.31768573 Ry
     Harris-Foulkes estimate   =    -757.31768603 Ry
     estimated scf accuracy    <       0.00000052 Ry

     The total energy is the sum of the following terms:

     one-electron contribution =   -2606.40829452 Ry
     hartree contribution      =    1350.02472386 Ry
     xc contribution           =    -252.72363209 Ry
     ewald contribution        =     751.78965218 Ry
     smearing contrib. (-TS)   =      -0.00013516 Ry

     total magnetization       =     1.00 Bohr mag/cell
     absolute magnetization    =     1.54 Bohr mag/cell

     convergence has been achieved in  37 iterations

     Writing output data file gr-12-baricentro.save/

     General routines

     Parallel routines

   This run was terminated on:   4:17: 0  24Aug2022

   JOB DONE.