     Program PWSCF v.6.4.1 starts on 16Sep2022 at  0:17:18

     R & G space division:  proc/nbgrp/npool/nimage =       6
     Reading input from cu-relax.in

     Current dimensions of program PWSCF are:
     Max number of different atomic species (ntypx) = 10
     Max number of k-points (npk) =  40000
     Max angular momentum in pseudopotentials (lmaxx) =  3

     IMPORTANT: XC functional enforced from input :
     Exchange-correlation      = RVV10 ( 1  4 13  4 3 0)
     Any further DFT definition will be discarded
     Please, verify this is what you really want

               file H.pbe-rrkjus.UPF: wavefunction(s)  1S renormalized
               file Cu.pbe-dn-rrkjus_psl.1.0.0.UPF: wavefunction(s)  3D renormalized

     Subspace diagonalization in iterative solution of the eigenvalue problem:
     a serial algorithm will be used

     bravais-lattice index     =            4
     lattice parameter (alat)  =      23.2937  a.u.
     unit-cell volume          =    8879.8548 (a.u.)^3
     number of atoms/cell      =           52
     number of atomic types    =            3
     number of electrons       =       209.00
     number of Kohn-Sham states=          126
     kinetic-energy cutoff     =      70.0000  Ry
     charge density cutoff     =     490.0000  Ry
     convergence threshold     =      1.0E-10
     mixing beta               =       0.7000
     number of iterations used =            8  plain     mixing
     Exchange-correlation      = RVV10 ( 1  4 13  4 3 0)
     nstep                     =           50

     celldm(1)=  23.293684  celldm(2)=   0.000000  celldm(3)=   0.811261
     celldm(4)=   0.000000  celldm(5)=   0.000000  celldm(6)=   0.000000

     crystal axes: (cart. coord. in units of alat)
               a(1) = (   1.000000   0.000000   0.000000 )
               a(2) = (  -0.500000   0.866025   0.000000 )
               a(3) = (   0.000000   0.000000   0.811261 )

     reciprocal axes: (cart. coord. in units 2 pi/alat)
               b(1) = (  1.000000  0.577350 -0.000000 )
               b(2) = (  0.000000  1.154701  0.000000 )
               b(3) = (  0.000000 -0.000000  1.232649 )

     PseudoPot. # 1 for H  read from file:
     /home/cristian/Escritorio/Proyecto_Grafeno/pseudopotenciales/H.pbe-rrkjus.UPF
     MD5 check sum: 7cc9d459525c9a0585f487a71c3c9563
     Pseudo is Ultrasoft, Zval =  1.0
     Generated by new atomic code, or converted to UPF format
     Using radial grid of 1061 points,  2 beta functions with:
                l(1) =   0
                l(2) =   0
     Q(r) pseudized with 0 coefficients

     PseudoPot. # 2 for C  read from file:
     /home/cristian/Escritorio/Proyecto_Grafeno/pseudopotenciales/C.pbe-n-rrkjus_psl.1.0.0.UPF
     MD5 check sum: 1fdd950c42eb37d8afe3dd2f8d12311e
     Pseudo is Ultrasoft + core correction, Zval =  4.0
     Generated using "atomic" code by A. Dal Corso v.6.3MaX
     Using radial grid of 1073 points,  4 beta functions with:
                l(1) =   0
                l(2) =   0
                l(3) =   1
                l(4) =   1
     Q(r) pseudized with 0 coefficients

     PseudoPot. # 3 for Cu read from file:
     /home/cristian/Escritorio/Proyecto_Grafeno/pseudopotenciales/Cu.pbe-dn-rrkjus_psl.1.0.0.UPF
     MD5 check sum: ba3d6c84e19846e79d48cdc68ff7152b
     Pseudo is Ultrasoft + core correction, Zval = 11.0
     Generated using "atomic" code by A. Dal Corso v.6.3
     Using radial grid of 1199 points,  6 beta functions with:
                l(1) =   0
                l(2) =   0
                l(3) =   1
                l(4) =   1
                l(5) =   2
                l(6) =   2
     Q(r) pseudized with 0 coefficients

     vdW kernel table read from file rVV10_kernel_table
     MD5 check sum: b8e2538accc0c0b3206b45ba4daaba6c

     atomic species   valence    mass     pseudopotential
        H              1.00     1.00794     H ( 1.00)
        C              4.00    12.01070     C ( 1.00)
        Cu            11.00    63.54600     Cu( 1.00)

     Starting magnetic structure
     atomic species   magnetization
        H            0.500
        C            0.300
        Cu           0.800

     No symmetry found

                                    s                        frac. trans.

      isym =  1     identity

 cryst.   s( 1) = (     1          0          0      )
                  (     0          1          0      )
                  (     0          0          1      )

 cart.    s( 1) = (  1.0000000  0.0000000  0.0000000 )
                  (  0.0000000  1.0000000  0.0000000 )
                  (  0.0000000  0.0000000  1.0000000 )

     point group C_1 (1)
     there are  1 classes
     the character table:

       E
A      1.00

     the symmetry operations in each class and the name of the first element:

     E        1
          identity

   Cartesian axes

     site n.     atom                  positions (alat units)
         1           H   tau(   1) = (   0.3305063   0.4041452   0.2433783  )
         2           H   tau(   2) = (   0.2694937   0.4041452   0.2433783  )
         3           C   tau(   3) = (   0.0000000   0.0000000   0.0000000  )
         4           C   tau(   4) = (   0.0000000   0.1154701   0.0000000  )
         5           C   tau(   5) = (  -0.1000000   0.1732051   0.0000000  )
         6           C   tau(   6) = (  -0.1000000   0.2886751   0.0000000  )
         7           C   tau(   7) = (  -0.2000000   0.3464102   0.0000000  )
         8           C   tau(   8) = (  -0.2000000   0.4618802   0.0000000  )
         9           C   tau(   9) = (  -0.3000000   0.5196152   0.0000000  )
        10           C   tau(  10) = (  -0.3000000   0.6350853   0.0000000  )
        11           C   tau(  11) = (  -0.4000000   0.6928203   0.0000000  )
        12           C   tau(  12) = (  -0.4000000   0.8082904   0.0000000  )
        13           C   tau(  13) = (   0.2000000   0.0000000   0.0000000  )
        14           C   tau(  14) = (   0.2000000   0.1154701   0.0000000  )
        15           C   tau(  15) = (   0.1000000   0.1732051   0.0000000  )
        16           C   tau(  16) = (   0.1000000   0.2886751   0.0000000  )
        17           C   tau(  17) = (   0.0000000   0.3464102   0.0000000  )
        18           C   tau(  18) = (   0.0000000   0.4618802   0.0000000  )
        19           C   tau(  19) = (  -0.1000000   0.5196152   0.0000000  )
        20           C   tau(  20) = (  -0.1000000   0.6350853   0.0000000  )
        21           C   tau(  21) = (  -0.2000000   0.6928203   0.0000000  )
        22           C   tau(  22) = (  -0.2000000   0.8082904   0.0000000  )
        23           C   tau(  23) = (   0.4000000   0.0000000   0.0000000  )
        24           C   tau(  24) = (   0.4000000   0.1154701   0.0000000  )
        25           C   tau(  25) = (   0.3000000   0.1732051   0.0000000  )
        26           C   tau(  26) = (   0.3000000   0.2886751   0.0000000  )
        27           C   tau(  27) = (   0.2000000   0.3464102   0.0000000  )
        28           Cu  tau(  28) = (   0.2000000   0.4618802   0.0000000  )
        29           C   tau(  29) = (   0.1000000   0.5196152   0.0000000  )
        30           C   tau(  30) = (   0.1000000   0.6350853   0.0000000  )
        31           C   tau(  31) = (   0.0000000   0.6928203   0.0000000  )
        32           C   tau(  32) = (   0.0000000   0.8082904   0.0000000  )
        33           C   tau(  33) = (   0.6000000   0.0000000   0.0000000  )
        34           C   tau(  34) = (   0.6000000   0.1154701   0.0000000  )
        35           C   tau(  35) = (   0.5000000   0.1732051   0.0000000  )
        36           C   tau(  36) = (   0.5000000   0.2886751   0.0000000  )
        37           C   tau(  37) = (   0.4000000   0.3464102   0.0000000  )
        38           C   tau(  38) = (   0.4000000   0.4618802   0.0000000  )
        39           C   tau(  39) = (   0.3000000   0.5196152   0.0000000  )
        40           C   tau(  40) = (   0.3000000   0.6350853   0.0000000  )
        41           C   tau(  41) = (   0.2000000   0.6928203   0.0000000  )
        42           C   tau(  42) = (   0.2000000   0.8082904   0.0000000  )
        43           C   tau(  43) = (   0.8000000   0.0000000   0.0000000  )
        44           C   tau(  44) = (   0.8000000   0.1154701   0.0000000  )
        45           C   tau(  45) = (   0.7000000   0.1732051   0.0000000  )
        46           C   tau(  46) = (   0.7000000   0.2886751   0.0000000  )
        47           C   tau(  47) = (   0.6000000   0.3464102   0.0000000  )
        48           C   tau(  48) = (   0.6000000   0.4618802   0.0000000  )
        49           C   tau(  49) = (   0.5000000   0.5196152   0.0000000  )
        50           C   tau(  50) = (   0.5000000   0.6350853   0.0000000  )
        51           C   tau(  51) = (   0.4000000   0.6928203   0.0000000  )
        52           C   tau(  52) = (   0.4000000   0.8082904   0.0000000  )

   Crystallographic axes

     site n.     atom                  positions (cryst. coord.)
         1           H   tau(   1) = (  0.5638397  0.4666667  0.3000000  )
         2           H   tau(   2) = (  0.5028270  0.4666667  0.3000000  )
         3           C   tau(   3) = (  0.0000000  0.0000000  0.0000000  )
         4           C   tau(   4) = (  0.0666667  0.1333333  0.0000000  )
         5           C   tau(   5) = (  0.0000000  0.2000000  0.0000000  )
         6           C   tau(   6) = (  0.0666667  0.3333333  0.0000000  )
         7           C   tau(   7) = (  0.0000000  0.4000000  0.0000000  )
         8           C   tau(   8) = (  0.0666667  0.5333333  0.0000000  )
         9           C   tau(   9) = (  0.0000000  0.6000000  0.0000000  )
        10           C   tau(  10) = (  0.0666667  0.7333333  0.0000000  )
        11           C   tau(  11) = (  0.0000000  0.8000000  0.0000000  )
        12           C   tau(  12) = (  0.0666667  0.9333333  0.0000000  )
        13           C   tau(  13) = (  0.2000000  0.0000000  0.0000000  )
        14           C   tau(  14) = (  0.2666667  0.1333333  0.0000000  )
        15           C   tau(  15) = (  0.2000000  0.2000000  0.0000000  )
        16           C   tau(  16) = (  0.2666667  0.3333333  0.0000000  )
        17           C   tau(  17) = (  0.2000000  0.4000000  0.0000000  )
        18           C   tau(  18) = (  0.2666667  0.5333333  0.0000000  )
        19           C   tau(  19) = (  0.2000000  0.6000000  0.0000000  )
        20           C   tau(  20) = (  0.2666667  0.7333333  0.0000000  )
        21           C   tau(  21) = (  0.2000000  0.8000000  0.0000000  )
        22           C   tau(  22) = (  0.2666667  0.9333333  0.0000000  )
        23           C   tau(  23) = (  0.4000000  0.0000000  0.0000000  )
        24           C   tau(  24) = (  0.4666667  0.1333333  0.0000000  )
        25           C   tau(  25) = (  0.4000000  0.2000000  0.0000000  )
        26           C   tau(  26) = (  0.4666667  0.3333333  0.0000000  )
        27           C   tau(  27) = (  0.4000000  0.4000000  0.0000000  )
        28           Cu  tau(  28) = (  0.4666667  0.5333333  0.0000000  )
[...]
     atom   34 type  2   force =    -0.20390299   -0.02970268    0.68320798
     atom   35 type  2   force =    -0.20614214    0.18717672    0.32680117
     atom   36 type  2   force =    -0.66993178    0.32844388    0.21310792
     atom   37 type  2   force =    -0.82638042    0.43691040    0.44582637
     atom   38 type  2   force =    -1.30590167    0.16743410    1.68253840
     atom   39 type  2   force =     0.63480629    0.03364617    5.08183251
     atom   40 type  2   force =    -0.25193304   -1.14147400    1.96413488
     atom   41 type  2   force =    -0.03686446   -0.74990539    0.96200874
     atom   42 type  2   force =    -0.13957660   -0.47240588    1.22346459
     atom   43 type  2   force =    -0.01637313   -0.27847064    0.90083216
     atom   44 type  2   force =    -0.09000490   -0.05146863    0.74815724
     atom   45 type  2   force =    -0.08361186   -0.01704118    0.66117283
     atom   46 type  2   force =    -0.15783925    0.09195759    0.57224861
     atom   47 type  2   force =    -0.31647088    0.10237924    0.38141078
     atom   48 type  2   force =    -0.35447319   -0.02986333    0.53132913
     atom   49 type  2   force =    -0.66080000   -0.15389315    0.87388741
     atom   50 type  2   force =    -0.42965783   -0.35555469    0.98224528
     atom   51 type  2   force =    -0.27774834   -0.54641126    0.99902701
     atom   52 type  2   force =    -0.18164033   -0.24719236    0.58088685
     The core correction contribution to forces
     atom    1 type  1   force =     0.00000000    0.00000000    0.00000000
     atom    2 type  1   force =     0.00000000    0.00000000    0.00000000
     atom    3 type  2   force =    -0.00002907   -0.00007476    0.00005127
     atom    4 type  2   force =    -0.00029883    0.00012357    0.00012173
     atom    5 type  2   force =     0.00004637   -0.00012771    0.00015804
     atom    6 type  2   force =     0.00011000    0.00028710   -0.00004846
     atom    7 type  2   force =    -0.00007739    0.00001556    0.00027515
     atom    8 type  2   force =     0.00004848   -0.00010860    0.00005125
     atom    9 type  2   force =     0.00002213    0.00009441    0.00007199
     atom   10 type  2   force =     0.00008459   -0.00013898    0.00023597
     atom   11 type  2   force =     0.00007435    0.00008729    0.00000523
     atom   12 type  2   force =     0.00002027   -0.00006857    0.00016201
     atom   13 type  2   force =    -0.00010768   -0.00008105    0.00004277
     atom   14 type  2   force =    -0.00006618   -0.00015122    0.00013872
     atom   15 type  2   force =    -0.00009263   -0.00039466   -0.00022955
     atom   16 type  2   force =     0.00017078    0.00028601   -0.00049263
     atom   17 type  2   force =    -0.00039434   -0.00005507    0.00112878
     atom   18 type  2   force =     0.00038620    0.00018298   -0.00050363
     atom   19 type  2   force =    -0.00012495    0.00014860   -0.00035876
     atom   20 type  2   force =    -0.00013096    0.00011086    0.00053267
     atom   21 type  2   force =    -0.00008288   -0.00008549    0.00015966
     atom   22 type  2   force =    -0.00005285   -0.00009712    0.00027984
     atom   23 type  2   force =     0.00005171    0.00004632    0.00011439
     atom   24 type  2   force =    -0.00015092   -0.00024094    0.00003678
     atom   25 type  2   force =     0.00032464   -0.00034198   -0.00024325
     atom   26 type  2   force =    -0.00084493   -0.00006406   -0.00058530
     atom   27 type  2   force =     0.00035287   -0.00068399    0.00143624
     atom   28 type  3   force =    -0.02080649   -0.00649994   -0.04854302
     atom   29 type  2   force =     0.00182505   -0.00040768    0.00442421
     atom   30 type  2   force =    -0.00017934   -0.00077956   -0.00021136
     atom   31 type  2   force =     0.00001138    0.00013639   -0.00029252
     atom   32 type  2   force =    -0.00006325    0.00002082   -0.00001049
     atom   33 type  2   force =    -0.00000816    0.00014158    0.00040082
     atom   34 type  2   force =     0.00000104    0.00006007    0.00014638
     atom   35 type  2   force =     0.00041610   -0.00011854    0.00018306
     atom   36 type  2   force =    -0.00037489    0.00010952   -0.00014296
     atom   37 type  2   force =     0.00028964   -0.00043231   -0.00061311
     atom   38 type  2   force =    -0.00045688    0.00032617   -0.00010432
     atom   39 type  2   force =    -0.00066337   -0.00080501   -0.00557893
     atom   40 type  2   force =    -0.00010583   -0.00021546    0.00006411
     atom   41 type  2   force =    -0.00044877    0.00002916   -0.00008148
     atom   42 type  2   force =    -0.00019192   -0.00017439    0.00012439
     atom   43 type  2   force =     0.00013441    0.00010059    0.00017193
     atom   44 type  2   force =    -0.00022543    0.00011380    0.00009809
     atom   45 type  2   force =     0.00012108   -0.00003754    0.00019436
     atom   46 type  2   force =    -0.00000460   -0.00000652   -0.00007635
     atom   47 type  2   force =     0.00037075   -0.00005525    0.00003898
     atom   48 type  2   force =     0.00021985   -0.00013389    0.00002928
     atom   49 type  2   force =     0.00060726    0.00029924   -0.00005097
     atom   50 type  2   force =    -0.00000326   -0.00001064    0.00016634
     atom   51 type  2   force =     0.00038995    0.00038264    0.00005931
     atom   52 type  2   force =    -0.00017112    0.00034391    0.00013388
     The Hubbard contrib.    to forces
     atom    1 type  1   force =     0.00000000    0.00000000    0.00000000
     atom    2 type  1   force =     0.00000000    0.00000000    0.00000000
     atom    3 type  2   force =     0.00000000    0.00000000    0.00000000
     atom    4 type  2   force =     0.00000000    0.00000000    0.00000000
     atom    5 type  2   force =     0.00000000    0.00000000    0.00000000
     atom    6 type  2   force =     0.00000000    0.00000000    0.00000000
     atom    7 type  2   force =     0.00000000    0.00000000    0.00000000
     atom    8 type  2   force =     0.00000000    0.00000000    0.00000000
     atom    9 type  2   force =     0.00000000    0.00000000    0.00000000
     atom   10 type  2   force =     0.00000000    0.00000000    0.00000000
     atom   11 type  2   force =     0.00000000    0.00000000    0.00000000
     atom   12 type  2   force =     0.00000000    0.00000000    0.00000000
     atom   13 type  2   force =     0.00000000    0.00000000    0.00000000
     atom   14 type  2   force =     0.00000000    0.00000000    0.00000000
     atom   15 type  2   force =     0.00000000    0.00000000    0.00000000
     atom   16 type  2   force =     0.00000000    0.00000000    0.00000000
     atom   17 type  2   force =     0.00000000    0.00000000    0.00000000
     atom   18 type  2   force =     0.00000000    0.00000000    0.00000000
     atom   19 type  2   force =     0.00000000    0.00000000    0.00000000
     atom   20 type  2   force =     0.00000000    0.00000000    0.00000000
     atom   21 type  2   force =     0.00000000    0.00000000    0.00000000
     atom   22 type  2   force =     0.00000000    0.00000000    0.00000000
     atom   23 type  2   force =     0.00000000    0.00000000    0.00000000
     atom   24 type  2   force =     0.00000000    0.00000000    0.00000000
     atom   25 type  2   force =     0.00000000    0.00000000    0.00000000
     atom   26 type  2   force =     0.00000000    0.00000000    0.00000000
     atom   27 type  2   force =     0.00000000    0.00000000    0.00000000
     atom   28 type  3   force =     0.00000000    0.00000000    0.00000000
     atom   29 type  2   force =     0.00000000    0.00000000    0.00000000
     atom   30 type  2   force =     0.00000000    0.00000000    0.00000000
     atom   31 type  2   force =     0.00000000    0.00000000    0.00000000
     atom   32 type  2   force =     0.00000000    0.00000000    0.00000000
     atom   33 type  2   force =     0.00000000    0.00000000    0.00000000
     atom   34 type  2   force =     0.00000000    0.00000000    0.00000000
     atom   35 type  2   force =     0.00000000    0.00000000    0.00000000
     atom   36 type  2   force =     0.00000000    0.00000000    0.00000000
     atom   37 type  2   force =     0.00000000    0.00000000    0.00000000
     atom   38 type  2   force =     0.00000000    0.00000000    0.00000000
     atom   39 type  2   force =     0.00000000    0.00000000    0.00000000
     atom   40 type  2   force =     0.00000000    0.00000000    0.00000000
     atom   41 type  2   force =     0.00000000    0.00000000    0.00000000
     atom   42 type  2   force =     0.00000000    0.00000000    0.00000000
     atom   43 type  2   force =     0.00000000    0.00000000    0.00000000
     atom   44 type  2   force =     0.00000000    0.00000000    0.00000000
     atom   45 type  2   force =     0.00000000    0.00000000    0.00000000
     atom   46 type  2   force =     0.00000000    0.00000000    0.00000000
     atom   47 type  2   force =     0.00000000    0.00000000    0.00000000
     atom   48 type  2   force =     0.00000000    0.00000000    0.00000000
     atom   49 type  2   force =     0.00000000    0.00000000    0.00000000
     atom   50 type  2   force =     0.00000000    0.00000000    0.00000000
     atom   51 type  2   force =     0.00000000    0.00000000    0.00000000
     atom   52 type  2   force =     0.00000000    0.00000000    0.00000000
     The SCF correction term to forces
     atom    1 type  1   force =    -0.00000006    0.00000006   -0.00000005
     atom    2 type  1   force =    -0.00000005    0.00000007   -0.00000007
     atom    3 type  2   force =    -0.00000026   -0.00000015   -0.00000000
     atom    4 type  2   force =    -0.00000002   -0.00000002    0.00000001
     atom    5 type  2   force =     0.00000007    0.00000010    0.00000002
     atom    6 type  2   force =     0.00000003    0.00000028    0.00000003
     atom    7 type  2   force =     0.00000014    0.00000044    0.00000002
     atom    8 type  2   force =     0.00000001    0.00000017    0.00000003
     atom    9 type  2   force =     0.00000014    0.00000001    0.00000001
     atom   10 type  2   force =     0.00000010   -0.00000027   -0.00000001
     atom   11 type  2   force =    -0.00000016   -0.00000044   -0.00000002
     atom   12 type  2   force =    -0.00000020   -0.00000021   -0.00000002
     atom   13 type  2   force =    -0.00000005    0.00000003   -0.00000001
     atom   14 type  2   force =    -0.00000021    0.00000009   -0.00000000
     atom   15 type  2   force =     0.00000003    0.00000010    0.00000001
     atom   16 type  2   force =     0.00000015    0.00000044    0.00000012
     atom   17 type  2   force =     0.00000005    0.00000051    0.00000011
     atom   18 type  2   force =     0.00000025    0.00000021    0.00000011
     atom   19 type  2   force =     0.00000012    0.00000004    0.00000006
     atom   20 type  2   force =     0.00000017   -0.00000007    0.00000004
     atom   21 type  2   force =     0.00000019   -0.00000047    0.00000002
     atom   22 type  2   force =     0.00000019   -0.00000035    0.00000000
     atom   23 type  2   force =     0.00000025   -0.00000026   -0.00000000
     atom   24 type  2   force =     0.00000020   -0.00000017   -0.00000002
     atom   25 type  2   force =    -0.00000017    0.00000009    0.00000002
     atom   26 type  2   force =    -0.00000023    0.00000072    0.00000014
     atom   27 type  2   force =     0.00000001    0.00000106    0.00000035
     atom   28 type  3   force =    -0.00000002    0.00000080   -0.00000044
     atom   29 type  2   force =     0.00000051   -0.00000012    0.00000023
     atom   30 type  2   force =     0.00000022   -0.00000015    0.00000005
     atom   31 type  2   force =     0.00000019   -0.00000032    0.00000004
     atom   32 type  2   force =     0.00000023   -0.00000041    0.00000003
     atom   33 type  2   force =     0.00000014   -0.00000045    0.00000002
     atom   34 type  2   force =    -0.00000005   -0.00000033   -0.00000000
     atom   35 type  2   force =     0.00000004   -0.00000019   -0.00000002
     atom   36 type  2   force =     0.00000001    0.00000029    0.00000000
     atom   37 type  2   force =    -0.00000037    0.00000069    0.00000008
     atom   38 type  2   force =    -0.00000064    0.00000045    0.00000012
     atom   39 type  2   force =    -0.00000053    0.00000007    0.00000037
     atom   40 type  2   force =    -0.00000016   -0.00000048    0.00000015
     atom   41 type  2   force =     0.00000012   -0.00000042    0.00000008
     atom   42 type  2   force =     0.00000003   -0.00000043    0.00000004
     atom   43 type  2   force =    -0.00000009   -0.00000047    0.00000001
     atom   44 type  2   force =     0.00000010   -0.00000028    0.00000000
     atom   45 type  2   force =     0.00000003   -0.00000006   -0.00000000
     atom   46 type  2   force =     0.00000005    0.00000040    0.00000000
     atom   47 type  2   force =     0.00000016    0.00000045   -0.00000001
     atom   48 type  2   force =     0.00000009    0.00000017    0.00000000
     atom   49 type  2   force =    -0.00000028    0.00000021    0.00000004
     atom   50 type  2   force =    -0.00000031   -0.00000013    0.00000001
     atom   51 type  2   force =    -0.00000034   -0.00000042    0.00000005
     atom   52 type  2   force =    -0.00000024   -0.00000035    0.00000001

     Total force =     0.026207     Total SCF correction =     0.000003

     number of scf cycles    =  50
     number of bfgs steps    =  49

     energy   old            =    -735.5815008059 Ry
     energy   new            =    -735.5825073632 Ry

     CASE: energy  _new < energy  _old

     new trust radius        =       0.0456615612 bohr
     new conv_thr            =            5.6E-12 Ry

ATOMIC_POSITIONS (angstrom)
H        4.131488627   5.236993128   2.866492889
H        3.404581920   5.040049171   3.041175098
C       -0.013762016  -0.007022875  -0.105796043
C       -0.005798186   1.418875373  -0.059887066
C       -1.230777818   2.140723980  -0.068511392
C       -1.217109195   3.571155265   0.002678582
C       -2.459573002   4.272500862  -0.059178047
C       -2.464912231   5.692692839  -0.082437942
C       -3.700496967   6.400719751  -0.126684892
C       -3.713168937   7.822590808  -0.149206948
C       -4.944685363   8.531399153  -0.154719942
C       -4.944875259   9.953789422  -0.133746304
C        2.451088809  -0.012225399  -0.113198591
C        2.459355007   1.405352613  -0.027945457
C        1.229852839   2.125668140   0.004517898
C        1.245857623   3.556112612   0.156000691
C        0.006561240   4.284673672   0.175399520
C       -0.012422427   5.717334961   0.270185525
C       -1.239698905   6.410589628   0.007373619
C       -1.251141675   7.831627507  -0.067434782
C       -2.481687837   8.533451606  -0.146295349
C       -2.478229591   9.954962142  -0.146476412
C        4.921249363  -0.015340023  -0.141631547
C        4.938944345   1.398541173  -0.066675710
C        3.706457193   2.092340424   0.012529241
C        3.724526992   3.504388190   0.145914392
C        2.507950428   4.150049710   0.351897843
Cu       2.597363680   5.732369662   1.472115778
C        1.104105565   6.522108869   0.633109132
C        1.192376013   7.861926070   0.200976517
C       -0.023597462   8.549644261  -0.049397362
C       -0.008646442   9.962910778  -0.152483977
C        7.386899795  -0.002388619  -0.149300875
C        7.402081247   1.416710187  -0.128385086
C        6.169981900   2.115583005  -0.058763000
C        6.174592230   3.538693312  -0.013050720
C        4.952117400   4.233282575   0.072461844
C        4.929412374   5.668224032   0.008392476
C        3.728200088   6.393508669  -0.004784592
C        3.667975139   7.803351619  -0.034577941
C        2.436132499   8.542750614   0.021822734
C        2.451049433   9.954036549  -0.120059083
C        9.851361050  -0.003919983  -0.141947574
C        9.865334800   1.421490623  -0.132561092
C        8.633523064   2.131940525  -0.126364372
C        8.637362402   3.554573841  -0.097280050
C        7.405397686   4.260874990  -0.071294694
C        7.397645597   5.682806308  -0.090285840
C        6.165462042   6.394907237  -0.076311904
C        6.147956851   7.817545982  -0.123788218
C        4.912267214   8.528051015  -0.106989260
C        4.914830405   9.954920195  -0.115591717

     Writing output data file cobre-sixhollow-3.0.save/
     NEW-OLD atomic charge density approx. for the potential

     Check: negative core charge=   -0.000002

     negative rho (up, down):  7.929E-04 2.646E-03

     Writing output data file cobre-sixhollow-3.0.save/

     General routines

     Parallel routines

   This run was terminated on:  14:58: 9  17Sep2022

   JOB DONE.