     Program PWSCF v.6.4.1 starts on 17Sep2022 at 19:58:26

     R & G space division:  proc/nbgrp/npool/nimage =       6
     Reading input from cu-relax-2.in

     Current dimensions of program PWSCF are:
     Max number of different atomic species (ntypx) = 10
     Max number of k-points (npk) =  40000
     Max angular momentum in pseudopotentials (lmaxx) =  3

     IMPORTANT: XC functional enforced from input :
     Exchange-correlation      = RVV10 ( 1  4 13  4 3 0)
     Any further DFT definition will be discarded
     Please, verify this is what you really want

               file H.pbe-rrkjus.UPF: wavefunction(s)  1S renormalized
               file Cu.pbe-dn-rrkjus_psl.1.0.0.UPF: wavefunction(s)  3D renormalized

     Subspace diagonalization in iterative solution of the eigenvalue problem:
     a serial algorithm will be used

     bravais-lattice index     =            4
     lattice parameter (alat)  =      23.2937  a.u.
     unit-cell volume          =    8879.8548 (a.u.)^3
     number of atoms/cell      =           52
     number of atomic types    =            3
     number of electrons       =       209.00
     number of Kohn-Sham states=          126
     kinetic-energy cutoff     =      70.0000  Ry
     charge density cutoff     =     490.0000  Ry
     convergence threshold     =      1.0E-10
     mixing beta               =       0.7000
     number of iterations used =            8  plain     mixing
     Exchange-correlation      = RVV10 ( 1  4 13  4 3 0)
     nstep                     =           50

     celldm(1)=  23.293684  celldm(2)=   0.000000  celldm(3)=   0.811261
     celldm(4)=   0.000000  celldm(5)=   0.000000  celldm(6)=   0.000000

     crystal axes: (cart. coord. in units of alat)
               a(1) = (   1.000000   0.000000   0.000000 )
               a(2) = (  -0.500000   0.866025   0.000000 )
               a(3) = (   0.000000   0.000000   0.811261 )

     reciprocal axes: (cart. coord. in units 2 pi/alat)
               b(1) = (  1.000000  0.577350 -0.000000 )
               b(2) = (  0.000000  1.154701  0.000000 )
               b(3) = (  0.000000 -0.000000  1.232649 )

     PseudoPot. # 1 for H  read from file:
     /home/cristian/Escritorio/Proyecto_Grafeno/pseudopotenciales/H.pbe-rrkjus.UPF
     MD5 check sum: 7cc9d459525c9a0585f487a71c3c9563
     Pseudo is Ultrasoft, Zval =  1.0
     Generated by new atomic code, or converted to UPF format
     Using radial grid of 1061 points,  2 beta functions with:
                l(1) =   0
                l(2) =   0
     Q(r) pseudized with 0 coefficients

     PseudoPot. # 2 for C  read from file:
     /home/cristian/Escritorio/Proyecto_Grafeno/pseudopotenciales/C.pbe-n-rrkjus_psl.1.0.0.UPF
     MD5 check sum: 1fdd950c42eb37d8afe3dd2f8d12311e
     Pseudo is Ultrasoft + core correction, Zval =  4.0
     Generated using "atomic" code by A. Dal Corso v.6.3MaX
     Using radial grid of 1073 points,  4 beta functions with:
                l(1) =   0
                l(2) =   0
                l(3) =   1
                l(4) =   1
     Q(r) pseudized with 0 coefficients

     PseudoPot. # 3 for Cu read from file:
     /home/cristian/Escritorio/Proyecto_Grafeno/pseudopotenciales/Cu.pbe-dn-rrkjus_psl.1.0.0.UPF
     MD5 check sum: ba3d6c84e19846e79d48cdc68ff7152b
     Pseudo is Ultrasoft + core correction, Zval = 11.0
     Generated using "atomic" code by A. Dal Corso v.6.3
     Using radial grid of 1199 points,  6 beta functions with:
                l(1) =   0
                l(2) =   0
                l(3) =   1
                l(4) =   1
                l(5) =   2
                l(6) =   2
     Q(r) pseudized with 0 coefficients

     vdW kernel table read from file rVV10_kernel_table
     MD5 check sum: b8e2538accc0c0b3206b45ba4daaba6c

     atomic species   valence    mass     pseudopotential
        H              1.00     1.00794     H ( 1.00)
        C              4.00    12.01070     C ( 1.00)
        Cu            11.00    63.54600     Cu( 1.00)

     Starting magnetic structure
     atomic species   magnetization
        H            0.500
        C            0.300
        Cu           0.800

     No symmetry found

                                    s                        frac. trans.

      isym =  1     identity

 cryst.   s( 1) = (     1          0          0      )
                  (     0          1          0      )
                  (     0          0          1      )

 cart.    s( 1) = (  1.0000000  0.0000000  0.0000000 )
                  (  0.0000000  1.0000000  0.0000000 )
                  (  0.0000000  0.0000000  1.0000000 )

     point group C_1 (1)
     there are  1 classes
     the character table:

       E
A      1.00

     the symmetry operations in each class and the name of the first element:

     E        1
          identity

   Cartesian axes

     site n.     atom                  positions (alat units)
         1           H   tau(   1) = (   0.3351716   0.4248569   0.2325474  )
         2           H   tau(   2) = (   0.2762005   0.4088796   0.2467187  )
         3           C   tau(   3) = (  -0.0011165  -0.0005697  -0.0085828  )
         4           C   tau(   4) = (  -0.0004704   0.1151078  -0.0048584  )
         5           C   tau(   5) = (  -0.0998482   0.1736686  -0.0055581  )
         6           C   tau(   6) = (  -0.0987393   0.2897140   0.0002173  )
         7           C   tau(   7) = (  -0.1995356   0.3466114  -0.0048009  )
         8           C   tau(   8) = (  -0.1999688   0.4618261  -0.0066879  )
         9           C   tau(   9) = (  -0.3002069   0.5192655  -0.0102775  )
        10           C   tau(  10) = (  -0.3012350   0.6346164  -0.0121046  )
        11           C   tau(  11) = (  -0.4011431   0.6921193  -0.0125518  )
        12           C   tau(  12) = (  -0.4011585   0.8075123  -0.0108503  )
        13           C   tau(  13) = (   0.1988473  -0.0009918  -0.0091834  )
        14           C   tau(  14) = (   0.1995179   0.1140108  -0.0022671  )
        15           C   tau(  15) = (   0.0997732   0.1724472   0.0003665  )
        16           C   tau(  16) = (   0.1010716   0.2884936   0.0126557  )
        17           C   tau(  17) = (   0.0005323   0.3475989   0.0142295  )
        18           C   tau(  18) = (  -0.0010078   0.4638252   0.0219191  )
        19           C   tau(  19) = (  -0.1005720   0.5200662   0.0005982  )
        20           C   tau(  20) = (  -0.1015003   0.6353495  -0.0054707  )
        21           C   tau(  21) = (  -0.2013297   0.6922858  -0.0118684  )
        22           C   tau(  22) = (  -0.2010491   0.8076074  -0.0118831  )
        23           C   tau(  23) = (   0.3992418  -0.0012445  -0.0114900  )
        24           C   tau(  24) = (   0.4006774   0.1134582  -0.0054091  )
        25           C   tau(  25) = (   0.3006905   0.1697435   0.0010164  )
        26           C   tau(  26) = (   0.3021564   0.2842974   0.0118375  )
        27           C   tau(  27) = (   0.2034603   0.3366774   0.0285481  )
        28           Cu  tau(  28) = (   0.2107140   0.4650449   0.1194270  )
        29           C   tau(  29) = (   0.0895718   0.5291134   0.0513617  )
        30           C   tau(  30) = (   0.0967328   0.6378075   0.0163044  )
        31           C   tau(  31) = (  -0.0019144   0.6935994  -0.0040074  )
        32           C   tau(  32) = (  -0.0007015   0.8082523  -0.0123704  )
        33           C   tau(  33) = (   0.5992705  -0.0001938  -0.0121122  )
        34           C   tau(  34) = (   0.6005021   0.1149322  -0.0104154  )
        35           C   tau(  35) = (   0.5005467   0.1716290  -0.0047672  )
        36           C   tau(  36) = (   0.5009207   0.2870804  -0.0010588  )
        37           C   tau(  37) = (   0.4017461   0.3434298   0.0058785  )
        38           C   tau(  38) = (   0.3999041   0.4598410   0.0006808  )
        39           C   tau(  39) = (   0.3024544   0.5186805  -0.0003882  )
        40           C   tau(  40) = (   0.2975686   0.6330556  -0.0028052  )
        41           C   tau(  41) = (   0.1976340   0.6930402   0.0017704  )
        42           C   tau(  42) = (   0.1988441   0.8075323  -0.0097399  )
        43           C   tau(  43) = (   0.7992027  -0.0003180  -0.0115157  )
        44           C   tau(  44) = (   0.8003363   0.1153200  -0.0107542  )
        45           C   tau(  45) = (   0.7004042   0.1729561  -0.0102515  )
        46           C   tau(  46) = (   0.7007157   0.2883688  -0.0078920  )
        47           C   tau(  47) = (   0.6007712   0.3456682  -0.0057839  )
        48           C   tau(  48) = (   0.6001423   0.4610240  -0.0073245  )
        49           C   tau(  49) = (   0.5001800   0.5187940  -0.0061909  )
        50           C   tau(  50) = (   0.4987599   0.6342071  -0.0100425  )
        51           C   tau(  51) = (   0.3985132   0.6918477  -0.0086796  )
        52           C   tau(  52) = (   0.3987211   0.8076040  -0.0093775  )

   Crystallographic axes

     site n.     atom                  positions (cryst. coord.)
         1           H   tau(   1) = (  0.5804629  0.4905825  0.2866493  )
         2           H   tau(   2) = (  0.5122673  0.4721335  0.3041175  )
         3           C   tau(   3) = ( -0.0014454 -0.0006579 -0.0105796  )
         4           C   tau(   4) = (  0.0659872  0.1329151 -0.0059887  )
         5           C   tau(   5) = (  0.0004194  0.2005353 -0.0068511  )
         6           C   tau(   6) = (  0.0685271  0.3345329  0.0002679  )
         7           C   tau(   7) = (  0.0005806  0.4002324 -0.0059178  )
         8           C   tau(   8) = (  0.0666666  0.5332708 -0.0082438  )
         9           C   tau(   9) = ( -0.0004089  0.5995962 -0.0126685  )
        10           C   tau(  10) = (  0.0651610  0.7327919 -0.0149207  )
        11           C   tau(  11) = ( -0.0015479  0.7991905 -0.0154720  )
        12           C   tau(  12) = (  0.0650589  0.9324349 -0.0133746  )
        13           C   tau(  13) = (  0.1982747 -0.0011452 -0.0113199  )
        14           C   tau(  14) = (  0.2653421  0.1316483 -0.0027945  )
        15           C   tau(  15) = (  0.1993356  0.1991249  0.0004518  )
        16           C   tau(  16) = (  0.2676335  0.3331237  0.0156001  )
        17           C   tau(  17) = (  0.2012186  0.4013727  0.0175400  )
        18           C   tau(  18) = (  0.2667818  0.5355792  0.0270186  )
        19           C   tau(  19) = (  0.1996884  0.6005208  0.0007374  )
        20           C   tau(  20) = (  0.2653190  0.7336384 -0.0067435  )
        21           C   tau(  21) = (  0.1983617  0.7993828 -0.0146295  )
        22           C   tau(  22) = (  0.2652232  0.9325447 -0.0146476  )
        23           C   tau(  23) = (  0.3985234 -0.0014370 -0.0141632  )
        24           C   tau(  24) = (  0.4661825  0.1310103 -0.0066676  )
        25           C   tau(  25) = (  0.3986919  0.1960029  0.0012529  )
        26           C   tau(  26) = (  0.4662956  0.3282784  0.0145914  )
        27           C   tau(  27) = (  0.3978411  0.3887616  0.0351898  )
        28           Cu  tau(  28) = (  0.4792078  0.5369876  0.1472116  )
[...]
     atom   31 type  2   force =     0.37061439   -0.36462023    0.53329230
     atom   32 type  2   force =     0.03315755   -0.19913746    0.98030978
     atom   33 type  2   force =    -0.06670609   -0.19931023    0.43487381
     atom   34 type  2   force =    -0.22706553    0.00511636    0.61167378
     atom   35 type  2   force =    -0.25519483    0.20772968    0.88549326
     atom   36 type  2   force =    -0.65716381    0.34617923    1.06017894
     atom   37 type  2   force =    -0.72175252    0.42018708    1.38081915
     atom   38 type  2   force =    -1.17377587    0.11439155    2.14479720
     atom   39 type  2   force =     0.84446571   -0.12455682    4.49992951
     atom   40 type  2   force =    -0.21160539   -1.26871428    1.36181165
     atom   41 type  2   force =    -0.06669764   -0.83029800   -0.12031458
     atom   42 type  2   force =    -0.14200119   -0.50730540    0.31468225
     atom   43 type  2   force =     0.01933175   -0.27238554    0.49005554
     atom   44 type  2   force =    -0.06927709   -0.02681342    0.49664188
     atom   45 type  2   force =    -0.09752863    0.00741037    0.39879325
     atom   46 type  2   force =    -0.17799224    0.13604401    0.58701926
     atom   47 type  2   force =    -0.34722502    0.11870971    0.86070809
     atom   48 type  2   force =    -0.37229652   -0.00889423    0.94442654
     atom   49 type  2   force =    -0.65696722   -0.19172648    1.26878015
     atom   50 type  2   force =    -0.42202927   -0.42033515    1.05753402
     atom   51 type  2   force =    -0.16376122   -0.57036256    0.87577842
     atom   52 type  2   force =    -0.20333399   -0.23806459    0.48919602
     The core correction contribution to forces
     atom    1 type  1   force =     0.00000000    0.00000000    0.00000000
     atom    2 type  1   force =     0.00000000    0.00000000    0.00000000
     atom    3 type  2   force =     0.00015320   -0.00007052    0.00009634
     atom    4 type  2   force =    -0.00038009    0.00007178    0.00006826
     atom    5 type  2   force =     0.00018110   -0.00023404    0.00004814
     atom    6 type  2   force =     0.00011073    0.00034467   -0.00003528
     atom    7 type  2   force =    -0.00000608    0.00008028    0.00020311
     atom    8 type  2   force =     0.00005177   -0.00011760    0.00002069
     atom    9 type  2   force =     0.00004521    0.00008515    0.00013353
     atom   10 type  2   force =     0.00007140   -0.00006180    0.00014846
     atom   11 type  2   force =     0.00017268    0.00014038    0.00007055
     atom   12 type  2   force =     0.00000259   -0.00009801    0.00016676
     atom   13 type  2   force =    -0.00001621   -0.00008726    0.00010085
     atom   14 type  2   force =    -0.00005340   -0.00010941    0.00039777
     atom   15 type  2   force =     0.00002636   -0.00059696   -0.00018171
     atom   16 type  2   force =    -0.00003536    0.00044664   -0.00055151
     atom   17 type  2   force =    -0.00053041    0.00016636    0.00109388
     atom   18 type  2   force =     0.00067943    0.00081531   -0.00039503
     atom   19 type  2   force =     0.00000070   -0.00008986   -0.00045710
     atom   20 type  2   force =    -0.00008633    0.00011016    0.00048027
     atom   21 type  2   force =     0.00002572   -0.00007195    0.00020137
     atom   22 type  2   force =     0.00001750   -0.00011942    0.00023534
     atom   23 type  2   force =     0.00006227    0.00009632    0.00001063
     atom   24 type  2   force =    -0.00010402   -0.00026342    0.00004141
     atom   25 type  2   force =     0.00024374   -0.00035087   -0.00023725
     atom   26 type  2   force =    -0.00083393    0.00007568   -0.00029304
     atom   27 type  2   force =     0.00067927   -0.00073554    0.00129083
     atom   28 type  3   force =    -0.01912666    0.00365993   -0.03330652
     atom   29 type  2   force =     0.00344655   -0.00164192    0.00472401
     atom   30 type  2   force =    -0.00034214   -0.00102670   -0.00013275
     atom   31 type  2   force =     0.00011385   -0.00013503   -0.00051068
     atom   32 type  2   force =    -0.00001164   -0.00014418   -0.00010031
     atom   33 type  2   force =    -0.00005938    0.00018305    0.00035551
     atom   34 type  2   force =    -0.00014254   -0.00010358    0.00003189
     atom   35 type  2   force =     0.00034178   -0.00011717    0.00029758
     atom   36 type  2   force =    -0.00042492    0.00005174    0.00010170
     atom   37 type  2   force =     0.00026673   -0.00020858   -0.00037903
     atom   38 type  2   force =    -0.00070231    0.00058077    0.00008920
     atom   39 type  2   force =     0.00014148    0.00004326   -0.00454305
     atom   40 type  2   force =    -0.00023629   -0.00016992   -0.00010879
     atom   41 type  2   force =    -0.00076228    0.00029757    0.00020860
     atom   42 type  2   force =    -0.00014974   -0.00037876   -0.00001516
     atom   43 type  2   force =     0.00027914    0.00012571    0.00002328
     atom   44 type  2   force =    -0.00027749   -0.00000391   -0.00004099
     atom   45 type  2   force =     0.00017773    0.00001252    0.00014292
     atom   46 type  2   force =    -0.00011057   -0.00001995   -0.00005166
     atom   47 type  2   force =     0.00044535    0.00003483    0.00015811
     atom   48 type  2   force =     0.00012370   -0.00014936    0.00012806
     atom   49 type  2   force =     0.00059901    0.00033160    0.00001522
     atom   50 type  2   force =     0.00002805   -0.00016348    0.00021550
     atom   51 type  2   force =     0.00053738    0.00043449    0.00003510
     atom   52 type  2   force =    -0.00020983    0.00016296    0.00008012
     The Hubbard contrib.    to forces
     atom    1 type  1   force =     0.00000000    0.00000000    0.00000000
     atom    2 type  1   force =     0.00000000    0.00000000    0.00000000
     atom    3 type  2   force =     0.00000000    0.00000000    0.00000000
     atom    4 type  2   force =     0.00000000    0.00000000    0.00000000
     atom    5 type  2   force =     0.00000000    0.00000000    0.00000000
     atom    6 type  2   force =     0.00000000    0.00000000    0.00000000
     atom    7 type  2   force =     0.00000000    0.00000000    0.00000000
     atom    8 type  2   force =     0.00000000    0.00000000    0.00000000
     atom    9 type  2   force =     0.00000000    0.00000000    0.00000000
     atom   10 type  2   force =     0.00000000    0.00000000    0.00000000
     atom   11 type  2   force =     0.00000000    0.00000000    0.00000000
     atom   12 type  2   force =     0.00000000    0.00000000    0.00000000
     atom   13 type  2   force =     0.00000000    0.00000000    0.00000000
     atom   14 type  2   force =     0.00000000    0.00000000    0.00000000
     atom   15 type  2   force =     0.00000000    0.00000000    0.00000000
     atom   16 type  2   force =     0.00000000    0.00000000    0.00000000
     atom   17 type  2   force =     0.00000000    0.00000000    0.00000000
     atom   18 type  2   force =     0.00000000    0.00000000    0.00000000
     atom   19 type  2   force =     0.00000000    0.00000000    0.00000000
     atom   20 type  2   force =     0.00000000    0.00000000    0.00000000
     atom   21 type  2   force =     0.00000000    0.00000000    0.00000000
     atom   22 type  2   force =     0.00000000    0.00000000    0.00000000
     atom   23 type  2   force =     0.00000000    0.00000000    0.00000000
     atom   24 type  2   force =     0.00000000    0.00000000    0.00000000
     atom   25 type  2   force =     0.00000000    0.00000000    0.00000000
     atom   26 type  2   force =     0.00000000    0.00000000    0.00000000
     atom   27 type  2   force =     0.00000000    0.00000000    0.00000000
     atom   28 type  3   force =     0.00000000    0.00000000    0.00000000
     atom   29 type  2   force =     0.00000000    0.00000000    0.00000000
     atom   30 type  2   force =     0.00000000    0.00000000    0.00000000
     atom   31 type  2   force =     0.00000000    0.00000000    0.00000000
     atom   32 type  2   force =     0.00000000    0.00000000    0.00000000
     atom   33 type  2   force =     0.00000000    0.00000000    0.00000000
     atom   34 type  2   force =     0.00000000    0.00000000    0.00000000
     atom   35 type  2   force =     0.00000000    0.00000000    0.00000000
     atom   36 type  2   force =     0.00000000    0.00000000    0.00000000
     atom   37 type  2   force =     0.00000000    0.00000000    0.00000000
     atom   38 type  2   force =     0.00000000    0.00000000    0.00000000
     atom   39 type  2   force =     0.00000000    0.00000000    0.00000000
     atom   40 type  2   force =     0.00000000    0.00000000    0.00000000
     atom   41 type  2   force =     0.00000000    0.00000000    0.00000000
     atom   42 type  2   force =     0.00000000    0.00000000    0.00000000
     atom   43 type  2   force =     0.00000000    0.00000000    0.00000000
     atom   44 type  2   force =     0.00000000    0.00000000    0.00000000
     atom   45 type  2   force =     0.00000000    0.00000000    0.00000000
     atom   46 type  2   force =     0.00000000    0.00000000    0.00000000
     atom   47 type  2   force =     0.00000000    0.00000000    0.00000000
     atom   48 type  2   force =     0.00000000    0.00000000    0.00000000
     atom   49 type  2   force =     0.00000000    0.00000000    0.00000000
     atom   50 type  2   force =     0.00000000    0.00000000    0.00000000
     atom   51 type  2   force =     0.00000000    0.00000000    0.00000000
     atom   52 type  2   force =     0.00000000    0.00000000    0.00000000
     The SCF correction term to forces
     atom    1 type  1   force =     0.00000001    0.00000000    0.00000003
     atom    2 type  1   force =    -0.00000001    0.00000001    0.00000002
     atom    3 type  2   force =     0.00000008   -0.00000009   -0.00000003
     atom    4 type  2   force =    -0.00000003   -0.00000018   -0.00000003
     atom    5 type  2   force =    -0.00000002    0.00000000   -0.00000002
     atom    6 type  2   force =    -0.00000008    0.00000019   -0.00000003
     atom    7 type  2   force =     0.00000007    0.00000018   -0.00000001
     atom    8 type  2   force =     0.00000022    0.00000024    0.00000001
     atom    9 type  2   force =     0.00000022    0.00000013    0.00000001
     atom   10 type  2   force =     0.00000029    0.00000010    0.00000001
     atom   11 type  2   force =     0.00000017    0.00000006    0.00000000
     atom   12 type  2   force =     0.00000009   -0.00000006   -0.00000001
     atom   13 type  2   force =     0.00000019   -0.00000023   -0.00000001
     atom   14 type  2   force =     0.00000009   -0.00000030   -0.00000004
     atom   15 type  2   force =    -0.00000005   -0.00000022   -0.00000005
     atom   16 type  2   force =    -0.00000037   -0.00000005   -0.00000007
     atom   17 type  2   force =    -0.00000027    0.00000021   -0.00000006
     atom   18 type  2   force =    -0.00000034    0.00000030   -0.00000008
     atom   19 type  2   force =    -0.00000002    0.00000025   -0.00000004
     atom   20 type  2   force =    -0.00000001    0.00000006   -0.00000003
     atom   21 type  2   force =     0.00000025    0.00000003    0.00000001
     atom   22 type  2   force =     0.00000017   -0.00000024    0.00000001
     atom   23 type  2   force =    -0.00000001   -0.00000032    0.00000001
     atom   24 type  2   force =     0.00000004   -0.00000030   -0.00000000
     atom   25 type  2   force =     0.00000013   -0.00000032   -0.00000003
     atom   26 type  2   force =     0.00000028   -0.00000023   -0.00000008
     atom   27 type  2   force =    -0.00000004   -0.00000015   -0.00000006
     atom   28 type  3   force =    -0.00000035    0.00000062    0.00000079
     atom   29 type  2   force =    -0.00000040    0.00000018   -0.00000007
     atom   30 type  2   force =    -0.00000046    0.00000013   -0.00000008
     atom   31 type  2   force =    -0.00000030    0.00000003   -0.00000006
     atom   32 type  2   force =    -0.00000017   -0.00000020   -0.00000001
     atom   33 type  2   force =    -0.00000023   -0.00000010   -0.00000002
     atom   34 type  2   force =    -0.00000005   -0.00000018   -0.00000000
     atom   35 type  2   force =     0.00000000   -0.00000018    0.00000000
     atom   36 type  2   force =     0.00000002   -0.00000008    0.00000001
     atom   37 type  2   force =     0.00000021   -0.00000004   -0.00000001
     atom   38 type  2   force =     0.00000024   -0.00000000   -0.00000001
     atom   39 type  2   force =     0.00000017    0.00000010    0.00000001
     atom   40 type  2   force =     0.00000003    0.00000024   -0.00000002
     atom   41 type  2   force =    -0.00000025    0.00000014   -0.00000004
     atom   42 type  2   force =    -0.00000018    0.00000008   -0.00000004
     atom   43 type  2   force =    -0.00000003   -0.00000000   -0.00000003
     atom   44 type  2   force =    -0.00000006   -0.00000005   -0.00000002
     atom   45 type  2   force =    -0.00000006   -0.00000005   -0.00000000
     atom   46 type  2   force =     0.00000012    0.00000002    0.00000001
     atom   47 type  2   force =     0.00000006    0.00000004    0.00000001
     atom   48 type  2   force =     0.00000014    0.00000013    0.00000002
     atom   49 type  2   force =     0.00000014    0.00000003    0.00000001
     atom   50 type  2   force =     0.00000013    0.00000012   -0.00000000
     atom   51 type  2   force =     0.00000014    0.00000012   -0.00000003
     atom   52 type  2   force =     0.00000010    0.00000003   -0.00000003

     Total force =     0.003042     Total SCF correction =     0.000002

     bfgs converged in  41 scf cycles and  40 bfgs steps
     (criteria: energy <  1.0E-04 Ry, force <  1.0E-03 Ry/Bohr)

     End of BFGS Geometry Optimization

     Final energy   =    -735.5955112408 Ry
Begin final coordinates

ATOMIC_POSITIONS (angstrom)
H        3.850354785   5.208939135   2.697874222
H        3.391994142   5.726008225   3.103369798
C       -0.002801252  -0.018974816  -0.124436388
C        0.006522328   1.411564088  -0.078108287
C       -1.222440462   2.123248856  -0.046860778
C       -1.213158314   3.554397308   0.037337241
C       -2.454688381   4.256322208  -0.036420293
C       -2.464623492   5.678670833  -0.057725034
C       -3.696788565   6.388066619  -0.142133092
C       -3.707310621   7.810832361  -0.165042335
C       -4.939596466   8.520512537  -0.179785596
C       -4.936034706   9.943649865  -0.172004662
C        2.459558635  -0.017545028  -0.181373231
C        2.467843317   1.406094596  -0.122797548
C        1.242555029   2.129291803  -0.047763813
C        1.255571339   3.564368045   0.135689107
C        0.005860208   4.274560077   0.210792750
C       -0.024572068   5.708640134   0.341219163
C       -1.245600789   6.400506628   0.070506867
C       -1.252213712   7.822283789   0.007550753
C       -2.476552455   8.525229040  -0.130207223
C       -2.470851379   9.947490865  -0.176610941
C        4.929083304  -0.023250540  -0.169777904
C        4.944290406   1.394353668  -0.168805231
C        3.712900202   2.095497342  -0.113031281
C        3.730654321   3.509053723   0.028773479
C        2.529889870   4.164318264   0.287428572
Cu       2.608374531   5.669568464   1.521830788
C        1.091522205   6.492318639   0.743937433
C        1.185547888   7.842173408   0.330250178
C       -0.023092522   8.538145309   0.056562297
C       -0.003291628   9.948788926  -0.087017099
C        7.395901213  -0.022508458  -0.062302595
C        7.408322230   1.397482643  -0.115583770
C        6.177719499   2.102868599  -0.147078870
C        6.182363781   3.527602519  -0.132722202
C        4.962644615   4.224889414  -0.055006412
C        4.939650935   5.656636671  -0.056407556
C        3.742864128   6.365940838   0.035281189
C        3.669118434   7.777552999   0.055790255
C        2.439992035   8.520860374   0.161391277
C        2.461386907   9.932403004   0.004374504
C        9.861841545  -0.023693589  -0.063088613
C        9.872518910   1.402464386  -0.081153253
C        8.639601635   2.113150281  -0.097780930
C        8.644619233   3.538538507  -0.105466650
C        7.414224668   4.246345725  -0.140520375
C        7.403623889   5.668641392  -0.149616203
C        6.171456403   6.380216606  -0.131973884
C        6.152629894   7.802016459  -0.139335773
C        4.916489378   8.505683414  -0.068622452
C        4.924884518   9.935679993  -0.083399604
End final coordinates

     Writing output data file cobre-sixhollow-3.0.save/

     General routines

     Parallel routines

   This run was terminated on:   3: 7: 8  19Sep2022

   JOB DONE.