     Program PWSCF v.6.4.1 starts on  7Sep2022 at 22: 0:41

     R & G space division:  proc/nbgrp/npool/nimage =       6
     Reading input from distance-1.8.in

     Current dimensions of program PWSCF are:
     Max number of different atomic species (ntypx) = 10
     Max number of k-points (npk) =  40000
     Max angular momentum in pseudopotentials (lmaxx) =  3

     IMPORTANT: XC functional enforced from input :
     Exchange-correlation      = RVV10 ( 1  4 13  4 3 0)
     Any further DFT definition will be discarded
     Please, verify this is what you really want

               file H.pbe-rrkjus.UPF: wavefunction(s)  1S renormalized
               file Cu.pbe-dn-rrkjus_psl.1.0.0.UPF: wavefunction(s)  3D renormalized

     Subspace diagonalization in iterative solution of the eigenvalue problem:
     a serial algorithm will be used

     bravais-lattice index     =            4
     lattice parameter (alat)  =      23.2937  a.u.
     unit-cell volume          =    8879.8548 (a.u.)^3
     number of atoms/cell      =           52
     number of atomic types    =            3
     number of electrons       =       209.00
     number of Kohn-Sham states=          126
     kinetic-energy cutoff     =      70.0000  Ry
     charge density cutoff     =     490.0000  Ry
     convergence threshold     =      1.0E-06
     mixing beta               =       0.7000
     number of iterations used =            8  plain     mixing
     Exchange-correlation      = RVV10 ( 1  4 13  4 3 0)

     celldm(1)=  23.293684  celldm(2)=   0.000000  celldm(3)=   0.811261
     celldm(4)=   0.000000  celldm(5)=   0.000000  celldm(6)=   0.000000

     crystal axes: (cart. coord. in units of alat)
               a(1) = (   1.000000   0.000000   0.000000 )
               a(2) = (  -0.500000   0.866025   0.000000 )
               a(3) = (   0.000000   0.000000   0.811261 )

     reciprocal axes: (cart. coord. in units 2 pi/alat)
               b(1) = (  1.000000  0.577350 -0.000000 )
               b(2) = (  0.000000  1.154701  0.000000 )
               b(3) = (  0.000000 -0.000000  1.232649 )

     PseudoPot. # 1 for H  read from file:
     /home/cristian/Escritorio/Proyecto_Grafeno/pseudopotenciales/H.pbe-rrkjus.UPF
     MD5 check sum: 7cc9d459525c9a0585f487a71c3c9563
     Pseudo is Ultrasoft, Zval =  1.0
     Generated by new atomic code, or converted to UPF format
     Using radial grid of 1061 points,  2 beta functions with:
                l(1) =   0
                l(2) =   0
     Q(r) pseudized with 0 coefficients

     PseudoPot. # 2 for C  read from file:
     /home/cristian/Escritorio/Proyecto_Grafeno/pseudopotenciales/C.pbe-n-rrkjus_psl.1.0.0.UPF
     MD5 check sum: 1fdd950c42eb37d8afe3dd2f8d12311e
     Pseudo is Ultrasoft + core correction, Zval =  4.0
     Generated using "atomic" code by A. Dal Corso v.6.3MaX
     Using radial grid of 1073 points,  4 beta functions with:
                l(1) =   0
                l(2) =   0
                l(3) =   1
                l(4) =   1
     Q(r) pseudized with 0 coefficients

     PseudoPot. # 3 for Cu read from file:
     /home/cristian/Escritorio/Proyecto_Grafeno/pseudopotenciales/Cu.pbe-dn-rrkjus_psl.1.0.0.UPF
     MD5 check sum: ba3d6c84e19846e79d48cdc68ff7152b
     Pseudo is Ultrasoft + core correction, Zval = 11.0
     Generated using "atomic" code by A. Dal Corso v.6.3
     Using radial grid of 1199 points,  6 beta functions with:
                l(1) =   0
                l(2) =   0
                l(3) =   1
                l(4) =   1
                l(5) =   2
                l(6) =   2
     Q(r) pseudized with 0 coefficients

     vdW kernel table read from file rVV10_kernel_table
     MD5 check sum: b8e2538accc0c0b3206b45ba4daaba6c

     atomic species   valence    mass     pseudopotential
        H              1.00     1.00794     H ( 1.00)
        C              4.00    12.01070     C ( 1.00)
        Cu            11.00    63.54600     Cu( 1.00)

     Starting magnetic structure
     atomic species   magnetization
        H            0.500
        C            0.300
        Cu           0.800

     No symmetry found

                                    s                        frac. trans.

      isym =  1     identity

 cryst.   s( 1) = (     1          0          0      )
                  (     0          1          0      )
                  (     0          0          1      )

 cart.    s( 1) = (  1.0000000  0.0000000  0.0000000 )
                  (  0.0000000  1.0000000  0.0000000 )
                  (  0.0000000  0.0000000  1.0000000 )

     point group C_1 (1)
     there are  1 classes
     the character table:

       E
A      1.00

     the symmetry operations in each class and the name of the first element:

     E        1
          identity

   Cartesian axes

     site n.     atom                  positions (alat units)
         1           H   tau(   1) = (   0.2694937   0.4041452   0.1460270  )
         2           H   tau(   2) = (   0.3305063   0.4041452   0.1460270  )
         3           C   tau(   3) = (   0.0000000   0.0000000   0.0000000  )
         4           C   tau(   4) = (   0.0000000   0.1154701   0.0000000  )
         5           C   tau(   5) = (  -0.1000000   0.1732051   0.0000000  )
         6           C   tau(   6) = (  -0.1000000   0.2886751   0.0000000  )
         7           C   tau(   7) = (  -0.2000000   0.3464102   0.0000000  )
         8           C   tau(   8) = (  -0.2000000   0.4618802   0.0000000  )
         9           C   tau(   9) = (  -0.3000000   0.5196152   0.0000000  )
        10           C   tau(  10) = (  -0.3000000   0.6350853   0.0000000  )
        11           C   tau(  11) = (  -0.4000000   0.6928203   0.0000000  )
        12           C   tau(  12) = (  -0.4000000   0.8082904   0.0000000  )
        13           C   tau(  13) = (   0.2000000   0.0000000   0.0000000  )
        14           C   tau(  14) = (   0.2000000   0.1154701   0.0000000  )
        15           C   tau(  15) = (   0.1000000   0.1732051   0.0000000  )
        16           C   tau(  16) = (   0.1000000   0.2886751   0.0000000  )
        17           C   tau(  17) = (   0.0000000   0.3464102   0.0000000  )
        18           C   tau(  18) = (   0.0000000   0.4618802   0.0000000  )
        19           C   tau(  19) = (  -0.1000000   0.5196152   0.0000000  )
        20           C   tau(  20) = (  -0.1000000   0.6350853   0.0000000  )
        21           C   tau(  21) = (  -0.2000000   0.6928203   0.0000000  )
        22           C   tau(  22) = (  -0.2000000   0.8082904   0.0000000  )
        23           C   tau(  23) = (   0.4000000   0.0000000   0.0000000  )
        24           C   tau(  24) = (   0.4000000   0.1154701   0.0000000  )
        25           C   tau(  25) = (   0.3000000   0.1732051   0.0000000  )
        26           C   tau(  26) = (   0.3000000   0.2886751   0.0000000  )
        27           C   tau(  27) = (   0.2000000   0.3464102   0.0000000  )
        28           Cu  tau(  28) = (   0.2000000   0.4618802   0.0000000  )
        29           C   tau(  29) = (   0.1000000   0.5196152   0.0000000  )
        30           C   tau(  30) = (   0.1000000   0.6350853   0.0000000  )
        31           C   tau(  31) = (   0.0000000   0.6928203   0.0000000  )
        32           C   tau(  32) = (   0.0000000   0.8082904   0.0000000  )
        33           C   tau(  33) = (   0.6000000   0.0000000   0.0000000  )
        34           C   tau(  34) = (   0.6000000   0.1154701   0.0000000  )
        35           C   tau(  35) = (   0.5000000   0.1732051   0.0000000  )
        36           C   tau(  36) = (   0.5000000   0.2886751   0.0000000  )
        37           C   tau(  37) = (   0.4000000   0.3464102   0.0000000  )
        38           C   tau(  38) = (   0.4000000   0.4618802   0.0000000  )
        39           C   tau(  39) = (   0.3000000   0.5196152   0.0000000  )
        40           C   tau(  40) = (   0.3000000   0.6350853   0.0000000  )
        41           C   tau(  41) = (   0.2000000   0.6928203   0.0000000  )
        42           C   tau(  42) = (   0.2000000   0.8082904   0.0000000  )
        43           C   tau(  43) = (   0.8000000   0.0000000   0.0000000  )
        44           C   tau(  44) = (   0.8000000   0.1154701   0.0000000  )
        45           C   tau(  45) = (   0.7000000   0.1732051   0.0000000  )
        46           C   tau(  46) = (   0.7000000   0.2886751   0.0000000  )
        47           C   tau(  47) = (   0.6000000   0.3464102   0.0000000  )
        48           C   tau(  48) = (   0.6000000   0.4618802   0.0000000  )
        49           C   tau(  49) = (   0.5000000   0.5196152   0.0000000  )
        50           C   tau(  50) = (   0.5000000   0.6350853   0.0000000  )
        51           C   tau(  51) = (   0.4000000   0.6928203   0.0000000  )
        52           C   tau(  52) = (   0.4000000   0.8082904   0.0000000  )

   Crystallographic axes

     site n.     atom                  positions (cryst. coord.)
         1           H   tau(   1) = (  0.5028270  0.4666667  0.1800000  )
         2           H   tau(   2) = (  0.5638397  0.4666667  0.1800000  )
         3           C   tau(   3) = (  0.0000000  0.0000000  0.0000000  )
         4           C   tau(   4) = (  0.0666667  0.1333333  0.0000000  )
         5           C   tau(   5) = (  0.0000000  0.2000000  0.0000000  )
         6           C   tau(   6) = (  0.0666667  0.3333333  0.0000000  )
         7           C   tau(   7) = (  0.0000000  0.4000000  0.0000000  )
         8           C   tau(   8) = (  0.0666667  0.5333333  0.0000000  )
         9           C   tau(   9) = (  0.0000000  0.6000000  0.0000000  )
        10           C   tau(  10) = (  0.0666667  0.7333333  0.0000000  )
        11           C   tau(  11) = (  0.0000000  0.8000000  0.0000000  )
        12           C   tau(  12) = (  0.0666667  0.9333333  0.0000000  )
        13           C   tau(  13) = (  0.2000000  0.0000000  0.0000000  )
        14           C   tau(  14) = (  0.2666667  0.1333333  0.0000000  )
        15           C   tau(  15) = (  0.2000000  0.2000000  0.0000000  )
        16           C   tau(  16) = (  0.2666667  0.3333333  0.0000000  )
        17           C   tau(  17) = (  0.2000000  0.4000000  0.0000000  )
        18           C   tau(  18) = (  0.2666667  0.5333333  0.0000000  )
        19           C   tau(  19) = (  0.2000000  0.6000000  0.0000000  )
        20           C   tau(  20) = (  0.2666667  0.7333333  0.0000000  )
        21           C   tau(  21) = (  0.2000000  0.8000000  0.0000000  )
        22           C   tau(  22) = (  0.2666667  0.9333333  0.0000000  )
        23           C   tau(  23) = (  0.4000000  0.0000000  0.0000000  )
        24           C   tau(  24) = (  0.4666667  0.1333333  0.0000000  )
        25           C   tau(  25) = (  0.4000000  0.2000000  0.0000000  )
        26           C   tau(  26) = (  0.4666667  0.3333333  0.0000000  )
        27           C   tau(  27) = (  0.4000000  0.4000000  0.0000000  )
        28           Cu  tau(  28) = (  0.4666667  0.5333333  0.0000000  )
        29           C   tau(  29) = (  0.4000000  0.6000000  0.0000000  )
        30           C   tau(  30) = (  0.4666667  0.7333333  0.0000000  )
        31           C   tau(  31) = (  0.4000000  0.8000000  0.0000000  )
        32           C   tau(  32) = (  0.4666667  0.9333333  0.0000000  )
        33           C   tau(  33) = (  0.6000000  0.0000000  0.0000000  )
        34           C   tau(  34) = (  0.6666667  0.1333333  0.0000000  )
        35           C   tau(  35) = (  0.6000000  0.2000000  0.0000000  )
        36           C   tau(  36) = (  0.6666667  0.3333333  0.0000000  )
        37           C   tau(  37) = (  0.6000000  0.4000000  0.0000000  )
        38           C   tau(  38) = (  0.6666667  0.5333333  0.0000000  )
        39           C   tau(  39) = (  0.6000000  0.6000000  0.0000000  )
        40           C   tau(  40) = (  0.6666667  0.7333333  0.0000000  )
        41           C   tau(  41) = (  0.6000000  0.8000000  0.0000000  )
        42           C   tau(  42) = (  0.6666667  0.9333333  0.0000000  )
        43           C   tau(  43) = (  0.8000000  0.0000000  0.0000000  )
        44           C   tau(  44) = (  0.8666667  0.1333333  0.0000000  )
        45           C   tau(  45) = (  0.8000000  0.2000000  0.0000000  )
        46           C   tau(  46) = (  0.8666667  0.3333333  0.0000000  )
        47           C   tau(  47) = (  0.8000000  0.4000000  0.0000000  )
        48           C   tau(  48) = (  0.8666667  0.5333333  0.0000000  )
        49           C   tau(  49) = (  0.8000000  0.6000000  0.0000000  )
        50           C   tau(  50) = (  0.8666667  0.7333333  0.0000000  )
        51           C   tau(  51) = (  0.8000000  0.8000000  0.0000000  )
        52           C   tau(  52) = (  0.8666667  0.9333333  0.0000000  )

     number of k points=     1  Marzari-Vanderbilt smearing, width (Ry)=  0.0010
                       cart. coord. in units 2pi/alat
        k(    1) = (   0.0000000   0.0000000   0.0000000), wk =   1.0000000

                       cryst. coord.
        k(    1) = (   0.0000000   0.0000000   0.0000000), wk =   1.0000000

     Check: negative core charge=   -0.000002

     Initial potential from superposition of free atoms

     starting charge  208.80532, renormalised to  209.00000

     negative rho (up, down):  7.744E-05 1.450E-02

Carrying out rVV10 run using the following parameters:
Nqs =      20    Nr_points =    1024   r_max =   100.000
b_value =  6.30000    beta =  0.00901
     q_mesh =  0.00010000  0.00030000  0.00058939  0.00100810
               0.00161396  0.00249058  0.00375900  0.00559430
               0.00824984  0.01209221  0.01765183  0.02569619
               0.03733578  0.05417739  0.07854596  0.11380545
               0.16482331  0.23864234  0.34545298  0.50000000

Gradients computed in Reciprocal space

     Starting wfcs are  207 randomized atomic wfcs

     Self-consistent Calculation

     iteration #  1     ecut=    70.00 Ry     beta= 0.70
     Davidson diagonalization with overlap
     ethr =  1.00E-02,  avg # of iterations =  4.0

[...]

     total energy              =    -730.85360846 Ry
     Harris-Foulkes estimate   =    -734.90846422 Ry
     estimated scf accuracy    <      11.22206763 Ry

     total magnetization       =     3.24 Bohr mag/cell
     absolute magnetization    =     4.39 Bohr mag/cell

[...]

     total energy              =    -734.69642299 Ry
     Harris-Foulkes estimate   =    -734.69642328 Ry
     estimated scf accuracy    <       0.00000315 Ry

[...]

     iteration # 32     ecut=    70.00 Ry     beta= 0.70
     Davidson diagonalization with overlap
     ethr =  1.36E-09,  avg # of iterations =  2.0

     negative rho (up, down):  6.930E-04 2.268E-03

     Magnetic moment per site:
     atom:    1    charge:    0.2196    magn:    0.0000    constr:    0.0000
     atom:    2    charge:    0.2175    magn:    0.0002    constr:    0.0000
     atom:    3    charge:    1.7161    magn:    0.0033    constr:    0.0000
     atom:    4    charge:    1.7158    magn:    0.0038    constr:    0.0000
     atom:    5    charge:    1.7167    magn:    0.0001    constr:    0.0000
     atom:    6    charge:    1.7147    magn:    0.0001    constr:    0.0000
     atom:    7    charge:    1.7172    magn:   -0.0003    constr:    0.0000
     atom:    8    charge:    1.7151    magn:    0.0008    constr:    0.0000
     atom:    9    charge:    1.7156    magn:    0.0006    constr:    0.0000
     atom:   10    charge:    1.7169    magn:   -0.0010    constr:    0.0000
     atom:   11    charge:    1.7159    magn:    0.0007    constr:    0.0000
     atom:   12    charge:    1.7171    magn:   -0.0008    constr:    0.0000
     atom:   13    charge:    1.7159    magn:    0.0008    constr:    0.0000
     atom:   14    charge:    1.7169    magn:   -0.0017    constr:    0.0000
     atom:   15    charge:    1.7144    magn:    0.0143    constr:    0.0000
     atom:   16    charge:    1.7115    magn:    0.0206    constr:    0.0000
     atom:   17    charge:    1.7210    magn:    0.0016    constr:    0.0000
     atom:   18    charge:    1.7121    magn:    0.0163    constr:    0.0000
     atom:   19    charge:    1.7120    magn:    0.0003    constr:    0.0000
     atom:   20    charge:    1.7167    magn:    0.0002    constr:    0.0000
     atom:   21    charge:    1.7161    magn:    0.0002    constr:    0.0000
     atom:   22    charge:    1.7170    magn:   -0.0010    constr:    0.0000
     atom:   23    charge:    1.7156    magn:    0.0011    constr:    0.0000
     atom:   24    charge:    1.7151    magn:    0.0005    constr:    0.0000
     atom:   25    charge:    1.7125    magn:    0.0082    constr:    0.0000
     atom:   26    charge:    1.7099    magn:   -0.0018    constr:    0.0000
     atom:   27    charge:    1.8305    magn:    0.1282    constr:    0.0000
     atom:   28    charge:    7.0306    magn:    0.1529    constr:    0.0000
     atom:   29    charge:    1.8020    magn:    0.0012    constr:    0.0000
     atom:   30    charge:    1.7131    magn:    0.0212    constr:    0.0000
     atom:   31    charge:    1.7123    magn:    0.0017    constr:    0.0000
     atom:   32    charge:    1.7153    magn:    0.0015    constr:    0.0000
     atom:   33    charge:    1.7171    magn:   -0.0003    constr:    0.0000
     atom:   34    charge:    1.7153    magn:   -0.0000    constr:    0.0000
     atom:   35    charge:    1.7168    magn:    0.0003    constr:    0.0000
     atom:   36    charge:    1.7148    magn:   -0.0005    constr:    0.0000
     atom:   37    charge:    1.7236    magn:    0.0073    constr:    0.0000
     atom:   38    charge:    1.7103    magn:   -0.0025    constr:    0.0000
     atom:   39    charge:    1.8256    magn:    0.1069    constr:    0.0000
     atom:   40    charge:    1.7123    magn:    0.0246    constr:    0.0000
     atom:   41    charge:    1.7207    magn:    0.0003    constr:    0.0000
     atom:   42    charge:    1.7146    magn:    0.0003    constr:    0.0000
     atom:   43    charge:    1.7169    magn:   -0.0000    constr:    0.0000
     atom:   44    charge:    1.7154    magn:    0.0002    constr:    0.0000
     atom:   45    charge:    1.7208    magn:   -0.0007    constr:    0.0000
     atom:   46    charge:    1.7154    magn:   -0.0001    constr:    0.0000
     atom:   47    charge:    1.7167    magn:    0.0003    constr:    0.0000
     atom:   48    charge:    1.7149    magn:    0.0000    constr:    0.0000
     atom:   49    charge:    1.7122    magn:    0.0058    constr:    0.0000
     atom:   50    charge:    1.7168    magn:   -0.0014    constr:    0.0000
     atom:   51    charge:    1.7142    magn:    0.0133    constr:    0.0000
     atom:   52    charge:    1.7158    magn:    0.0041    constr:    0.0000

     End of self-consistent calculation

 ------ SPIN UP ------------

          k = 0.0000 0.0000 0.0000 ( 87777 PWs)   bands (ev):

   -19.8665 -19.0578 -18.9876 -18.9305 -18.9186 -18.8654 -18.7989 -17.1915
   -17.1897 -17.1488 -17.1417 -17.0899 -16.8360 -16.3603 -16.3341 -16.2263
   -16.1925 -16.1829 -15.7960 -14.4621 -14.4256 -14.1486 -14.0593 -14.0483
   -13.6049 -13.1925 -13.1876 -13.1002 -12.9853 -12.9469 -12.6529 -12.3384
   -12.3274 -11.7426 -11.6415 -11.6272 -11.2074 -10.9660 -10.9373  -9.5421
    -9.4477  -9.3804  -9.3715  -9.2635  -9.2554  -9.2538  -9.2457  -9.0993
    -9.0846  -9.0789  -8.9777  -8.7476  -8.7284  -8.2627  -7.9156  -7.8810
    -7.6957  -7.6873  -7.5724  -7.5507  -7.4561  -6.9509  -6.8715  -6.8470
    -6.8333  -6.8022  -6.7682  -6.7088  -6.6473  -6.6277  -6.6044  -6.5888
    -6.5783  -6.5434  -6.4331  -6.4033  -5.8546  -5.6306  -5.6281  -5.0475
    -4.9788  -4.9486  -4.9050  -4.9038  -4.7840  -4.7469  -4.6804  -4.5540
    -4.5422  -4.2211  -3.8928  -3.8454  -3.8407  -3.8247  -3.7793  -3.6602
    -3.6123  -3.1955  -1.9137  -1.8531  -1.8431  -1.7779  -1.7586  -1.2896
    -0.8548  -0.8291   0.8765   0.9225   0.9316   1.0749   1.0762   1.4681
     2.4767   2.7620   2.7786   2.8138   2.9110   2.9183   3.3670   3.5896
     3.6694   3.7229   3.7261   3.7433   3.9433   4.1783

     occupation numbers
     1.0000   1.0000   1.0000   1.0000   1.0000   1.0000   1.0000   1.0000
     1.0000   1.0000   1.0000   1.0000   1.0000   1.0000   1.0000   1.0000
     1.0000   1.0000   1.0000   1.0000   1.0000   1.0000   1.0000   1.0000
     1.0000   1.0000   1.0000   1.0000   1.0000   1.0000   1.0000   1.0000
     1.0000   1.0000   1.0000   1.0000   1.0000   1.0000   1.0000   1.0000
     1.0000   1.0000   1.0000   1.0000   1.0000   1.0000   1.0000   1.0000
     1.0000   1.0000   1.0000   1.0000   1.0000   1.0000   1.0000   1.0000
     1.0000   1.0000   1.0000   1.0000   1.0000   1.0000   1.0000   1.0000
     1.0000   1.0000   1.0000   1.0000   1.0000   1.0000   1.0000   1.0000
     1.0000   1.0000   1.0000   1.0000   1.0000   1.0000   1.0000   1.0000
     1.0000   1.0000   1.0000   1.0000   1.0000   1.0000   1.0000   1.0000
     1.0000   1.0000   1.0000   1.0000   1.0000   1.0000   1.0000   1.0000
     1.0000   1.0000   1.0000   1.0000   1.0000   1.0000   1.0000   1.0000
     0.9734   0.0266   0.0000   0.0000   0.0000   0.0000   0.0000   0.0000
     0.0000   0.0000   0.0000   0.0000   0.0000   0.0000   0.0000   0.0000
     0.0000   0.0000   0.0000   0.0000   0.0000   0.0000

 ------ SPIN DOWN ----------

          k = 0.0000 0.0000 0.0000 ( 87777 PWs)   bands (ev):

   -19.8425 -19.0369 -18.9539 -18.9182 -18.9095 -18.8621 -18.7295 -17.1593
   -17.1549 -17.1318 -17.1293 -17.0528 -16.8043 -16.3278 -16.2961 -16.2162
   -16.1754 -16.1579 -15.7266 -14.3594 -14.3533 -14.1252 -14.0514 -14.0383
   -13.5639 -13.1678 -13.1616 -13.0876 -12.9656 -12.8956 -12.5959 -12.2390
   -12.2076 -11.7234 -11.6215 -11.5790 -11.1238 -10.8209 -10.8091  -9.5017
    -9.3954  -9.3572  -9.3124  -9.2559  -9.2458  -9.2427  -9.2336  -9.0375
    -9.0202  -8.8779  -8.8489  -8.7170  -8.6711  -8.2351  -7.8908  -7.8618
    -7.6472  -7.6425  -7.5607  -7.5268  -7.4381  -6.9070  -6.8711  -6.8418
    -6.8027  -6.7924  -6.7518  -6.6928  -6.6246  -6.6079  -6.5984  -6.5829
    -6.5739  -6.5357  -6.3917  -6.3629  -5.8183  -5.6125  -5.5925  -5.0284
    -4.9682  -4.8883  -4.8849  -4.8258  -4.7798  -4.7447  -4.6476  -4.5411
    -4.5286  -4.1954  -3.8886  -3.8315  -3.8185  -3.8109  -3.7642  -3.6405
    -3.6034  -3.1443  -1.9111  -1.8503  -1.8409  -1.7531  -1.7385  -1.2537
    -0.6576  -0.2382   0.8802   0.9276   0.9344   1.0843   1.1099   1.4814
     2.4769   2.7663   2.7782   2.8147   2.9335   2.9508   3.3760   3.5956
     3.6718   3.7223   3.7255   3.7422   3.9500   4.1784

     occupation numbers
     1.0000   1.0000   1.0000   1.0000   1.0000   1.0000   1.0000   1.0000
     1.0000   1.0000   1.0000   1.0000   1.0000   1.0000   1.0000   1.0000
     1.0000   1.0000   1.0000   1.0000   1.0000   1.0000   1.0000   1.0000
     1.0000   1.0000   1.0000   1.0000   1.0000   1.0000   1.0000   1.0000
     1.0000   1.0000   1.0000   1.0000   1.0000   1.0000   1.0000   1.0000
     1.0000   1.0000   1.0000   1.0000   1.0000   1.0000   1.0000   1.0000
     1.0000   1.0000   1.0000   1.0000   1.0000   1.0000   1.0000   1.0000
     1.0000   1.0000   1.0000   1.0000   1.0000   1.0000   1.0000   1.0000
     1.0000   1.0000   1.0000   1.0000   1.0000   1.0000   1.0000   1.0000
     1.0000   1.0000   1.0000   1.0000   1.0000   1.0000   1.0000   1.0000
     1.0000   1.0000   1.0000   1.0000   1.0000   1.0000   1.0000   1.0000
     1.0000   1.0000   1.0000   1.0000   1.0000   1.0000   1.0000   1.0000
     1.0000   1.0000   1.0000   1.0000   1.0000   1.0000   1.0000   1.0000
     0.0000   0.0000   0.0000   0.0000   0.0000   0.0000   0.0000   0.0000
     0.0000   0.0000   0.0000   0.0000   0.0000   0.0000   0.0000   0.0000
     0.0000   0.0000   0.0000   0.0000   0.0000   0.0000

     the Fermi energy is    -0.8431 ev

!    total energy              =    -734.69642272 Ry
     Harris-Foulkes estimate   =    -734.69642334 Ry
     estimated scf accuracy    <       0.00000075 Ry

     The total energy is the sum of the following terms:

     one-electron contribution =   -2519.74491665 Ry
     hartree contribution      =    1315.52909571 Ry
     xc contribution           =    -276.04574409 Ry
     ewald contribution        =     745.56511829 Ry
     smearing contrib. (-TS)   =       0.00002402 Ry

     total magnetization       =     1.00 Bohr mag/cell
     absolute magnetization    =     1.12 Bohr mag/cell

     convergence has been achieved in  32 iterations

     Writing output data file cobre-sixhollow-distance-1.8.save/

     General routines

     Parallel routines

   This run was terminated on:  22:57:22   7Sep2022

   JOB DONE.