     Program PWSCF v.6.4.1 starts on  7Sep2022 at 21:15:11

     R & G space division:  proc/nbgrp/npool/nimage =       6
     Reading input from distance-2.0.in

     Current dimensions of program PWSCF are:
     Max number of different atomic species (ntypx) = 10
     Max number of k-points (npk) =  40000
     Max angular momentum in pseudopotentials (lmaxx) =  3

     IMPORTANT: XC functional enforced from input :
     Exchange-correlation      = RVV10 ( 1  4 13  4 3 0)
     Any further DFT definition will be discarded
     Please, verify this is what you really want

               file H.pbe-rrkjus.UPF: wavefunction(s)  1S renormalized
               file Cu.pbe-dn-rrkjus_psl.1.0.0.UPF: wavefunction(s)  3D renormalized

     Subspace diagonalization in iterative solution of the eigenvalue problem:
     a serial algorithm will be used

     bravais-lattice index     =            4
     lattice parameter (alat)  =      23.2937  a.u.
     unit-cell volume          =    8879.8548 (a.u.)^3
     number of atoms/cell      =           52
     number of atomic types    =            3
     number of electrons       =       209.00
     number of Kohn-Sham states=          126
     kinetic-energy cutoff     =      70.0000  Ry
     charge density cutoff     =     490.0000  Ry
     convergence threshold     =      1.0E-06
     mixing beta               =       0.7000
     number of iterations used =            8  plain     mixing
     Exchange-correlation      = RVV10 ( 1  4 13  4 3 0)

     celldm(1)=  23.293684  celldm(2)=   0.000000  celldm(3)=   0.811261
     celldm(4)=   0.000000  celldm(5)=   0.000000  celldm(6)=   0.000000

     crystal axes: (cart. coord. in units of alat)
               a(1) = (   1.000000   0.000000   0.000000 )
               a(2) = (  -0.500000   0.866025   0.000000 )
               a(3) = (   0.000000   0.000000   0.811261 )

     reciprocal axes: (cart. coord. in units 2 pi/alat)
               b(1) = (  1.000000  0.577350 -0.000000 )
               b(2) = (  0.000000  1.154701  0.000000 )
               b(3) = (  0.000000 -0.000000  1.232649 )

     PseudoPot. # 1 for H  read from file:
     /home/cristian/Escritorio/Proyecto_Grafeno/pseudopotenciales/H.pbe-rrkjus.UPF
     MD5 check sum: 7cc9d459525c9a0585f487a71c3c9563
     Pseudo is Ultrasoft, Zval =  1.0
     Generated by new atomic code, or converted to UPF format
     Using radial grid of 1061 points,  2 beta functions with:
                l(1) =   0
                l(2) =   0
     Q(r) pseudized with 0 coefficients

     PseudoPot. # 2 for C  read from file:
     /home/cristian/Escritorio/Proyecto_Grafeno/pseudopotenciales/C.pbe-n-rrkjus_psl.1.0.0.UPF
     MD5 check sum: 1fdd950c42eb37d8afe3dd2f8d12311e
     Pseudo is Ultrasoft + core correction, Zval =  4.0
     Generated using "atomic" code by A. Dal Corso v.6.3MaX
     Using radial grid of 1073 points,  4 beta functions with:
                l(1) =   0
                l(2) =   0
                l(3) =   1
                l(4) =   1
     Q(r) pseudized with 0 coefficients

     PseudoPot. # 3 for Cu read from file:
     /home/cristian/Escritorio/Proyecto_Grafeno/pseudopotenciales/Cu.pbe-dn-rrkjus_psl.1.0.0.UPF
     MD5 check sum: ba3d6c84e19846e79d48cdc68ff7152b
     Pseudo is Ultrasoft + core correction, Zval = 11.0
     Generated using "atomic" code by A. Dal Corso v.6.3
     Using radial grid of 1199 points,  6 beta functions with:
                l(1) =   0
                l(2) =   0
                l(3) =   1
                l(4) =   1
                l(5) =   2
                l(6) =   2
     Q(r) pseudized with 0 coefficients

     vdW kernel table read from file rVV10_kernel_table
     MD5 check sum: b8e2538accc0c0b3206b45ba4daaba6c

     atomic species   valence    mass     pseudopotential
        H              1.00     1.00794     H ( 1.00)
        C              4.00    12.01070     C ( 1.00)
        Cu            11.00    63.54600     Cu( 1.00)

     Starting magnetic structure
     atomic species   magnetization
        H            0.500
        C            0.300
        Cu           0.800

     No symmetry found

                                    s                        frac. trans.

      isym =  1     identity

 cryst.   s( 1) = (     1          0          0      )
                  (     0          1          0      )
                  (     0          0          1      )

 cart.    s( 1) = (  1.0000000  0.0000000  0.0000000 )
                  (  0.0000000  1.0000000  0.0000000 )
                  (  0.0000000  0.0000000  1.0000000 )

     point group C_1 (1)
     there are  1 classes
     the character table:

       E
A      1.00

     the symmetry operations in each class and the name of the first element:

     E        1
          identity

   Cartesian axes

     site n.     atom                  positions (alat units)
         1           H   tau(   1) = (   0.2694937   0.4041452   0.1622522  )
         2           H   tau(   2) = (   0.3305063   0.4041452   0.1622522  )
         3           C   tau(   3) = (   0.0000000   0.0000000   0.0000000  )
         4           C   tau(   4) = (   0.0000000   0.1154701   0.0000000  )
         5           C   tau(   5) = (  -0.1000000   0.1732051   0.0000000  )
         6           C   tau(   6) = (  -0.1000000   0.2886751   0.0000000  )
         7           C   tau(   7) = (  -0.2000000   0.3464102   0.0000000  )
         8           C   tau(   8) = (  -0.2000000   0.4618802   0.0000000  )
         9           C   tau(   9) = (  -0.3000000   0.5196152   0.0000000  )
        10           C   tau(  10) = (  -0.3000000   0.6350853   0.0000000  )
        11           C   tau(  11) = (  -0.4000000   0.6928203   0.0000000  )
        12           C   tau(  12) = (  -0.4000000   0.8082904   0.0000000  )
        13           C   tau(  13) = (   0.2000000   0.0000000   0.0000000  )
        14           C   tau(  14) = (   0.2000000   0.1154701   0.0000000  )
        15           C   tau(  15) = (   0.1000000   0.1732051   0.0000000  )
        16           C   tau(  16) = (   0.1000000   0.2886751   0.0000000  )
        17           C   tau(  17) = (   0.0000000   0.3464102   0.0000000  )
        18           C   tau(  18) = (   0.0000000   0.4618802   0.0000000  )
        19           C   tau(  19) = (  -0.1000000   0.5196152   0.0000000  )
        20           C   tau(  20) = (  -0.1000000   0.6350853   0.0000000  )
        21           C   tau(  21) = (  -0.2000000   0.6928203   0.0000000  )
        22           C   tau(  22) = (  -0.2000000   0.8082904   0.0000000  )
        23           C   tau(  23) = (   0.4000000   0.0000000   0.0000000  )
        24           C   tau(  24) = (   0.4000000   0.1154701   0.0000000  )
        25           C   tau(  25) = (   0.3000000   0.1732051   0.0000000  )
        26           C   tau(  26) = (   0.3000000   0.2886751   0.0000000  )
        27           C   tau(  27) = (   0.2000000   0.3464102   0.0000000  )
        28           Cu  tau(  28) = (   0.2000000   0.4618802   0.0000000  )
        29           C   tau(  29) = (   0.1000000   0.5196152   0.0000000  )
        30           C   tau(  30) = (   0.1000000   0.6350853   0.0000000  )
        31           C   tau(  31) = (   0.0000000   0.6928203   0.0000000  )
        32           C   tau(  32) = (   0.0000000   0.8082904   0.0000000  )
        33           C   tau(  33) = (   0.6000000   0.0000000   0.0000000  )
        34           C   tau(  34) = (   0.6000000   0.1154701   0.0000000  )
        35           C   tau(  35) = (   0.5000000   0.1732051   0.0000000  )
        36           C   tau(  36) = (   0.5000000   0.2886751   0.0000000  )
        37           C   tau(  37) = (   0.4000000   0.3464102   0.0000000  )
        38           C   tau(  38) = (   0.4000000   0.4618802   0.0000000  )
        39           C   tau(  39) = (   0.3000000   0.5196152   0.0000000  )
        40           C   tau(  40) = (   0.3000000   0.6350853   0.0000000  )
        41           C   tau(  41) = (   0.2000000   0.6928203   0.0000000  )
        42           C   tau(  42) = (   0.2000000   0.8082904   0.0000000  )
        43           C   tau(  43) = (   0.8000000   0.0000000   0.0000000  )
        44           C   tau(  44) = (   0.8000000   0.1154701   0.0000000  )
        45           C   tau(  45) = (   0.7000000   0.1732051   0.0000000  )
        46           C   tau(  46) = (   0.7000000   0.2886751   0.0000000  )
        47           C   tau(  47) = (   0.6000000   0.3464102   0.0000000  )
        48           C   tau(  48) = (   0.6000000   0.4618802   0.0000000  )
        49           C   tau(  49) = (   0.5000000   0.5196152   0.0000000  )
        50           C   tau(  50) = (   0.5000000   0.6350853   0.0000000  )
        51           C   tau(  51) = (   0.4000000   0.6928203   0.0000000  )
        52           C   tau(  52) = (   0.4000000   0.8082904   0.0000000  )

   Crystallographic axes

     site n.     atom                  positions (cryst. coord.)
         1           H   tau(   1) = (  0.5028270  0.4666667  0.2000000  )
         2           H   tau(   2) = (  0.5638397  0.4666667  0.2000000  )
         3           C   tau(   3) = (  0.0000000  0.0000000  0.0000000  )
         4           C   tau(   4) = (  0.0666667  0.1333333  0.0000000  )
         5           C   tau(   5) = (  0.0000000  0.2000000  0.0000000  )
         6           C   tau(   6) = (  0.0666667  0.3333333  0.0000000  )
         7           C   tau(   7) = (  0.0000000  0.4000000  0.0000000  )
         8           C   tau(   8) = (  0.0666667  0.5333333  0.0000000  )
         9           C   tau(   9) = (  0.0000000  0.6000000  0.0000000  )
        10           C   tau(  10) = (  0.0666667  0.7333333  0.0000000  )
        11           C   tau(  11) = (  0.0000000  0.8000000  0.0000000  )
        12           C   tau(  12) = (  0.0666667  0.9333333  0.0000000  )
        13           C   tau(  13) = (  0.2000000  0.0000000  0.0000000  )
        14           C   tau(  14) = (  0.2666667  0.1333333  0.0000000  )
        15           C   tau(  15) = (  0.2000000  0.2000000  0.0000000  )
        16           C   tau(  16) = (  0.2666667  0.3333333  0.0000000  )
        17           C   tau(  17) = (  0.2000000  0.4000000  0.0000000  )
        18           C   tau(  18) = (  0.2666667  0.5333333  0.0000000  )
        19           C   tau(  19) = (  0.2000000  0.6000000  0.0000000  )
        20           C   tau(  20) = (  0.2666667  0.7333333  0.0000000  )
        21           C   tau(  21) = (  0.2000000  0.8000000  0.0000000  )
        22           C   tau(  22) = (  0.2666667  0.9333333  0.0000000  )
        23           C   tau(  23) = (  0.4000000  0.0000000  0.0000000  )
        24           C   tau(  24) = (  0.4666667  0.1333333  0.0000000  )
        25           C   tau(  25) = (  0.4000000  0.2000000  0.0000000  )
        26           C   tau(  26) = (  0.4666667  0.3333333  0.0000000  )
        27           C   tau(  27) = (  0.4000000  0.4000000  0.0000000  )
        28           Cu  tau(  28) = (  0.4666667  0.5333333  0.0000000  )
        29           C   tau(  29) = (  0.4000000  0.6000000  0.0000000  )
        30           C   tau(  30) = (  0.4666667  0.7333333  0.0000000  )
        31           C   tau(  31) = (  0.4000000  0.8000000  0.0000000  )
        32           C   tau(  32) = (  0.4666667  0.9333333  0.0000000  )
        33           C   tau(  33) = (  0.6000000  0.0000000  0.0000000  )
        34           C   tau(  34) = (  0.6666667  0.1333333  0.0000000  )
        35           C   tau(  35) = (  0.6000000  0.2000000  0.0000000  )
        36           C   tau(  36) = (  0.6666667  0.3333333  0.0000000  )
        37           C   tau(  37) = (  0.6000000  0.4000000  0.0000000  )
        38           C   tau(  38) = (  0.6666667  0.5333333  0.0000000  )
        39           C   tau(  39) = (  0.6000000  0.6000000  0.0000000  )
        40           C   tau(  40) = (  0.6666667  0.7333333  0.0000000  )
        41           C   tau(  41) = (  0.6000000  0.8000000  0.0000000  )
        42           C   tau(  42) = (  0.6666667  0.9333333  0.0000000  )
        43           C   tau(  43) = (  0.8000000  0.0000000  0.0000000  )
        44           C   tau(  44) = (  0.8666667  0.1333333  0.0000000  )
        45           C   tau(  45) = (  0.8000000  0.2000000  0.0000000  )
        46           C   tau(  46) = (  0.8666667  0.3333333  0.0000000  )
        47           C   tau(  47) = (  0.8000000  0.4000000  0.0000000  )
        48           C   tau(  48) = (  0.8666667  0.5333333  0.0000000  )
        49           C   tau(  49) = (  0.8000000  0.6000000  0.0000000  )
        50           C   tau(  50) = (  0.8666667  0.7333333  0.0000000  )
        51           C   tau(  51) = (  0.8000000  0.8000000  0.0000000  )
        52           C   tau(  52) = (  0.8666667  0.9333333  0.0000000  )

     number of k points=     1  Marzari-Vanderbilt smearing, width (Ry)=  0.0010
                       cart. coord. in units 2pi/alat
        k(    1) = (   0.0000000   0.0000000   0.0000000), wk =   1.0000000

                       cryst. coord.
        k(    1) = (   0.0000000   0.0000000   0.0000000), wk =   1.0000000

     Check: negative core charge=   -0.000002

     Initial potential from superposition of free atoms

     starting charge  208.80532, renormalised to  209.00000

     negative rho (up, down):  7.370E-05 1.356E-02

Carrying out rVV10 run using the following parameters:
Nqs =      20    Nr_points =    1024   r_max =   100.000
b_value =  6.30000    beta =  0.00901
     q_mesh =  0.00010000  0.00030000  0.00058939  0.00100810
               0.00161396  0.00249058  0.00375900  0.00559430
               0.00824984  0.01209221  0.01765183  0.02569619
               0.03733578  0.05417739  0.07854596  0.11380545
               0.16482331  0.23864234  0.34545298  0.50000000

Gradients computed in Reciprocal space

     Starting wfcs are  207 randomized atomic wfcs

     Self-consistent Calculation

     iteration #  1     ecut=    70.00 Ry     beta= 0.70
     Davidson diagonalization with overlap
     ethr =  1.00E-02,  avg # of iterations =  2.0

[...]

     total energy              =    -729.84045749 Ry
     Harris-Foulkes estimate   =    -734.88958668 Ry
     estimated scf accuracy    <      11.94345692 Ry

     total magnetization       =     4.99 Bohr mag/cell
     absolute magnetization    =     5.70 Bohr mag/cell

[...]

     total energy              =    -734.72605464 Ry
     Harris-Foulkes estimate   =    -734.72605485 Ry
     estimated scf accuracy    <       0.00000159 Ry

[...]

     iteration # 27     ecut=    70.00 Ry     beta= 0.70
     Davidson diagonalization with overlap
     ethr =  7.61E-10,  avg # of iterations =  3.0

     negative rho (up, down):  6.862E-04 1.966E-03

     Magnetic moment per site:
     atom:    1    charge:    0.2167    magn:    0.0000    constr:    0.0000
     atom:    2    charge:    0.2157    magn:    0.0002    constr:    0.0000
     atom:    3    charge:    1.7160    magn:    0.0025    constr:    0.0000
     atom:    4    charge:    1.7156    magn:    0.0030    constr:    0.0000
     atom:    5    charge:    1.7168    magn:    0.0001    constr:    0.0000
     atom:    6    charge:    1.7147    magn:    0.0000    constr:    0.0000
     atom:    7    charge:    1.7171    magn:   -0.0002    constr:    0.0000
     atom:    8    charge:    1.7152    magn:    0.0011    constr:    0.0000
     atom:    9    charge:    1.7156    magn:    0.0010    constr:    0.0000
     atom:   10    charge:    1.7169    magn:   -0.0009    constr:    0.0000
     atom:   11    charge:    1.7159    magn:    0.0006    constr:    0.0000
     atom:   12    charge:    1.7170    magn:   -0.0008    constr:    0.0000
     atom:   13    charge:    1.7159    magn:    0.0007    constr:    0.0000
     atom:   14    charge:    1.7168    magn:   -0.0014    constr:    0.0000
     atom:   15    charge:    1.7138    magn:    0.0113    constr:    0.0000
     atom:   16    charge:    1.7111    magn:    0.0169    constr:    0.0000
     atom:   17    charge:    1.7212    magn:    0.0023    constr:    0.0000
     atom:   18    charge:    1.7116    magn:    0.0143    constr:    0.0000
     atom:   19    charge:    1.7124    magn:    0.0031    constr:    0.0000
     atom:   20    charge:    1.7167    magn:   -0.0004    constr:    0.0000
     atom:   21    charge:    1.7160    magn:    0.0003    constr:    0.0000
     atom:   22    charge:    1.7170    magn:   -0.0009    constr:    0.0000
     atom:   23    charge:    1.7157    magn:    0.0014    constr:    0.0000
     atom:   24    charge:    1.7151    magn:    0.0011    constr:    0.0000
     atom:   25    charge:    1.7126    magn:    0.0081    constr:    0.0000
     atom:   26    charge:    1.7101    magn:    0.0048    constr:    0.0000
     atom:   27    charge:    1.8253    magn:    0.1100    constr:    0.0000
     atom:   28    charge:    7.0297    magn:    0.1539    constr:    0.0000
     atom:   29    charge:    1.8085    magn:    0.0352    constr:    0.0000
     atom:   30    charge:    1.7122    magn:    0.0182    constr:    0.0000
     atom:   31    charge:    1.7126    magn:    0.0042    constr:    0.0000
     atom:   32    charge:    1.7153    magn:    0.0017    constr:    0.0000
     atom:   33    charge:    1.7170    magn:   -0.0002    constr:    0.0000
     atom:   34    charge:    1.7153    magn:    0.0000    constr:    0.0000
     atom:   35    charge:    1.7169    magn:    0.0002    constr:    0.0000
     atom:   36    charge:    1.7147    magn:   -0.0003    constr:    0.0000
     atom:   37    charge:    1.7224    magn:    0.0054    constr:    0.0000
     atom:   38    charge:    1.7105    magn:    0.0042    constr:    0.0000
     atom:   39    charge:    1.8221    magn:    0.0922    constr:    0.0000
     atom:   40    charge:    1.7117    magn:    0.0203    constr:    0.0000
     atom:   41    charge:    1.7210    magn:    0.0013    constr:    0.0000
     atom:   42    charge:    1.7146    magn:    0.0002    constr:    0.0000
     atom:   43    charge:    1.7169    magn:   -0.0000    constr:    0.0000
     atom:   44    charge:    1.7153    magn:    0.0001    constr:    0.0000
     atom:   45    charge:    1.7208    magn:   -0.0007    constr:    0.0000
     atom:   46    charge:    1.7153    magn:   -0.0000    constr:    0.0000
     atom:   47    charge:    1.7168    magn:    0.0002    constr:    0.0000
     atom:   48    charge:    1.7150    magn:    0.0007    constr:    0.0000
     atom:   49    charge:    1.7125    magn:    0.0061    constr:    0.0000
     atom:   50    charge:    1.7169    magn:   -0.0011    constr:    0.0000
     atom:   51    charge:    1.7137    magn:    0.0104    constr:    0.0000
     atom:   52    charge:    1.7156    magn:    0.0031    constr:    0.0000

     End of self-consistent calculation

 ------ SPIN UP ------------

          k = 0.0000 0.0000 0.0000 ( 87777 PWs)   bands (ev):

   -19.8592 -19.0355 -18.9948 -18.9249 -18.9167 -18.8600 -18.7875 -17.1863
   -17.1832 -17.1463 -17.1219 -17.0941 -16.8289 -16.3507 -16.3361 -16.2109
   -16.1931 -16.1783 -15.7879 -14.4488 -14.4296 -14.1447 -14.0532 -14.0473
   -13.5974 -13.1846 -13.1827 -13.0961 -12.9676 -12.9472 -12.6478 -12.3326
   -12.3267 -11.7338 -11.6310 -11.6233 -11.2021 -10.9571 -10.9416  -9.5379
    -9.3865  -9.3779  -9.2750  -9.2594  -9.2504  -9.2479  -9.2411  -9.1029
    -9.0794  -9.0751  -8.9753  -8.7391  -8.7280  -8.1598  -7.9117  -7.8701
    -7.6864  -7.6801  -7.5604  -7.5479  -7.4047  -6.9386  -6.8635  -6.8479
    -6.8307  -6.7980  -6.7514  -6.7153  -6.6390  -6.6281  -6.5950  -6.5862
    -6.5782  -6.5393  -6.4225  -6.4052  -5.9484  -5.6287  -5.6271  -5.0436
    -4.9736  -4.9457  -4.9018  -4.9004  -4.7791  -4.7426  -4.6912  -4.5534
    -4.5364  -4.3194  -3.8803  -3.8420  -3.8372  -3.8280  -3.7905  -3.6571
    -3.6184  -3.3261  -1.9054  -1.8464  -1.8406  -1.7654  -1.7529  -1.2713
    -0.8499  -0.8391   0.8858   0.9277   0.9336   1.0777   1.0792   1.4736
     2.4824   2.7711   2.7811   2.8196   2.9143   2.9184   3.3659   3.5533
     3.6557   3.7225   3.7267   3.7445   3.9385   4.1988

     occupation numbers
     1.0000   1.0000   1.0000   1.0000   1.0000   1.0000   1.0000   1.0000
     1.0000   1.0000   1.0000   1.0000   1.0000   1.0000   1.0000   1.0000
     1.0000   1.0000   1.0000   1.0000   1.0000   1.0000   1.0000   1.0000
     1.0000   1.0000   1.0000   1.0000   1.0000   1.0000   1.0000   1.0000
     1.0000   1.0000   1.0000   1.0000   1.0000   1.0000   1.0000   1.0000
     1.0000   1.0000   1.0000   1.0000   1.0000   1.0000   1.0000   1.0000
     1.0000   1.0000   1.0000   1.0000   1.0000   1.0000   1.0000   1.0000
     1.0000   1.0000   1.0000   1.0000   1.0000   1.0000   1.0000   1.0000
     1.0000   1.0000   1.0000   1.0000   1.0000   1.0000   1.0000   1.0000
     1.0000   1.0000   1.0000   1.0000   1.0000   1.0000   1.0000   1.0000
     1.0000   1.0000   1.0000   1.0000   1.0000   1.0000   1.0000   1.0000
     1.0000   1.0000   1.0000   1.0000   1.0000   1.0000   1.0000   1.0000
     1.0000   1.0000   1.0000   1.0000   1.0000   1.0000   1.0000   1.0000
     0.7716   0.2284   0.0000   0.0000   0.0000   0.0000   0.0000   0.0000
     0.0000   0.0000   0.0000   0.0000   0.0000   0.0000   0.0000   0.0000
     0.0000   0.0000   0.0000   0.0000   0.0000   0.0000

 ------ SPIN DOWN ----------

          k = 0.0000 0.0000 0.0000 ( 87777 PWs)   bands (ev):

   -19.8345 -19.0094 -18.9590 -18.9173 -18.9088 -18.8570 -18.7140 -17.1483
   -17.1472 -17.1290 -17.1073 -17.0633 -16.7961 -16.3160 -16.2976 -16.1966
   -16.1712 -16.1638 -15.7145 -14.3516 -14.3488 -14.1209 -14.0453 -14.0385
   -13.5555 -13.1597 -13.1570 -13.0833 -12.9403 -12.9020 -12.5857 -12.2292
   -12.2097 -11.7143 -11.6047 -11.5807 -11.1044 -10.8226 -10.8112  -9.4975
    -9.3680  -9.3562  -9.2517  -9.2439  -9.2412  -9.2290  -9.1468  -9.0225
    -9.0176  -8.9029  -8.8481  -8.7051  -8.6773  -8.1362  -7.8874  -7.8495
    -7.6369  -7.6337  -7.5473  -7.5266  -7.3843  -6.8940  -6.8627  -6.8429
    -6.7989  -6.7901  -6.7343  -6.7004  -6.6167  -6.6071  -6.5890  -6.5806
    -6.5739  -6.5325  -6.3812  -6.3645  -5.9203  -5.6071  -5.5941  -5.0245
    -4.9635  -4.8828  -4.8812  -4.8040  -4.7743  -4.7411  -4.6575  -4.5421
    -4.5231  -4.2934  -3.8761  -3.8328  -3.8119  -3.8077  -3.7854  -3.6378
    -3.6053  -3.2800  -1.9020  -1.8442  -1.8385  -1.7415  -1.7322  -1.2351
    -0.5689  -0.3229   0.8891   0.9321   0.9367   1.0931   1.1084   1.4861
     2.4826   2.7743   2.7819   2.8203   2.9382   2.9492   3.3741   3.5596
     3.6579   3.7219   3.7259   3.7432   3.9445   4.1987

     occupation numbers
     1.0000   1.0000   1.0000   1.0000   1.0000   1.0000   1.0000   1.0000
     1.0000   1.0000   1.0000   1.0000   1.0000   1.0000   1.0000   1.0000
     1.0000   1.0000   1.0000   1.0000   1.0000   1.0000   1.0000   1.0000
     1.0000   1.0000   1.0000   1.0000   1.0000   1.0000   1.0000   1.0000
     1.0000   1.0000   1.0000   1.0000   1.0000   1.0000   1.0000   1.0000
     1.0000   1.0000   1.0000   1.0000   1.0000   1.0000   1.0000   1.0000
     1.0000   1.0000   1.0000   1.0000   1.0000   1.0000   1.0000   1.0000
     1.0000   1.0000   1.0000   1.0000   1.0000   1.0000   1.0000   1.0000
     1.0000   1.0000   1.0000   1.0000   1.0000   1.0000   1.0000   1.0000
     1.0000   1.0000   1.0000   1.0000   1.0000   1.0000   1.0000   1.0000
     1.0000   1.0000   1.0000   1.0000   1.0000   1.0000   1.0000   1.0000
     1.0000   1.0000   1.0000   1.0000   1.0000   1.0000   1.0000   1.0000
     1.0000   1.0000   1.0000   1.0000   1.0000   1.0000   1.0000   1.0000
     0.0000   0.0000   0.0000   0.0000   0.0000   0.0000   0.0000   0.0000
     0.0000   0.0000   0.0000   0.0000   0.0000   0.0000   0.0000   0.0000
     0.0000   0.0000   0.0000   0.0000   0.0000   0.0000

     the Fermi energy is    -0.8430 ev

!    total energy              =    -734.72605463 Ry
     Harris-Foulkes estimate   =    -734.72605499 Ry
     estimated scf accuracy    <       0.00000073 Ry

     The total energy is the sum of the following terms:

     one-electron contribution =   -2514.15762725 Ry
     hartree contribution      =    1312.74449412 Ry
     xc contribution           =    -276.00396761 Ry
     ewald contribution        =     742.69127060 Ry
     smearing contrib. (-TS)   =      -0.00022450 Ry

     total magnetization       =     1.00 Bohr mag/cell
     absolute magnetization    =     1.07 Bohr mag/cell

     convergence has been achieved in  27 iterations

     Writing output data file cobre-sixhollow-distance-2.0.save/

     General routines

     Parallel routines

   This run was terminated on:  22: 0:40   7Sep2022

   JOB DONE.