     Program PWSCF v.6.4.1 starts on  5Sep2022 at 12:42:23

     R & G space division:  proc/nbgrp/npool/nimage =       6
     Reading input from distance-1.8.in

     Current dimensions of program PWSCF are:
     Max number of different atomic species (ntypx) = 10
     Max number of k-points (npk) =  40000
     Max angular momentum in pseudopotentials (lmaxx) =  3

     IMPORTANT: XC functional enforced from input :
     Exchange-correlation      = RVV10 ( 1  4 13  4 3 0)
     Any further DFT definition will be discarded
     Please, verify this is what you really want

               file H.pbe-rrkjus.UPF: wavefunction(s)  1S renormalized
               file Cu.pbe-dn-rrkjus_psl.1.0.0.UPF: wavefunction(s)  3D renormalized

     Subspace diagonalization in iterative solution of the eigenvalue problem:
     a serial algorithm will be used

     bravais-lattice index     =            4
     lattice parameter (alat)  =      23.2937  a.u.
     unit-cell volume          =    8879.8548 (a.u.)^3
     number of atoms/cell      =           52
     number of atomic types    =            3
     number of electrons       =       209.00
     number of Kohn-Sham states=          126
     kinetic-energy cutoff     =      70.0000  Ry
     charge density cutoff     =     490.0000  Ry
     convergence threshold     =      1.0E-06
     mixing beta               =       0.7000
     number of iterations used =            8  plain     mixing
     Exchange-correlation      = RVV10 ( 1  4 13  4 3 0)

     celldm(1)=  23.293684  celldm(2)=   0.000000  celldm(3)=   0.811261
     celldm(4)=   0.000000  celldm(5)=   0.000000  celldm(6)=   0.000000

     crystal axes: (cart. coord. in units of alat)
               a(1) = (   1.000000   0.000000   0.000000 )
               a(2) = (  -0.500000   0.866025   0.000000 )
               a(3) = (   0.000000   0.000000   0.811261 )

     reciprocal axes: (cart. coord. in units 2 pi/alat)
               b(1) = (  1.000000  0.577350 -0.000000 )
               b(2) = (  0.000000  1.154701  0.000000 )
               b(3) = (  0.000000 -0.000000  1.232649 )

     PseudoPot. # 1 for H  read from file:
     /home/cristian/Escritorio/Proyecto_Grafeno/pseudopotenciales/H.pbe-rrkjus.UPF
     MD5 check sum: 7cc9d459525c9a0585f487a71c3c9563
     Pseudo is Ultrasoft, Zval =  1.0
     Generated by new atomic code, or converted to UPF format
     Using radial grid of 1061 points,  2 beta functions with:
                l(1) =   0
                l(2) =   0
     Q(r) pseudized with 0 coefficients

     PseudoPot. # 2 for C  read from file:
     /home/cristian/Escritorio/Proyecto_Grafeno/pseudopotenciales/C.pbe-n-rrkjus_psl.1.0.0.UPF
     MD5 check sum: 1fdd950c42eb37d8afe3dd2f8d12311e
     Pseudo is Ultrasoft + core correction, Zval =  4.0
     Generated using "atomic" code by A. Dal Corso v.6.3MaX
     Using radial grid of 1073 points,  4 beta functions with:
                l(1) =   0
                l(2) =   0
                l(3) =   1
                l(4) =   1
     Q(r) pseudized with 0 coefficients

     PseudoPot. # 3 for Cu read from file:
     /home/cristian/Escritorio/Proyecto_Grafeno/pseudopotenciales/Cu.pbe-dn-rrkjus_psl.1.0.0.UPF
     MD5 check sum: ba3d6c84e19846e79d48cdc68ff7152b
     Pseudo is Ultrasoft + core correction, Zval = 11.0
     Generated using "atomic" code by A. Dal Corso v.6.3
     Using radial grid of 1199 points,  6 beta functions with:
                l(1) =   0
                l(2) =   0
                l(3) =   1
                l(4) =   1
                l(5) =   2
                l(6) =   2
     Q(r) pseudized with 0 coefficients

     vdW kernel table read from file rVV10_kernel_table
     MD5 check sum: b8e2538accc0c0b3206b45ba4daaba6c

     atomic species   valence    mass     pseudopotential
        H              1.00     1.00794     H ( 1.00)
        C              4.00    12.01070     C ( 1.00)
        Cu            11.00    63.54600     Cu( 1.00)

     Starting magnetic structure
     atomic species   magnetization
        H            0.500
        C            0.300
        Cu           0.800

     No symmetry found

                                    s                        frac. trans.

      isym =  1     identity

 cryst.   s( 1) = (     1          0          0      )
                  (     0          1          0      )
                  (     0          0          1      )

 cart.    s( 1) = (  1.0000000  0.0000000  0.0000000 )
                  (  0.0000000  1.0000000  0.0000000 )
                  (  0.0000000  0.0000000  1.0000000 )

     point group C_1 (1)
     there are  1 classes
     the character table:

       E
A      1.00

     the symmetry operations in each class and the name of the first element:

     E        1
          identity

   Cartesian axes

     site n.     atom                  positions (alat units)
         1           H   tau(   1) = (   0.2500000   0.4907477   0.1460270  )
         2           H   tau(   2) = (   0.2500000   0.4907477   0.2070397  )
         3           C   tau(   3) = (   0.0000000   0.0000000   0.0000000  )
         4           C   tau(   4) = (   0.0000000   0.1154701   0.0000000  )
         5           C   tau(   5) = (  -0.1000000   0.1732051   0.0000000  )
         6           C   tau(   6) = (  -0.1000000   0.2886751   0.0000000  )
         7           C   tau(   7) = (  -0.2000000   0.3464102   0.0000000  )
         8           C   tau(   8) = (  -0.2000000   0.4618802   0.0000000  )
         9           C   tau(   9) = (  -0.3000000   0.5196152   0.0000000  )
        10           C   tau(  10) = (  -0.3000000   0.6350853   0.0000000  )
        11           C   tau(  11) = (  -0.4000000   0.6928203   0.0000000  )
        12           C   tau(  12) = (  -0.4000000   0.8082904   0.0000000  )
        13           C   tau(  13) = (   0.2000000   0.0000000   0.0000000  )
        14           C   tau(  14) = (   0.2000000   0.1154701   0.0000000  )
        15           C   tau(  15) = (   0.1000000   0.1732051   0.0000000  )
        16           C   tau(  16) = (   0.1000000   0.2886751   0.0000000  )
        17           C   tau(  17) = (   0.0000000   0.3464102   0.0000000  )
        18           C   tau(  18) = (   0.0000000   0.4618802   0.0000000  )
        19           C   tau(  19) = (  -0.1000000   0.5196152   0.0000000  )
        20           C   tau(  20) = (  -0.1000000   0.6350853   0.0000000  )
        21           C   tau(  21) = (  -0.2000000   0.6928203   0.0000000  )
        22           C   tau(  22) = (  -0.2000000   0.8082904   0.0000000  )
        23           C   tau(  23) = (   0.4000000   0.0000000   0.0000000  )
        24           C   tau(  24) = (   0.4000000   0.1154701   0.0000000  )
        25           C   tau(  25) = (   0.3000000   0.1732051   0.0000000  )
        26           C   tau(  26) = (   0.3000000   0.2886751   0.0000000  )
        27           C   tau(  27) = (   0.2000000   0.3464102   0.0000000  )
        28           Cu  tau(  28) = (   0.2000000   0.4618802   0.0000000  )
        29           C   tau(  29) = (   0.1000000   0.5196152   0.0000000  )
        30           C   tau(  30) = (   0.1000000   0.6350853   0.0000000  )
        31           C   tau(  31) = (   0.0000000   0.6928203   0.0000000  )
        32           C   tau(  32) = (   0.0000000   0.8082904   0.0000000  )
        33           C   tau(  33) = (   0.6000000   0.0000000   0.0000000  )
        34           C   tau(  34) = (   0.6000000   0.1154701   0.0000000  )
        35           C   tau(  35) = (   0.5000000   0.1732051   0.0000000  )
        36           C   tau(  36) = (   0.5000000   0.2886751   0.0000000  )
        37           C   tau(  37) = (   0.4000000   0.3464102   0.0000000  )
        38           C   tau(  38) = (   0.4000000   0.4618802   0.0000000  )
        39           C   tau(  39) = (   0.3000000   0.5196152   0.0000000  )
        40           C   tau(  40) = (   0.3000000   0.6350853   0.0000000  )
        41           C   tau(  41) = (   0.2000000   0.6928203   0.0000000  )
        42           C   tau(  42) = (   0.2000000   0.8082904   0.0000000  )
        43           C   tau(  43) = (   0.8000000   0.0000000   0.0000000  )
        44           C   tau(  44) = (   0.8000000   0.1154701   0.0000000  )
        45           C   tau(  45) = (   0.7000000   0.1732051   0.0000000  )
        46           C   tau(  46) = (   0.7000000   0.2886751   0.0000000  )
        47           C   tau(  47) = (   0.6000000   0.3464102   0.0000000  )
        48           C   tau(  48) = (   0.6000000   0.4618802   0.0000000  )
        49           C   tau(  49) = (   0.5000000   0.5196152   0.0000000  )
        50           C   tau(  50) = (   0.5000000   0.6350853   0.0000000  )
        51           C   tau(  51) = (   0.4000000   0.6928203   0.0000000  )
        52           C   tau(  52) = (   0.4000000   0.8082904   0.0000000  )

   Crystallographic axes

     site n.     atom                  positions (cryst. coord.)
         1           H   tau(   1) = (  0.5333333  0.5666667  0.1800000  )
         2           H   tau(   2) = (  0.5333333  0.5666667  0.2552072  )
         3           C   tau(   3) = (  0.0000000  0.0000000  0.0000000  )
         4           C   tau(   4) = (  0.0666667  0.1333333  0.0000000  )
         5           C   tau(   5) = (  0.0000000  0.2000000  0.0000000  )
         6           C   tau(   6) = (  0.0666667  0.3333333  0.0000000  )
         7           C   tau(   7) = (  0.0000000  0.4000000  0.0000000  )
         8           C   tau(   8) = (  0.0666667  0.5333333  0.0000000  )
         9           C   tau(   9) = (  0.0000000  0.6000000  0.0000000  )
        10           C   tau(  10) = (  0.0666667  0.7333333  0.0000000  )
        11           C   tau(  11) = (  0.0000000  0.8000000  0.0000000  )
        12           C   tau(  12) = (  0.0666667  0.9333333  0.0000000  )
        13           C   tau(  13) = (  0.2000000  0.0000000  0.0000000  )
        14           C   tau(  14) = (  0.2666667  0.1333333  0.0000000  )
        15           C   tau(  15) = (  0.2000000  0.2000000  0.0000000  )
        16           C   tau(  16) = (  0.2666667  0.3333333  0.0000000  )
        17           C   tau(  17) = (  0.2000000  0.4000000  0.0000000  )
        18           C   tau(  18) = (  0.2666667  0.5333333  0.0000000  )
        19           C   tau(  19) = (  0.2000000  0.6000000  0.0000000  )
        20           C   tau(  20) = (  0.2666667  0.7333333  0.0000000  )
        21           C   tau(  21) = (  0.2000000  0.8000000  0.0000000  )
        22           C   tau(  22) = (  0.2666667  0.9333333  0.0000000  )
        23           C   tau(  23) = (  0.4000000  0.0000000  0.0000000  )
        24           C   tau(  24) = (  0.4666667  0.1333333  0.0000000  )
        25           C   tau(  25) = (  0.4000000  0.2000000  0.0000000  )
        26           C   tau(  26) = (  0.4666667  0.3333333  0.0000000  )
        27           C   tau(  27) = (  0.4000000  0.4000000  0.0000000  )
        28           Cu  tau(  28) = (  0.4666667  0.5333333  0.0000000  )
        29           C   tau(  29) = (  0.4000000  0.6000000  0.0000000  )
        30           C   tau(  30) = (  0.4666667  0.7333333  0.0000000  )
        31           C   tau(  31) = (  0.4000000  0.8000000  0.0000000  )
        32           C   tau(  32) = (  0.4666667  0.9333333  0.0000000  )
        33           C   tau(  33) = (  0.6000000  0.0000000  0.0000000  )
        34           C   tau(  34) = (  0.6666667  0.1333333  0.0000000  )
        35           C   tau(  35) = (  0.6000000  0.2000000  0.0000000  )
        36           C   tau(  36) = (  0.6666667  0.3333333  0.0000000  )
        37           C   tau(  37) = (  0.6000000  0.4000000  0.0000000  )
        38           C   tau(  38) = (  0.6666667  0.5333333  0.0000000  )
        39           C   tau(  39) = (  0.6000000  0.6000000  0.0000000  )
        40           C   tau(  40) = (  0.6666667  0.7333333  0.0000000  )
        41           C   tau(  41) = (  0.6000000  0.8000000  0.0000000  )
        42           C   tau(  42) = (  0.6666667  0.9333333  0.0000000  )
        43           C   tau(  43) = (  0.8000000  0.0000000  0.0000000  )
        44           C   tau(  44) = (  0.8666667  0.1333333  0.0000000  )
        45           C   tau(  45) = (  0.8000000  0.2000000  0.0000000  )
        46           C   tau(  46) = (  0.8666667  0.3333333  0.0000000  )
        47           C   tau(  47) = (  0.8000000  0.4000000  0.0000000  )
        48           C   tau(  48) = (  0.8666667  0.5333333  0.0000000  )
        49           C   tau(  49) = (  0.8000000  0.6000000  0.0000000  )
        50           C   tau(  50) = (  0.8666667  0.7333333  0.0000000  )
        51           C   tau(  51) = (  0.8000000  0.8000000  0.0000000  )
        52           C   tau(  52) = (  0.8666667  0.9333333  0.0000000  )

     number of k points=     1  Marzari-Vanderbilt smearing, width (Ry)=  0.0010
                       cart. coord. in units 2pi/alat
        k(    1) = (   0.0000000   0.0000000   0.0000000), wk =   1.0000000

                       cryst. coord.
        k(    1) = (   0.0000000   0.0000000   0.0000000), wk =   1.0000000

     Check: negative core charge=   -0.000002

     Initial potential from superposition of free atoms

     starting charge  208.80532, renormalised to  209.00000

     negative rho (up, down):  6.971E-05 1.312E-02

Carrying out rVV10 run using the following parameters:
Nqs =      20    Nr_points =    1024   r_max =   100.000
b_value =  6.30000    beta =  0.00901
     q_mesh =  0.00010000  0.00030000  0.00058939  0.00100810
               0.00161396  0.00249058  0.00375900  0.00559430
               0.00824984  0.01209221  0.01765183  0.02569619
               0.03733578  0.05417739  0.07854596  0.11380545
               0.16482331  0.23864234  0.34545298  0.50000000

Gradients computed in Reciprocal space

     Starting wfcs are  207 randomized atomic wfcs

     Self-consistent Calculation

     iteration #  1     ecut=    70.00 Ry     beta= 0.70
     Davidson diagonalization with overlap
     ethr =  1.00E-02,  avg # of iterations =  8.0

[...]

     total energy              =    -731.36339351 Ry
     Harris-Foulkes estimate   =    -734.83895526 Ry
     estimated scf accuracy    <      10.65043625 Ry

     total magnetization       =     3.00 Bohr mag/cell
     absolute magnetization    =     4.32 Bohr mag/cell

[...]

     total energy              =    -734.71374516 Ry
     Harris-Foulkes estimate   =    -734.71374519 Ry
     estimated scf accuracy    <       0.00000114 Ry

[...]

     iteration # 31     ecut=    70.00 Ry     beta= 0.70
     Davidson diagonalization with overlap
     ethr =  5.46E-10,  avg # of iterations =  1.0

     negative rho (up, down):  6.375E-04 2.104E-03

     Magnetic moment per site:
     atom:    1    charge:    0.2163    magn:   -0.0002    constr:    0.0000
     atom:    2    charge:    0.2174    magn:    0.0011    constr:    0.0000
     atom:    3    charge:    1.7159    magn:    0.0020    constr:    0.0000
     atom:    4    charge:    1.7154    magn:    0.0025    constr:    0.0000
     atom:    5    charge:    1.7170    magn:   -0.0002    constr:    0.0000
     atom:    6    charge:    1.7145    magn:    0.0002    constr:    0.0000
     atom:    7    charge:    1.7170    magn:   -0.0002    constr:    0.0000
     atom:    8    charge:    1.7154    magn:    0.0025    constr:    0.0000
     atom:    9    charge:    1.7159    magn:    0.0020    constr:    0.0000
     atom:   10    charge:    1.7170    magn:   -0.0009    constr:    0.0000
     atom:   11    charge:    1.7159    magn:    0.0008    constr:    0.0000
     atom:   12    charge:    1.7170    magn:   -0.0009    constr:    0.0000
     atom:   13    charge:    1.7160    magn:    0.0005    constr:    0.0000
     atom:   14    charge:    1.7167    magn:   -0.0007    constr:    0.0000
     atom:   15    charge:    1.7131    magn:    0.0073    constr:    0.0000
     atom:   16    charge:    1.7121    magn:    0.0205    constr:    0.0000
     atom:   17    charge:    1.7211    magn:    0.0009    constr:    0.0000
     atom:   18    charge:    1.7121    magn:    0.0205    constr:    0.0000
     atom:   19    charge:    1.7132    magn:    0.0073    constr:    0.0000
     atom:   20    charge:    1.7167    magn:   -0.0007    constr:    0.0000
     atom:   21    charge:    1.7160    magn:    0.0005    constr:    0.0000
     atom:   22    charge:    1.7169    magn:   -0.0010    constr:    0.0000
     atom:   23    charge:    1.7156    magn:    0.0009    constr:    0.0000
     atom:   24    charge:    1.7150    magn:    0.0007    constr:    0.0000
     atom:   25    charge:    1.7123    magn:    0.0041    constr:    0.0000
     atom:   26    charge:    1.7097    magn:    0.0086    constr:    0.0000
     atom:   27    charge:    1.8151    magn:    0.0598    constr:    0.0000
     atom:   28    charge:    7.0321    magn:    0.1537    constr:    0.0000
     atom:   29    charge:    1.8156    magn:    0.0596    constr:    0.0000
     atom:   30    charge:    1.7097    magn:    0.0086    constr:    0.0000
     atom:   31    charge:    1.7124    magn:    0.0041    constr:    0.0000
     atom:   32    charge:    1.7150    magn:    0.0007    constr:    0.0000
     atom:   33    charge:    1.7169    magn:   -0.0000    constr:    0.0000
     atom:   34    charge:    1.7152    magn:   -0.0000    constr:    0.0000
     atom:   35    charge:    1.7169    magn:   -0.0000    constr:    0.0000
     atom:   36    charge:    1.7146    magn:   -0.0002    constr:    0.0000
     atom:   37    charge:    1.7213    magn:    0.0040    constr:    0.0000
     atom:   38    charge:    1.7107    magn:    0.0105    constr:    0.0000
     atom:   39    charge:    1.8301    magn:    0.1158    constr:    0.0000
     atom:   40    charge:    1.7105    magn:    0.0105    constr:    0.0000
     atom:   41    charge:    1.7213    magn:    0.0040    constr:    0.0000
     atom:   42    charge:    1.7146    magn:   -0.0001    constr:    0.0000
     atom:   43    charge:    1.7169    magn:    0.0002    constr:    0.0000
     atom:   44    charge:    1.7152    magn:    0.0001    constr:    0.0000
     atom:   45    charge:    1.7212    magn:   -0.0008    constr:    0.0000
     atom:   46    charge:    1.7152    magn:    0.0001    constr:    0.0000
     atom:   47    charge:    1.7169    magn:    0.0002    constr:    0.0000
     atom:   48    charge:    1.7154    magn:    0.0021    constr:    0.0000
     atom:   49    charge:    1.7132    magn:    0.0103    constr:    0.0000
     atom:   50    charge:    1.7168    magn:   -0.0015    constr:    0.0000
     atom:   51    charge:    1.7132    magn:    0.0103    constr:    0.0000
     atom:   52    charge:    1.7153    magn:    0.0021    constr:    0.0000

     End of self-consistent calculation

 ------ SPIN UP ------------

          k = 0.0000 0.0000 0.0000 ( 87777 PWs)   bands (ev):

   -19.8685 -19.0388 -19.0132 -18.9313 -18.9223 -18.8667 -18.8013 -17.2006
   -17.1941 -17.1552 -17.1216 -17.1081 -16.8396 -16.3639 -16.3466 -16.2132
   -16.2057 -16.1840 -15.8078 -14.4763 -14.4459 -14.1542 -14.0596 -14.0553
   -13.6079 -13.1941 -13.1925 -13.1044 -12.9698 -12.9649 -12.6647 -12.3528
   -12.3480 -11.7391 -11.6387 -11.6369 -11.2215 -10.9787 -10.9644  -9.5520
    -9.4038  -9.3910  -9.3819  -9.2665  -9.2574  -9.2566  -9.2471  -9.2118
    -9.0910  -9.0834  -9.0156  -8.7476  -8.7445  -8.1831  -7.9213  -7.8909
    -7.6991  -7.6841  -7.6220  -7.5621  -7.5350  -6.9009  -6.8688  -6.8581
    -6.8435  -6.8021  -6.7543  -6.7302  -6.6488  -6.6387  -6.5993  -6.5949
    -6.5852  -6.5454  -6.4303  -6.4174  -6.1834  -5.6409  -5.6326  -5.0539
    -4.9807  -4.9114  -4.9095  -4.7847  -4.7674  -4.7497  -4.7449  -4.5722
    -4.5536  -4.3187  -3.8809  -3.8709  -3.8438  -3.8410  -3.8039  -3.6725
    -3.6499  -3.2617  -1.9068  -1.8500  -1.8468  -1.7636  -1.7594  -1.1987
    -0.8994  -0.8907   0.8869   0.9208   0.9251   1.0543   1.0642   1.4723
     2.4820   2.7659   2.7686   2.8169   2.8769   2.8948   3.3577   3.6294
     3.6421   3.7275   3.7279   3.7455   3.9217   4.1853

     occupation numbers
     1.0000   1.0000   1.0000   1.0000   1.0000   1.0000   1.0000   1.0000
     1.0000   1.0000   1.0000   1.0000   1.0000   1.0000   1.0000   1.0000
     1.0000   1.0000   1.0000   1.0000   1.0000   1.0000   1.0000   1.0000
     1.0000   1.0000   1.0000   1.0000   1.0000   1.0000   1.0000   1.0000
     1.0000   1.0000   1.0000   1.0000   1.0000   1.0000   1.0000   1.0000
     1.0000   1.0000   1.0000   1.0000   1.0000   1.0000   1.0000   1.0000
     1.0000   1.0000   1.0000   1.0000   1.0000   1.0000   1.0000   1.0000
     1.0000   1.0000   1.0000   1.0000   1.0000   1.0000   1.0000   1.0000
     1.0000   1.0000   1.0000   1.0000   1.0000   1.0000   1.0000   1.0000
     1.0000   1.0000   1.0000   1.0000   1.0000   1.0000   1.0000   1.0000
     1.0000   1.0000   1.0000   1.0000   1.0000   1.0000   1.0000   1.0000
     1.0000   1.0000   1.0000   1.0000   1.0000   1.0000   1.0000   1.0000
     1.0000   1.0000   1.0000   1.0000   1.0000   1.0000   1.0000   1.0000
     0.7255   0.2745   0.0000   0.0000   0.0000   0.0000   0.0000   0.0000
     0.0000   0.0000   0.0000   0.0000   0.0000   0.0000   0.0000   0.0000
     0.0000   0.0000   0.0000   0.0000   0.0000   0.0000

 ------ SPIN DOWN ----------

          k = 0.0000 0.0000 0.0000 ( 87777 PWs)   bands (ev):

   -19.8431 -19.0117 -18.9766 -18.9242 -18.9145 -18.8620 -18.7284 -17.1585
   -17.1577 -17.1375 -17.1053 -17.0816 -16.8060 -16.3281 -16.3081 -16.1975
   -16.1796 -16.1765 -15.7345 -14.3786 -14.3644 -14.1301 -14.0513 -14.0469
   -13.5664 -13.1683 -13.1672 -13.0915 -12.9408 -12.9213 -12.6021 -12.2488
   -12.2313 -11.7197 -11.6092 -11.5987 -11.1228 -10.8506 -10.8357  -9.5111
    -9.3734  -9.3672  -9.2591  -9.2503  -9.2479  -9.2433  -9.2139  -9.0661
    -9.0319  -9.0293  -8.8872  -8.7139  -8.6946  -8.1425  -7.8970  -7.8696
    -7.6484  -7.6375  -7.5965  -7.5481  -7.5129  -6.8683  -6.8568  -6.8565
    -6.8031  -6.8018  -6.7430  -6.7159  -6.6268  -6.6171  -6.5918  -6.5909
    -6.5808  -6.5391  -6.3894  -6.3775  -6.1402  -5.6183  -5.6007  -5.0349
    -4.9708  -4.8920  -4.8898  -4.7801  -4.7485  -4.7479  -4.6317  -4.5632
    -4.5387  -4.2678  -3.8771  -3.8668  -3.8199  -3.8140  -3.8047  -3.6555
    -3.6319  -3.2165  -1.9032  -1.8478  -1.8447  -1.7405  -1.7391  -1.1575
    -0.6029  -0.4030   0.8900   0.9244   0.9287   1.0817   1.0829   1.4855
     2.4820   2.7672   2.7716   2.8178   2.9093   2.9158   3.3668   3.6300
     3.6443   3.7261   3.7270   3.7443   3.9279   4.1878

     occupation numbers
     1.0000   1.0000   1.0000   1.0000   1.0000   1.0000   1.0000   1.0000
     1.0000   1.0000   1.0000   1.0000   1.0000   1.0000   1.0000   1.0000
     1.0000   1.0000   1.0000   1.0000   1.0000   1.0000   1.0000   1.0000
     1.0000   1.0000   1.0000   1.0000   1.0000   1.0000   1.0000   1.0000
     1.0000   1.0000   1.0000   1.0000   1.0000   1.0000   1.0000   1.0000
     1.0000   1.0000   1.0000   1.0000   1.0000   1.0000   1.0000   1.0000
     1.0000   1.0000   1.0000   1.0000   1.0000   1.0000   1.0000   1.0000
     1.0000   1.0000   1.0000   1.0000   1.0000   1.0000   1.0000   1.0000
     1.0000   1.0000   1.0000   1.0000   1.0000   1.0000   1.0000   1.0000
     1.0000   1.0000   1.0000   1.0000   1.0000   1.0000   1.0000   1.0000
     1.0000   1.0000   1.0000   1.0000   1.0000   1.0000   1.0000   1.0000
     1.0000   1.0000   1.0000   1.0000   1.0000   1.0000   1.0000   1.0000
     1.0000   1.0000   1.0000   1.0000   1.0000   1.0000   1.0000   1.0000
     0.0000   0.0000   0.0000   0.0000   0.0000   0.0000   0.0000   0.0000
     0.0000   0.0000   0.0000   0.0000   0.0000   0.0000   0.0000   0.0000
     0.0000   0.0000   0.0000   0.0000   0.0000   0.0000

     the Fermi energy is    -0.8934 ev

!    total energy              =    -734.71374481 Ry
     Harris-Foulkes estimate   =    -734.71374518 Ry
     estimated scf accuracy    <       0.00000076 Ry

     The total energy is the sum of the following terms:

     one-electron contribution =   -2511.69347683 Ry
     hartree contribution      =    1311.41440975 Ry
     xc contribution           =    -276.01463467 Ry
     ewald contribution        =     741.58021446 Ry
     smearing contrib. (-TS)   =      -0.00025751 Ry

     total magnetization       =     1.00 Bohr mag/cell
     absolute magnetization    =     1.07 Bohr mag/cell

     convergence has been achieved in  31 iterations

     Writing output data file cobre-bridge-1.8.save/

     General routines

     Parallel routines

   This run was terminated on:  13:36: 9   5Sep2022

   JOB DONE.