     Program PWSCF v.6.4.1 starts on  4Mar2023 at  9:49:42

     R & G space division:  proc/nbgrp/npool/nimage =       6
     Reading input from vacancia-grafeno.in

     Current dimensions of program PWSCF are:
     Max number of different atomic species (ntypx) = 10
     Max number of k-points (npk) =  40000
     Max angular momentum in pseudopotentials (lmaxx) =  3

     IMPORTANT: XC functional enforced from input :
     Exchange-correlation      = RVV10 ( 1  4 13  4 3 0)
     Any further DFT definition will be discarded
     Please, verify this is what you really want

     Subspace diagonalization in iterative solution of the eigenvalue problem:
     a serial algorithm will be used

     bravais-lattice index     =            4
     lattice parameter (alat)  =      23.2937  a.u.
     unit-cell volume          =    8879.8548 (a.u.)^3
     number of atoms/cell      =           49
     number of atomic types    =            1
     number of electrons       =       196.00
     number of Kohn-Sham states=          118
     kinetic-energy cutoff     =      70.0000  Ry
     charge density cutoff     =     490.0000  Ry
     convergence threshold     =      1.0E-10
     mixing beta               =       0.7000
     number of iterations used =            8  plain     mixing
     Exchange-correlation      = RVV10 ( 1  4 13  4 3 0)
     nstep                     =           50

     celldm(1)=  23.293684  celldm(2)=   0.000000  celldm(3)=   0.811261
     celldm(4)=   0.000000  celldm(5)=   0.000000  celldm(6)=   0.000000

     crystal axes: (cart. coord. in units of alat)
               a(1) = (   1.000000   0.000000   0.000000 )
               a(2) = (  -0.500000   0.866025   0.000000 )
               a(3) = (   0.000000   0.000000   0.811261 )

     reciprocal axes: (cart. coord. in units 2 pi/alat)
               b(1) = (  1.000000  0.577350 -0.000000 )
               b(2) = (  0.000000  1.154701  0.000000 )
               b(3) = (  0.000000 -0.000000  1.232649 )

     PseudoPot. # 1 for C  read from file:
     /home/cristian/Escritorio/Proyecto_Grafeno/pseudopotenciales/C.pbe-n-rrkjus_psl.1.0.0.UPF
     MD5 check sum: 1fdd950c42eb37d8afe3dd2f8d12311e
     Pseudo is Ultrasoft + core correction, Zval =  4.0
     Generated using "atomic" code by A. Dal Corso v.6.3MaX
     Using radial grid of 1073 points,  4 beta functions with:
                l(1) =   0
                l(2) =   0
                l(3) =   1
                l(4) =   1
     Q(r) pseudized with 0 coefficients

     vdW kernel table read from file rVV10_kernel_table
     MD5 check sum: b8e2538accc0c0b3206b45ba4daaba6c

     atomic species   valence    mass     pseudopotential
        C              4.00    12.01070     C ( 1.00)

     Starting magnetic structure
     atomic species   magnetization
        C            0.300

      4 Sym. Ops. (no inversion) found

                                    s                        frac. trans.

      isym =  1     identity

 cryst.   s( 1) = (     1          0          0      )
                  (     0          1          0      )
                  (     0          0          1      )

 cart.    s( 1) = (  1.0000000  0.0000000  0.0000000 )
                  (  0.0000000  1.0000000  0.0000000 )
                  (  0.0000000  0.0000000  1.0000000 )

      isym =  2     180 deg rotation - cryst. axis [1,-1,0]

[...]

      isym =  3     inv. 180 deg rotation - cart. axis [0,0,1]

[...]

      isym =  4     inv. 180 deg rotation - cryst. axis [1,1,0]

 cryst.   s( 4) = (     0         -1          0      )
                  (    -1          0          0      )
                  (     0          0          1      )

 cart.    s( 4) = (  0.5000000 -0.8660254  0.0000000 )
                  ( -0.8660254 -0.5000000  0.0000000 )
                  (  0.0000000  0.0000000  1.0000000 )

     point group C_2v (mm2)
     there are  4 classes
     the character table:

       E     C2    s_v   s_v'
A_1    1.00  1.00  1.00  1.00
A_2    1.00  1.00 -1.00 -1.00
B_1    1.00 -1.00  1.00 -1.00
B_2    1.00 -1.00 -1.00  1.00

     the symmetry operations in each class and the name of the first element:

     E        1
          identity
     C2       2
          180 deg rotation - cryst. axis [1,-1,0]
     s_v      4
          inv. 180 deg rotation - cryst. axis [1,1,0]
     s_v'     3
          inv. 180 deg rotation - cart. axis [0,0,1]

   Cartesian axes

     site n.     atom                  positions (alat units)
         1           C   tau(   1) = (   0.0000000   0.0000000   0.0000000  )
         2           C   tau(   2) = (   0.0000000   0.1154701   0.0000000  )
         3           C   tau(   3) = (  -0.1000000   0.1732051   0.0000000  )
         4           C   tau(   4) = (  -0.1000000   0.2886751   0.0000000  )
         5           C   tau(   5) = (  -0.2000000   0.3464102   0.0000000  )
         6           C   tau(   6) = (  -0.2000000   0.4618802   0.0000000  )
         7           C   tau(   7) = (  -0.3000000   0.5196152   0.0000000  )
         8           C   tau(   8) = (  -0.3000000   0.6350853   0.0000000  )
         9           C   tau(   9) = (  -0.4000000   0.6928203   0.0000000  )
        10           C   tau(  10) = (  -0.4000000   0.8082904   0.0000000  )
        11           C   tau(  11) = (   0.2000000   0.0000000   0.0000000  )
        12           C   tau(  12) = (   0.2000000   0.1154701   0.0000000  )
        13           C   tau(  13) = (   0.1000000   0.1732051   0.0000000  )
        14           C   tau(  14) = (   0.1000000   0.2886751   0.0000000  )
        15           C   tau(  15) = (   0.0000000   0.3464102   0.0000000  )
        16           C   tau(  16) = (   0.0000000   0.4618802   0.0000000  )
        17           C   tau(  17) = (  -0.1000000   0.5196152   0.0000000  )
        18           C   tau(  18) = (  -0.1000000   0.6350853   0.0000000  )
        19           C   tau(  19) = (  -0.2000000   0.6928203   0.0000000  )
        20           C   tau(  20) = (  -0.2000000   0.8082904   0.0000000  )
        21           C   tau(  21) = (   0.4000000   0.0000000   0.0000000  )
        22           C   tau(  22) = (   0.4000000   0.1154701   0.0000000  )
        23           C   tau(  23) = (   0.3000000   0.1732051   0.0000000  )
        24           C   tau(  24) = (   0.3000000   0.2886751   0.0000000  )
        25           C   tau(  25) = (   0.2000000   0.3464102   0.0000000  )
        26           C   tau(  26) = (   0.1000000   0.5196152   0.0000000  )
        27           C   tau(  27) = (   0.1000000   0.6350853   0.0000000  )
        28           C   tau(  28) = (   0.0000000   0.6928203   0.0000000  )
        29           C   tau(  29) = (   0.0000000   0.8082904   0.0000000  )
        30           C   tau(  30) = (   0.6000000   0.0000000   0.0000000  )
        31           C   tau(  31) = (   0.6000000   0.1154701   0.0000000  )
        32           C   tau(  32) = (   0.5000000   0.1732051   0.0000000  )
        33           C   tau(  33) = (   0.5000000   0.2886751   0.0000000  )
        34           C   tau(  34) = (   0.4000000   0.3464102   0.0000000  )
        35           C   tau(  35) = (   0.4000000   0.4618802   0.0000000  )
        36           C   tau(  36) = (   0.3000000   0.5196152   0.0000000  )
        37           C   tau(  37) = (   0.3000000   0.6350853   0.0000000  )
        38           C   tau(  38) = (   0.2000000   0.6928203   0.0000000  )
        39           C   tau(  39) = (   0.2000000   0.8082904   0.0000000  )
        40           C   tau(  40) = (   0.8000000   0.0000000   0.0000000  )
        41           C   tau(  41) = (   0.8000000   0.1154701   0.0000000  )
        42           C   tau(  42) = (   0.7000000   0.1732051   0.0000000  )
        43           C   tau(  43) = (   0.7000000   0.2886751   0.0000000  )
        44           C   tau(  44) = (   0.6000000   0.3464102   0.0000000  )
        45           C   tau(  45) = (   0.6000000   0.4618802   0.0000000  )
        46           C   tau(  46) = (   0.5000000   0.5196152   0.0000000  )
        47           C   tau(  47) = (   0.5000000   0.6350853   0.0000000  )
        48           C   tau(  48) = (   0.4000000   0.6928203   0.0000000  )
        49           C   tau(  49) = (   0.4000000   0.8082904   0.0000000  )

   Crystallographic axes

     site n.     atom                  positions (cryst. coord.)
         1           C   tau(   1) = (  0.0000000  0.0000000  0.0000000  )
         2           C   tau(   2) = (  0.0666667  0.1333333  0.0000000  )
         3           C   tau(   3) = (  0.0000000  0.2000000  0.0000000  )
         4           C   tau(   4) = (  0.0666667  0.3333333  0.0000000  )
         5           C   tau(   5) = (  0.0000000  0.4000000  0.0000000  )
         6           C   tau(   6) = (  0.0666667  0.5333333  0.0000000  )
         7           C   tau(   7) = (  0.0000000  0.6000000  0.0000000  )
         8           C   tau(   8) = (  0.0666667  0.7333333  0.0000000  )
         9           C   tau(   9) = (  0.0000000  0.8000000  0.0000000  )
        10           C   tau(  10) = (  0.0666667  0.9333333  0.0000000  )
        11           C   tau(  11) = (  0.2000000  0.0000000  0.0000000  )
        12           C   tau(  12) = (  0.2666667  0.1333333  0.0000000  )
        13           C   tau(  13) = (  0.2000000  0.2000000  0.0000000  )
        14           C   tau(  14) = (  0.2666667  0.3333333  0.0000000  )
        15           C   tau(  15) = (  0.2000000  0.4000000  0.0000000  )
        16           C   tau(  16) = (  0.2666667  0.5333333  0.0000000  )
        17           C   tau(  17) = (  0.2000000  0.6000000  0.0000000  )
        18           C   tau(  18) = (  0.2666667  0.7333333  0.0000000  )
        19           C   tau(  19) = (  0.2000000  0.8000000  0.0000000  )
        20           C   tau(  20) = (  0.2666667  0.9333333  0.0000000  )
        21           C   tau(  21) = (  0.4000000  0.0000000  0.0000000  )
        22           C   tau(  22) = (  0.4666667  0.1333333  0.0000000  )
        23           C   tau(  23) = (  0.4000000  0.2000000  0.0000000  )
        24           C   tau(  24) = (  0.4666667  0.3333333  0.0000000  )
        25           C   tau(  25) = (  0.4000000  0.4000000  0.0000000  )
        26           C   tau(  26) = (  0.4000000  0.6000000  0.0000000  )
        27           C   tau(  27) = (  0.4666667  0.7333333  0.0000000  )
        28           C   tau(  28) = (  0.4000000  0.8000000  0.0000000  )
        29           C   tau(  29) = (  0.4666667  0.9333333  0.0000000  )
        30           C   tau(  30) = (  0.6000000  0.0000000  0.0000000  )
        31           C   tau(  31) = (  0.6666667  0.1333333  0.0000000  )
        32           C   tau(  32) = (  0.6000000  0.2000000  0.0000000  )
        33           C   tau(  33) = (  0.6666667  0.3333333  0.0000000  )
        34           C   tau(  34) = (  0.6000000  0.4000000  0.0000000  )
        35           C   tau(  35) = (  0.6666667  0.5333333  0.0000000  )
        36           C   tau(  36) = (  0.6000000  0.6000000  0.0000000  )
        37           C   tau(  37) = (  0.6666667  0.7333333  0.0000000  )
[...]
     atom   16 type  1   force =    -1.10479670    0.52026381    0.00000000
     atom   17 type  1   force =    -0.44154205    0.15113362    0.00000000
     atom   18 type  1   force =    -0.25646624    0.14807085    0.00000000
     atom   19 type  1   force =     0.02843402   -0.01641639    0.00000000
     atom   20 type  1   force =    -0.01131756   -0.07221205    0.00000000
     atom   21 type  1   force =     0.07311211    0.01354885    0.00000000
     atom   22 type  1   force =     0.13590572   -0.19487319    0.00000000
     atom   23 type  1   force =     0.29356381   -0.46678669    0.00000000
     atom   24 type  1   force =     0.72848997   -0.65924673    0.00000000
     atom   25 type  1   force =     0.87888376   -4.28464523    0.00000000
     atom   26 type  1   force =    -3.87398217    2.23664465    0.00000000
     atom   27 type  1   force =    -1.00296002    0.69665010    0.00000000
     atom   28 type  1   force =    -0.35165658    0.30681982    0.00000000
     atom   29 type  1   force =    -0.21185986    0.03237810    0.00000000
     atom   30 type  1   force =    -0.21339951    0.27005285    0.00000000
     atom   31 type  1   force =    -0.19679419    0.02985957    0.00000000
     atom   32 type  1   force =     0.10323263   -0.03309525    0.00000000
     atom   33 type  1   force =     0.01815775   -0.01048338    0.00000000
     atom   34 type  1   force =     0.66771292   -0.38550424    0.00000000
     atom   35 type  1   force =     0.93516940   -0.30126745    0.00000000
     atom   36 type  1   force =     4.15005350    1.38118695    0.00000000
     atom   37 type  1   force =     0.59219845    1.19989500    0.00000000
     atom   38 type  1   force =    -0.36755083    0.97718558    0.00000000
     atom   39 type  1   force =    -0.18191944    0.33164555    0.00000000
     atom   40 type  1   force =     0.04353062    0.15674816    0.00000000
     atom   41 type  1   force =    -0.18862534    0.10890289    0.00000000
     atom   42 type  1   force =    -0.05034109    0.02906444    0.00000000
     atom   43 type  1   force =    -0.12425624    0.15549898    0.00000000
     atom   44 type  1   force =     0.08027765   -0.07285446    0.00000000
     atom   45 type  1   force =     0.23671799   -0.02026121    0.00000000
     atom   46 type  1   force =     0.55103103   -0.02084038    0.00000000
     atom   47 type  1   force =     0.29827899   -0.05296384    0.00000000
     atom   48 type  1   force =     0.82475707    0.23074621    0.00000000
     atom   49 type  1   force =    -0.12455704    0.39678382    0.00000000
     The core correction contribution to forces
     atom    1 type  1   force =     0.00065833   -0.00038008    0.00000000
     atom    2 type  1   force =    -0.00064338    0.00025927   -0.00000000
     atom    3 type  1   force =     0.00035668   -0.00036640    0.00000000
     atom    4 type  1   force =     0.00031999    0.00014032    0.00000000
     atom    5 type  1   force =    -0.00021132   -0.00003048   -0.00000000
     atom    6 type  1   force =     0.00004791    0.00037785    0.00000000
     atom    7 type  1   force =    -0.00003285   -0.00015363    0.00000000
     atom    8 type  1   force =    -0.00017394    0.00033274    0.00000000
     atom    9 type  1   force =     0.00040535   -0.00006720   -0.00000000
     atom   10 type  1   force =    -0.00029558    0.00017065    0.00000000
     atom   11 type  1   force =     0.00026088   -0.00031744    0.00000000
     atom   12 type  1   force =    -0.00006784    0.00033772   -0.00000000
     atom   13 type  1   force =     0.00073978   -0.00090213   -0.00000000
     atom   14 type  1   force =    -0.00079714    0.00028108    0.00000000
     atom   15 type  1   force =    -0.00031970    0.00034508    0.00000000
     atom   16 type  1   force =     0.00074670    0.00065425    0.00000000
     atom   17 type  1   force =    -0.00031810    0.00004881    0.00000000
     atom   18 type  1   force =    -0.00002244    0.00001295    0.00000000
     atom   19 type  1   force =     0.00011764   -0.00006792   -0.00000000
     atom   20 type  1   force =    -0.00037513   -0.00001573    0.00000000
     atom   21 type  1   force =     0.00011662    0.00010526    0.00000000
     atom   22 type  1   force =    -0.00000676   -0.00012923    0.00000000
     atom   23 type  1   force =    -0.00025147   -0.00063257    0.00000000
     atom   24 type  1   force =    -0.00085948    0.00057774    0.00000000
     atom   25 type  1   force =     0.00112777   -0.00304987    0.00000000
     atom   26 type  1   force =    -0.00891250    0.00514563   -0.00000000
     atom   27 type  1   force =    -0.00019324   -0.00097378    0.00000000
     atom   28 type  1   force =    -0.00020132    0.00025108   -0.00000000
     atom   29 type  1   force =    -0.00030327   -0.00023041    0.00000000
     atom   30 type  1   force =    -0.00007926    0.00019825   -0.00000000
     atom   31 type  1   force =    -0.00045808   -0.00027690   -0.00000000
     atom   32 type  1   force =     0.00024132   -0.00016588    0.00000000
     atom   33 type  1   force =    -0.00029615    0.00017098    0.00000000
     atom   34 type  1   force =     0.00011921   -0.00006883    0.00000000
     atom   35 type  1   force =    -0.00093008    0.00045547    0.00000000
     atom   36 type  1   force =     0.00320515    0.00054826    0.00000000
     atom   37 type  1   force =    -0.00064199    0.00054980    0.00000000
     atom   38 type  1   force =    -0.00045870    0.00010433    0.00000000
     atom   39 type  1   force =     0.00003847   -0.00034728    0.00000000
     atom   40 type  1   force =     0.00049566   -0.00012569    0.00000000
     atom   41 type  1   force =    -0.00010560    0.00006097    0.00000000
     atom   42 type  1   force =     0.00030689   -0.00017719   -0.00000000
     atom   43 type  1   force =     0.00001076    0.00053516   -0.00000000
     atom   44 type  1   force =     0.00026432   -0.00012605   -0.00000000
     atom   45 type  1   force =     0.00010854    0.00007047    0.00000000
     atom   46 type  1   force =     0.00042209    0.00053406    0.00000000
     atom   47 type  1   force =    -0.00032640   -0.00011011   -0.00000000
     atom   48 type  1   force =     0.00115116   -0.00018961   -0.00000000
     atom   49 type  1   force =    -0.00054622    0.00042755    0.00000000
     The Hubbard contrib.    to forces
     atom    1 type  1   force =     0.00000000    0.00000000    0.00000000
     atom    2 type  1   force =     0.00000000    0.00000000    0.00000000
     atom    3 type  1   force =     0.00000000    0.00000000    0.00000000
     atom    4 type  1   force =     0.00000000    0.00000000    0.00000000
     atom    5 type  1   force =     0.00000000    0.00000000    0.00000000
     atom    6 type  1   force =     0.00000000    0.00000000    0.00000000
     atom    7 type  1   force =     0.00000000    0.00000000    0.00000000
     atom    8 type  1   force =     0.00000000    0.00000000    0.00000000
     atom    9 type  1   force =     0.00000000    0.00000000    0.00000000
     atom   10 type  1   force =     0.00000000    0.00000000    0.00000000
     atom   11 type  1   force =     0.00000000    0.00000000    0.00000000
     atom   12 type  1   force =     0.00000000    0.00000000    0.00000000
     atom   13 type  1   force =     0.00000000    0.00000000    0.00000000
     atom   14 type  1   force =     0.00000000    0.00000000    0.00000000
     atom   15 type  1   force =     0.00000000    0.00000000    0.00000000
     atom   16 type  1   force =     0.00000000    0.00000000    0.00000000
     atom   17 type  1   force =     0.00000000    0.00000000    0.00000000
     atom   18 type  1   force =     0.00000000    0.00000000    0.00000000
     atom   19 type  1   force =     0.00000000    0.00000000    0.00000000
     atom   20 type  1   force =     0.00000000    0.00000000    0.00000000
     atom   21 type  1   force =     0.00000000    0.00000000    0.00000000
     atom   22 type  1   force =     0.00000000    0.00000000    0.00000000
     atom   23 type  1   force =     0.00000000    0.00000000    0.00000000
     atom   24 type  1   force =     0.00000000    0.00000000    0.00000000
     atom   25 type  1   force =     0.00000000    0.00000000    0.00000000
     atom   26 type  1   force =     0.00000000    0.00000000    0.00000000
     atom   27 type  1   force =     0.00000000    0.00000000    0.00000000
     atom   28 type  1   force =     0.00000000    0.00000000    0.00000000
     atom   29 type  1   force =     0.00000000    0.00000000    0.00000000
     atom   30 type  1   force =     0.00000000    0.00000000    0.00000000
     atom   31 type  1   force =     0.00000000    0.00000000    0.00000000
     atom   32 type  1   force =     0.00000000    0.00000000    0.00000000
     atom   33 type  1   force =     0.00000000    0.00000000    0.00000000
     atom   34 type  1   force =     0.00000000    0.00000000    0.00000000
     atom   35 type  1   force =     0.00000000    0.00000000    0.00000000
     atom   36 type  1   force =     0.00000000    0.00000000    0.00000000
     atom   37 type  1   force =     0.00000000    0.00000000    0.00000000
     atom   38 type  1   force =     0.00000000    0.00000000    0.00000000
     atom   39 type  1   force =     0.00000000    0.00000000    0.00000000
     atom   40 type  1   force =     0.00000000    0.00000000    0.00000000
     atom   41 type  1   force =     0.00000000    0.00000000    0.00000000
     atom   42 type  1   force =     0.00000000    0.00000000    0.00000000
     atom   43 type  1   force =     0.00000000    0.00000000    0.00000000
     atom   44 type  1   force =     0.00000000    0.00000000    0.00000000
     atom   45 type  1   force =     0.00000000    0.00000000    0.00000000
     atom   46 type  1   force =     0.00000000    0.00000000    0.00000000
     atom   47 type  1   force =     0.00000000    0.00000000    0.00000000
     atom   48 type  1   force =     0.00000000    0.00000000    0.00000000
     atom   49 type  1   force =     0.00000000    0.00000000    0.00000000
     The SCF correction term to forces
     atom    1 type  1   force =     0.00000019   -0.00000011   -0.00000000
     atom    2 type  1   force =    -0.00000008   -0.00000027   -0.00000000
     atom    3 type  1   force =    -0.00000006   -0.00000017   -0.00000000
     atom    4 type  1   force =    -0.00000006   -0.00000007   -0.00000000
     atom    5 type  1   force =    -0.00000003    0.00000002   -0.00000000
     atom    6 type  1   force =    -0.00000010    0.00000017   -0.00000000
     atom    7 type  1   force =     0.00000009    0.00000025   -0.00000000
     atom    8 type  1   force =    -0.00000001    0.00000009   -0.00000000
     atom    9 type  1   force =     0.00000013    0.00000016   -0.00000000
     atom   10 type  1   force =     0.00000003   -0.00000002   -0.00000000
     atom   11 type  1   force =    -0.00000007   -0.00000019   -0.00000000
     atom   12 type  1   force =    -0.00000011   -0.00000042   -0.00000000
     atom   13 type  1   force =    -0.00000003   -0.00000026   -0.00000000
     atom   14 type  1   force =    -0.00000024   -0.00000001   -0.00000000
     atom   15 type  1   force =    -0.00000004    0.00000009   -0.00000000
     atom   16 type  1   force =     0.00000002    0.00000004   -0.00000000
     atom   17 type  1   force =    -0.00000010    0.00000005   -0.00000000
     atom   18 type  1   force =    -0.00000017    0.00000010   -0.00000000
     atom   19 type  1   force =    -0.00000019    0.00000011   -0.00000000
     atom   20 type  1   force =    -0.00000009   -0.00000004   -0.00000000
     atom   21 type  1   force =    -0.00000018   -0.00000020   -0.00000000
     atom   22 type  1   force =     0.00000001   -0.00000031   -0.00000000
     atom   23 type  1   force =    -0.00000006   -0.00000035   -0.00000000
     atom   24 type  1   force =    -0.00000002   -0.00000028   -0.00000000
     atom   25 type  1   force =    -0.00000030   -0.00000008   -0.00000000
     atom   26 type  1   force =    -0.00000014    0.00000008   -0.00000000
     atom   27 type  1   force =    -0.00000002   -0.00000004   -0.00000000
     atom   28 type  1   force =    -0.00000010    0.00000006   -0.00000000
     atom   29 type  1   force =    -0.00000020    0.00000001   -0.00000000
     atom   30 type  1   force =    -0.00000003    0.00000001   -0.00000000
     atom   31 type  1   force =     0.00000013    0.00000004   -0.00000000
     atom   32 type  1   force =     0.00000011   -0.00000014   -0.00000000
     atom   33 type  1   force =     0.00000029   -0.00000017   -0.00000000
     atom   34 type  1   force =     0.00000017   -0.00000010   -0.00000000
     atom   35 type  1   force =     0.00000023    0.00000016   -0.00000000
     atom   36 type  1   force =    -0.00000008    0.00000030   -0.00000000
     atom   37 type  1   force =    -0.00000011    0.00000021   -0.00000000
     atom   38 type  1   force =    -0.00000010   -0.00000001   -0.00000000
     atom   39 type  1   force =     0.00000003    0.00000009   -0.00000000
     atom   40 type  1   force =     0.00000011    0.00000013   -0.00000000
     atom   41 type  1   force =     0.00000004   -0.00000002   -0.00000000
     atom   42 type  1   force =     0.00000006   -0.00000003   -0.00000000
     atom   43 type  1   force =     0.00000003   -0.00000013   -0.00000000
     atom   44 type  1   force =     0.00000018   -0.00000002   -0.00000000
     atom   45 type  1   force =     0.00000028    0.00000015   -0.00000000
     atom   46 type  1   force =     0.00000027    0.00000022   -0.00000000
     atom   47 type  1   force =     0.00000031    0.00000030   -0.00000000
     atom   48 type  1   force =     0.00000021    0.00000016   -0.00000000
     atom   49 type  1   force =     0.00000019    0.00000021   -0.00000000

     Total force =     0.003054     Total SCF correction =     0.000002

     bfgs converged in  12 scf cycles and  11 bfgs steps
     (criteria: energy <  1.0E-04 Ry, force <  1.0E-03 Ry/Bohr)

     End of BFGS Geometry Optimization

     Final energy   =    -610.2395163978 Ry
Begin final coordinates

ATOMIC_POSITIONS (angstrom)
C       -0.003773727   0.002178762   0.000000000
C        0.022651712   1.448911911  -0.000000000
C       -1.214889067   2.139114410   0.000000000
C       -1.203731926   3.570627569  -0.000000000
C       -2.449867539   4.275517650   0.000000000
C       -2.482544186   5.700294479   0.000000000
C       -3.713041190   6.409563370   0.000000000
C       -3.720391862   7.835626348   0.000000000
C       -4.951148318   8.541750691   0.000000000
C       -4.939269998   9.968389307   0.000000000
C        2.453539500   0.016944876  -0.000000000
C        2.472528293   1.450052116   0.000000000
C        1.266868411   2.195698425  -0.000000000
C        1.305009228   3.667296481  -0.000000000
C        0.015665851   4.298817836  -0.000000000
C       -0.034510382   5.722877550  -0.000000000
C       -1.270975549   6.428230102  -0.000000000
C       -1.266146479   7.847710454   0.000000000
C       -2.494506997   8.556904730   0.000000000
C       -2.482804028   9.979191356   0.000000000
C        4.919121449   0.010806311  -0.000000000
C        4.938470395   1.429520606  -0.000000000
C        3.709311414   2.145992709  -0.000000000
C        3.735715607   3.575995088  -0.000000000
C        2.582443171   4.353266815  -0.000000000
C        1.111979249   6.474698925   0.000000000
C        1.189830844   7.843498758   0.000000000
C       -0.039254969   8.561632727   0.000000000
C       -0.014628545   9.974849758  -0.000000000
C        7.398846081  -0.016111301   0.000000000
C        7.412501137   1.403346939  -0.000000000
C        6.185802850   2.113802580   0.000000000
C        6.202010155   3.535968211   0.000000000
C        4.992990677   4.233995932   0.000000000
C        4.934198589   5.651828504   0.000000000
C        3.684425310   6.261955868   0.000000000
C        3.639776074   7.711231281   0.000000000
C        2.448190848   8.512074722   0.000000000
C        2.469123230   9.932199308   0.000000000
C        9.866514796  -0.017432410   0.000000000
C        9.882212502   1.411202395   0.000000000
C        8.649090112   2.123145939   0.000000000
C        8.654159844   3.553962906  -0.000000000
C        7.425538067   4.261086964  -0.000000000
C        7.394477413   5.683449545   0.000000000
C        6.159414880   6.389696395   0.000000000
C        6.143725552   7.808752294  -0.000000000
C        4.895146966   8.480061225   0.000000000
C        4.919774709   9.930977752  -0.000000000
End final coordinates

     Writing output data file vacancia.save/

     General routines

     Parallel routines

   This run was terminated on:  17:18:28   4Mar2023

   JOB DONE.