     Program PWSCF v.6.4.1 starts on  8Sep2022 at 14:32: 7

     R & G space division:  proc/nbgrp/npool/nimage =       6
     Reading input from distance-2.0.in

     Current dimensions of program PWSCF are:
     Max number of different atomic species (ntypx) = 10
     Max number of k-points (npk) =  40000
     Max angular momentum in pseudopotentials (lmaxx) =  3

     IMPORTANT: XC functional enforced from input :
     Exchange-correlation      = RVV10 ( 1  4 13  4 3 0)
     Any further DFT definition will be discarded
     Please, verify this is what you really want

               file H.pbe-rrkjus.UPF: wavefunction(s)  1S renormalized
               file Cu.pbe-dn-rrkjus_psl.1.0.0.UPF: wavefunction(s)  3D renormalized

     Subspace diagonalization in iterative solution of the eigenvalue problem:
     a serial algorithm will be used

     bravais-lattice index     =            4
     lattice parameter (alat)  =      23.2937  a.u.
     unit-cell volume          =    8879.8548 (a.u.)^3
     number of atoms/cell      =           52
     number of atomic types    =            3
     number of electrons       =       209.00
     number of Kohn-Sham states=          126
     kinetic-energy cutoff     =      70.0000  Ry
     charge density cutoff     =     490.0000  Ry
     convergence threshold     =      1.0E-06
     mixing beta               =       0.7000
     number of iterations used =            8  plain     mixing
     Exchange-correlation      = RVV10 ( 1  4 13  4 3 0)

     celldm(1)=  23.293684  celldm(2)=   0.000000  celldm(3)=   0.811261
     celldm(4)=   0.000000  celldm(5)=   0.000000  celldm(6)=   0.000000

     crystal axes: (cart. coord. in units of alat)
               a(1) = (   1.000000   0.000000   0.000000 )
               a(2) = (  -0.500000   0.866025   0.000000 )
               a(3) = (   0.000000   0.000000   0.811261 )

     reciprocal axes: (cart. coord. in units 2 pi/alat)
               b(1) = (  1.000000  0.577350 -0.000000 )
               b(2) = (  0.000000  1.154701  0.000000 )
               b(3) = (  0.000000 -0.000000  1.232649 )

     PseudoPot. # 1 for H  read from file:
     /home/cristian/Escritorio/Proyecto_Grafeno/pseudopotenciales/H.pbe-rrkjus.UPF
     MD5 check sum: 7cc9d459525c9a0585f487a71c3c9563
     Pseudo is Ultrasoft, Zval =  1.0
     Generated by new atomic code, or converted to UPF format
     Using radial grid of 1061 points,  2 beta functions with:
                l(1) =   0
                l(2) =   0
     Q(r) pseudized with 0 coefficients

     PseudoPot. # 2 for C  read from file:
     /home/cristian/Escritorio/Proyecto_Grafeno/pseudopotenciales/C.pbe-n-rrkjus_psl.1.0.0.UPF
     MD5 check sum: 1fdd950c42eb37d8afe3dd2f8d12311e
     Pseudo is Ultrasoft + core correction, Zval =  4.0
     Generated using "atomic" code by A. Dal Corso v.6.3MaX
     Using radial grid of 1073 points,  4 beta functions with:
                l(1) =   0
                l(2) =   0
                l(3) =   1
                l(4) =   1
     Q(r) pseudized with 0 coefficients

     PseudoPot. # 3 for Cu read from file:
     /home/cristian/Escritorio/Proyecto_Grafeno/pseudopotenciales/Cu.pbe-dn-rrkjus_psl.1.0.0.UPF
     MD5 check sum: ba3d6c84e19846e79d48cdc68ff7152b
     Pseudo is Ultrasoft + core correction, Zval = 11.0
     Generated using "atomic" code by A. Dal Corso v.6.3
     Using radial grid of 1199 points,  6 beta functions with:
                l(1) =   0
                l(2) =   0
                l(3) =   1
                l(4) =   1
                l(5) =   2
                l(6) =   2
     Q(r) pseudized with 0 coefficients

     vdW kernel table read from file rVV10_kernel_table
     MD5 check sum: b8e2538accc0c0b3206b45ba4daaba6c

     atomic species   valence    mass     pseudopotential
        H              1.00     1.00794     H ( 1.00)
        C              4.00    12.01070     C ( 1.00)
        Cu            11.00    63.54600     Cu( 1.00)

     Starting magnetic structure
     atomic species   magnetization
        H            0.500
        C            0.300
        Cu           0.800

     No symmetry found

                                    s                        frac. trans.

      isym =  1     identity

 cryst.   s( 1) = (     1          0          0      )
                  (     0          1          0      )
                  (     0          0          1      )

 cart.    s( 1) = (  1.0000000  0.0000000  0.0000000 )
                  (  0.0000000  1.0000000  0.0000000 )
                  (  0.0000000  0.0000000  1.0000000 )

     point group C_1 (1)
     there are  1 classes
     the character table:

       E
A      1.00

     the symmetry operations in each class and the name of the first element:

     E        1
          identity

   Cartesian axes

     site n.     atom                  positions (alat units)
         1           H   tau(   1) = (   0.2361603   0.4618802   0.1622522  )
         2           H   tau(   2) = (   0.2971730   0.4618802   0.1622522  )
         3           C   tau(   3) = (   0.0000000   0.0000000   0.0000000  )
         4           C   tau(   4) = (   0.0000000   0.1154701   0.0000000  )
         5           C   tau(   5) = (  -0.1000000   0.1732051   0.0000000  )
         6           C   tau(   6) = (  -0.1000000   0.2886751   0.0000000  )
         7           C   tau(   7) = (  -0.2000000   0.3464102   0.0000000  )
         8           C   tau(   8) = (  -0.2000000   0.4618802   0.0000000  )
         9           C   tau(   9) = (  -0.3000000   0.5196152   0.0000000  )
        10           C   tau(  10) = (  -0.3000000   0.6350853   0.0000000  )
        11           C   tau(  11) = (  -0.4000000   0.6928203   0.0000000  )
        12           C   tau(  12) = (  -0.4000000   0.8082904   0.0000000  )
        13           C   tau(  13) = (   0.2000000   0.0000000   0.0000000  )
        14           C   tau(  14) = (   0.2000000   0.1154701   0.0000000  )
        15           C   tau(  15) = (   0.1000000   0.1732051   0.0000000  )
        16           C   tau(  16) = (   0.1000000   0.2886751   0.0000000  )
        17           C   tau(  17) = (   0.0000000   0.3464102   0.0000000  )
        18           C   tau(  18) = (   0.0000000   0.4618802   0.0000000  )
        19           C   tau(  19) = (  -0.1000000   0.5196152   0.0000000  )
        20           C   tau(  20) = (  -0.1000000   0.6350853   0.0000000  )
        21           C   tau(  21) = (  -0.2000000   0.6928203   0.0000000  )
        22           C   tau(  22) = (  -0.2000000   0.8082904   0.0000000  )
        23           C   tau(  23) = (   0.4000000   0.0000000   0.0000000  )
        24           C   tau(  24) = (   0.4000000   0.1154701   0.0000000  )
        25           C   tau(  25) = (   0.3000000   0.1732051   0.0000000  )
        26           C   tau(  26) = (   0.3000000   0.2886751   0.0000000  )
        27           C   tau(  27) = (   0.2000000   0.3464102   0.0000000  )
        28           Cu  tau(  28) = (   0.2000000   0.4618802   0.0000000  )
        29           C   tau(  29) = (   0.1000000   0.5196152   0.0000000  )
        30           C   tau(  30) = (   0.1000000   0.6350853   0.0000000  )
        31           C   tau(  31) = (   0.0000000   0.6928203   0.0000000  )
        32           C   tau(  32) = (   0.0000000   0.8082904   0.0000000  )
        33           C   tau(  33) = (   0.6000000   0.0000000   0.0000000  )
        34           C   tau(  34) = (   0.6000000   0.1154701   0.0000000  )
        35           C   tau(  35) = (   0.5000000   0.1732051   0.0000000  )
        36           C   tau(  36) = (   0.5000000   0.2886751   0.0000000  )
        37           C   tau(  37) = (   0.4000000   0.3464102   0.0000000  )
        38           C   tau(  38) = (   0.4000000   0.4618802   0.0000000  )
        39           C   tau(  39) = (   0.3000000   0.5196152   0.0000000  )
        40           C   tau(  40) = (   0.3000000   0.6350853   0.0000000  )
        41           C   tau(  41) = (   0.2000000   0.6928203   0.0000000  )
        42           C   tau(  42) = (   0.2000000   0.8082904   0.0000000  )
        43           C   tau(  43) = (   0.8000000   0.0000000   0.0000000  )
        44           C   tau(  44) = (   0.8000000   0.1154701   0.0000000  )
        45           C   tau(  45) = (   0.7000000   0.1732051   0.0000000  )
        46           C   tau(  46) = (   0.7000000   0.2886751   0.0000000  )
        47           C   tau(  47) = (   0.6000000   0.3464102   0.0000000  )
        48           C   tau(  48) = (   0.6000000   0.4618802   0.0000000  )
        49           C   tau(  49) = (   0.5000000   0.5196152   0.0000000  )
        50           C   tau(  50) = (   0.5000000   0.6350853   0.0000000  )
        51           C   tau(  51) = (   0.4000000   0.6928203   0.0000000  )
        52           C   tau(  52) = (   0.4000000   0.8082904   0.0000000  )

   Crystallographic axes

     site n.     atom                  positions (cryst. coord.)
         1           H   tau(   1) = (  0.5028270  0.5333333  0.2000000  )
         2           H   tau(   2) = (  0.5638397  0.5333333  0.2000000  )
         3           C   tau(   3) = (  0.0000000  0.0000000  0.0000000  )
         4           C   tau(   4) = (  0.0666667  0.1333333  0.0000000  )
         5           C   tau(   5) = (  0.0000000  0.2000000  0.0000000  )
         6           C   tau(   6) = (  0.0666667  0.3333333  0.0000000  )
         7           C   tau(   7) = (  0.0000000  0.4000000  0.0000000  )
         8           C   tau(   8) = (  0.0666667  0.5333333  0.0000000  )
         9           C   tau(   9) = (  0.0000000  0.6000000  0.0000000  )
        10           C   tau(  10) = (  0.0666667  0.7333333  0.0000000  )
        11           C   tau(  11) = (  0.0000000  0.8000000  0.0000000  )
        12           C   tau(  12) = (  0.0666667  0.9333333  0.0000000  )
        13           C   tau(  13) = (  0.2000000  0.0000000  0.0000000  )
        14           C   tau(  14) = (  0.2666667  0.1333333  0.0000000  )
        15           C   tau(  15) = (  0.2000000  0.2000000  0.0000000  )
        16           C   tau(  16) = (  0.2666667  0.3333333  0.0000000  )
        17           C   tau(  17) = (  0.2000000  0.4000000  0.0000000  )
        18           C   tau(  18) = (  0.2666667  0.5333333  0.0000000  )
        19           C   tau(  19) = (  0.2000000  0.6000000  0.0000000  )
        20           C   tau(  20) = (  0.2666667  0.7333333  0.0000000  )
        21           C   tau(  21) = (  0.2000000  0.8000000  0.0000000  )
        22           C   tau(  22) = (  0.2666667  0.9333333  0.0000000  )
        23           C   tau(  23) = (  0.4000000  0.0000000  0.0000000  )
        24           C   tau(  24) = (  0.4666667  0.1333333  0.0000000  )
        25           C   tau(  25) = (  0.4000000  0.2000000  0.0000000  )
        26           C   tau(  26) = (  0.4666667  0.3333333  0.0000000  )
        27           C   tau(  27) = (  0.4000000  0.4000000  0.0000000  )
        28           Cu  tau(  28) = (  0.4666667  0.5333333  0.0000000  )
        29           C   tau(  29) = (  0.4000000  0.6000000  0.0000000  )
        30           C   tau(  30) = (  0.4666667  0.7333333  0.0000000  )
        31           C   tau(  31) = (  0.4000000  0.8000000  0.0000000  )
        32           C   tau(  32) = (  0.4666667  0.9333333  0.0000000  )
        33           C   tau(  33) = (  0.6000000  0.0000000  0.0000000  )
        34           C   tau(  34) = (  0.6666667  0.1333333  0.0000000  )
        35           C   tau(  35) = (  0.6000000  0.2000000  0.0000000  )
        36           C   tau(  36) = (  0.6666667  0.3333333  0.0000000  )
        37           C   tau(  37) = (  0.6000000  0.4000000  0.0000000  )
        38           C   tau(  38) = (  0.6666667  0.5333333  0.0000000  )
        39           C   tau(  39) = (  0.6000000  0.6000000  0.0000000  )
        40           C   tau(  40) = (  0.6666667  0.7333333  0.0000000  )
        41           C   tau(  41) = (  0.6000000  0.8000000  0.0000000  )
        42           C   tau(  42) = (  0.6666667  0.9333333  0.0000000  )
        43           C   tau(  43) = (  0.8000000  0.0000000  0.0000000  )
        44           C   tau(  44) = (  0.8666667  0.1333333  0.0000000  )
        45           C   tau(  45) = (  0.8000000  0.2000000  0.0000000  )
        46           C   tau(  46) = (  0.8666667  0.3333333  0.0000000  )
        47           C   tau(  47) = (  0.8000000  0.4000000  0.0000000  )
        48           C   tau(  48) = (  0.8666667  0.5333333  0.0000000  )
        49           C   tau(  49) = (  0.8000000  0.6000000  0.0000000  )
        50           C   tau(  50) = (  0.8666667  0.7333333  0.0000000  )
        51           C   tau(  51) = (  0.8000000  0.8000000  0.0000000  )
        52           C   tau(  52) = (  0.8666667  0.9333333  0.0000000  )

     number of k points=     1  Marzari-Vanderbilt smearing, width (Ry)=  0.0010
                       cart. coord. in units 2pi/alat
        k(    1) = (   0.0000000   0.0000000   0.0000000), wk =   1.0000000

                       cryst. coord.
        k(    1) = (   0.0000000   0.0000000   0.0000000), wk =   1.0000000

     Check: negative core charge=   -0.000002

     Initial potential from superposition of free atoms

     starting charge  208.80532, renormalised to  209.00000

     negative rho (up, down):  7.515E-05 1.372E-02

Carrying out rVV10 run using the following parameters:
Nqs =      20    Nr_points =    1024   r_max =   100.000
b_value =  6.30000    beta =  0.00901
     q_mesh =  0.00010000  0.00030000  0.00058939  0.00100810
               0.00161396  0.00249058  0.00375900  0.00559430
               0.00824984  0.01209221  0.01765183  0.02569619
               0.03733578  0.05417739  0.07854596  0.11380545
               0.16482331  0.23864234  0.34545298  0.50000000

Gradients computed in Reciprocal space

     Starting wfcs are  207 randomized atomic wfcs

     Self-consistent Calculation

     iteration #  1     ecut=    70.00 Ry     beta= 0.70
     Davidson diagonalization with overlap
     ethr =  1.00E-02,  avg # of iterations =  7.0

[...]

     total energy              =    -731.39873172 Ry
     Harris-Foulkes estimate   =    -734.80853503 Ry
     estimated scf accuracy    <      10.58288813 Ry

     total magnetization       =     3.00 Bohr mag/cell
     absolute magnetization    =     4.30 Bohr mag/cell

[...]

     total energy              =    -734.69762810 Ry
     Harris-Foulkes estimate   =    -734.69762842 Ry
     estimated scf accuracy    <       0.00000259 Ry

[...]

     iteration # 30     ecut=    70.00 Ry     beta= 0.70
     Davidson diagonalization with overlap
     ethr =  1.14E-09,  avg # of iterations =  2.5

     negative rho (up, down):  6.643E-04 2.290E-03

     Magnetic moment per site:
     atom:    1    charge:    0.2174    magn:    0.0003    constr:    0.0000
     atom:    2    charge:    0.2157    magn:   -0.0000    constr:    0.0000
     atom:    3    charge:    1.7161    magn:    0.0031    constr:    0.0000
     atom:    4    charge:    1.7159    magn:    0.0036    constr:    0.0000
     atom:    5    charge:    1.7168    magn:    0.0001    constr:    0.0000
     atom:    6    charge:    1.7145    magn:    0.0001    constr:    0.0000
     atom:    7    charge:    1.7172    magn:   -0.0003    constr:    0.0000
     atom:    8    charge:    1.7149    magn:    0.0004    constr:    0.0000
     atom:    9    charge:    1.7155    magn:    0.0004    constr:    0.0000
     atom:   10    charge:    1.7170    magn:   -0.0010    constr:    0.0000
     atom:   11    charge:    1.7159    magn:    0.0006    constr:    0.0000
     atom:   12    charge:    1.7171    magn:   -0.0008    constr:    0.0000
     atom:   13    charge:    1.7160    magn:    0.0009    constr:    0.0000
     atom:   14    charge:    1.7168    magn:   -0.0018    constr:    0.0000
     atom:   15    charge:    1.7144    magn:    0.0145    constr:    0.0000
     atom:   16    charge:    1.7109    magn:    0.0174    constr:    0.0000
     atom:   17    charge:    1.7216    magn:    0.0023    constr:    0.0000
     atom:   18    charge:    1.7116    magn:    0.0130    constr:    0.0000
     atom:   19    charge:    1.7119    magn:   -0.0001    constr:    0.0000
     atom:   20    charge:    1.7167    magn:    0.0001    constr:    0.0000
     atom:   21    charge:    1.7160    magn:    0.0002    constr:    0.0000
     atom:   22    charge:    1.7169    magn:   -0.0009    constr:    0.0000
     atom:   23    charge:    1.7158    magn:    0.0014    constr:    0.0000
     atom:   24    charge:    1.7151    magn:    0.0010    constr:    0.0000
     atom:   25    charge:    1.7132    magn:    0.0096    constr:    0.0000
     atom:   26    charge:    1.7074    magn:    0.0001    constr:    0.0000
     atom:   27    charge:    1.8323    magn:    0.1371    constr:    0.0000
     atom:   28    charge:    7.0327    magn:    0.1536    constr:    0.0000
     atom:   29    charge:    1.8056    magn:    0.0068    constr:    0.0000
     atom:   30    charge:    1.7133    magn:    0.0240    constr:    0.0000
     atom:   31    charge:    1.7127    magn:    0.0030    constr:    0.0000
     atom:   32    charge:    1.7153    magn:    0.0021    constr:    0.0000
     atom:   33    charge:    1.7171    magn:   -0.0004    constr:    0.0000
     atom:   34    charge:    1.7152    magn:    0.0001    constr:    0.0000
     atom:   35    charge:    1.7169    magn:    0.0002    constr:    0.0000
     atom:   36    charge:    1.7148    magn:   -0.0005    constr:    0.0000
     atom:   37    charge:    1.7217    magn:    0.0069    constr:    0.0000
     atom:   38    charge:    1.7103    magn:   -0.0020    constr:    0.0000
     atom:   39    charge:    1.8248    magn:    0.0920    constr:    0.0000
     atom:   40    charge:    1.7136    magn:    0.0265    constr:    0.0000
     atom:   41    charge:    1.7208    magn:   -0.0004    constr:    0.0000
     atom:   42    charge:    1.7146    magn:    0.0004    constr:    0.0000
     atom:   43    charge:    1.7170    magn:   -0.0001    constr:    0.0000
     atom:   44    charge:    1.7153    magn:    0.0002    constr:    0.0000
     atom:   45    charge:    1.7212    magn:   -0.0010    constr:    0.0000
     atom:   46    charge:    1.7153    magn:   -0.0000    constr:    0.0000
     atom:   47    charge:    1.7168    magn:    0.0001    constr:    0.0000
     atom:   48    charge:    1.7149    magn:   -0.0002    constr:    0.0000
     atom:   49    charge:    1.7118    magn:    0.0044    constr:    0.0000
     atom:   50    charge:    1.7170    magn:   -0.0012    constr:    0.0000
     atom:   51    charge:    1.7140    magn:    0.0123    constr:    0.0000
     atom:   52    charge:    1.7159    magn:    0.0040    constr:    0.0000

     End of self-consistent calculation

 ------ SPIN UP ------------

          k = 0.0000 0.0000 0.0000 ( 87777 PWs)   bands (ev):

   -19.8448 -19.0304 -18.9743 -18.9105 -18.8978 -18.8443 -18.7714 -17.1783
   -17.1658 -17.1311 -17.1067 -17.0724 -16.8139 -16.3410 -16.3158 -16.1969
   -16.1740 -16.1620 -15.7768 -14.4422 -14.4025 -14.1293 -14.0411 -14.0298
   -13.5822 -13.1694 -13.1667 -13.0815 -12.9537 -12.9283 -12.6343 -12.3134
   -12.3029 -11.7162 -11.6167 -11.6076 -11.1868 -10.9413 -10.9124  -9.5237
    -9.3829  -9.3683  -9.3603  -9.2444  -9.2356  -9.2349  -9.2247  -9.0855
    -9.0655  -9.0518  -8.9715  -8.7289  -8.7092  -8.2935  -7.8958  -7.8685
    -7.6807  -7.6718  -7.6306  -7.5349  -7.5265  -6.8855  -6.8528  -6.8337
    -6.8137  -6.7840  -6.7453  -6.6932  -6.6289  -6.6088  -6.5837  -6.5711
    -6.5600  -6.5230  -6.4095  -6.3801  -6.1675  -5.6154  -5.6096  -5.0293
    -4.9595  -4.8885  -4.8808  -4.7822  -4.7566  -4.7290  -4.6975  -4.5496
    -4.5273  -4.2583  -3.8655  -3.8452  -3.8236  -3.8123  -3.7850  -3.6491
    -3.6261  -3.1776  -1.8888  -1.8332  -1.8246  -1.7413  -1.7332  -1.1548
    -0.8320  -0.8073   0.9023   0.9348   0.9477   1.0803   1.0928   1.5037
     2.4831   2.7708   2.7910   2.8348   2.9017   2.9260   3.3195   3.5438
     3.6387   3.7273   3.7342   3.7525   3.9328   4.1940

     occupation numbers
     1.0000   1.0000   1.0000   1.0000   1.0000   1.0000   1.0000   1.0000
     1.0000   1.0000   1.0000   1.0000   1.0000   1.0000   1.0000   1.0000
     1.0000   1.0000   1.0000   1.0000   1.0000   1.0000   1.0000   1.0000
     1.0000   1.0000   1.0000   1.0000   1.0000   1.0000   1.0000   1.0000
     1.0000   1.0000   1.0000   1.0000   1.0000   1.0000   1.0000   1.0000
     1.0000   1.0000   1.0000   1.0000   1.0000   1.0000   1.0000   1.0000
     1.0000   1.0000   1.0000   1.0000   1.0000   1.0000   1.0000   1.0000
     1.0000   1.0000   1.0000   1.0000   1.0000   1.0000   1.0000   1.0000
     1.0000   1.0000   1.0000   1.0000   1.0000   1.0000   1.0000   1.0000
     1.0000   1.0000   1.0000   1.0000   1.0000   1.0000   1.0000   1.0000
     1.0000   1.0000   1.0000   1.0000   1.0000   1.0000   1.0000   1.0000
     1.0000   1.0000   1.0000   1.0000   1.0000   1.0000   1.0000   1.0000
     1.0000   1.0000   1.0000   1.0000   1.0000   1.0000   1.0000   1.0000
     0.9675   0.0325   0.0000   0.0000   0.0000   0.0000   0.0000   0.0000
     0.0000   0.0000   0.0000   0.0000   0.0000   0.0000   0.0000   0.0000
     0.0000   0.0000   0.0000   0.0000   0.0000   0.0000

 ------ SPIN DOWN ----------

          k = 0.0000 0.0000 0.0000 ( 87777 PWs)   bands (ev):

   -19.8211 -19.0094 -18.9406 -18.8988 -18.8888 -18.8413 -18.7007 -17.1459
   -17.1318 -17.1118 -17.0957 -17.0360 -16.7819 -16.3088 -16.2775 -16.1866
   -16.1550 -16.1394 -15.7066 -14.3428 -14.3282 -14.1057 -14.0331 -14.0201
   -13.5417 -13.1436 -13.1419 -13.0689 -12.9338 -12.8776 -12.5762 -12.2157
   -12.1833 -11.6971 -11.5959 -11.5603 -11.1010 -10.8039 -10.7771  -9.4826
    -9.3533  -9.3383  -9.2743  -9.2363  -9.2273  -9.2251  -9.2112  -9.0142
    -9.0018  -8.8841  -8.8333  -8.7003  -8.6503  -8.2477  -7.8710  -7.8494
    -7.6528  -7.6215  -7.5962  -7.5222  -7.5048  -6.8582  -6.8410  -6.8270
    -6.7839  -6.7726  -6.7339  -6.6775  -6.6066  -6.5886  -6.5778  -6.5654
    -6.5555  -6.5156  -6.3679  -6.3397  -6.1287  -5.5985  -5.5728  -5.0102
    -4.9492  -4.8696  -4.8609  -4.7650  -4.7396  -4.7273  -4.6091  -4.5369
    -4.5091  -4.2037  -3.8613  -3.8407  -3.7948  -3.7908  -3.7847  -3.6371
    -3.6031  -3.1305  -1.8857  -1.8308  -1.8226  -1.7212  -1.7100  -1.1119
    -0.6298  -0.2221   0.9056   0.9388   0.9505   1.0917   1.1260   1.5192
     2.4833   2.7731   2.7927   2.8356   2.9181   2.9638   3.3286   3.5486
     3.6414   3.7265   3.7336   3.7514   3.9398   4.1943

     occupation numbers
     1.0000   1.0000   1.0000   1.0000   1.0000   1.0000   1.0000   1.0000
     1.0000   1.0000   1.0000   1.0000   1.0000   1.0000   1.0000   1.0000
     1.0000   1.0000   1.0000   1.0000   1.0000   1.0000   1.0000   1.0000
     1.0000   1.0000   1.0000   1.0000   1.0000   1.0000   1.0000   1.0000
     1.0000   1.0000   1.0000   1.0000   1.0000   1.0000   1.0000   1.0000
     1.0000   1.0000   1.0000   1.0000   1.0000   1.0000   1.0000   1.0000
     1.0000   1.0000   1.0000   1.0000   1.0000   1.0000   1.0000   1.0000
     1.0000   1.0000   1.0000   1.0000   1.0000   1.0000   1.0000   1.0000
     1.0000   1.0000   1.0000   1.0000   1.0000   1.0000   1.0000   1.0000
     1.0000   1.0000   1.0000   1.0000   1.0000   1.0000   1.0000   1.0000
     1.0000   1.0000   1.0000   1.0000   1.0000   1.0000   1.0000   1.0000
     1.0000   1.0000   1.0000   1.0000   1.0000   1.0000   1.0000   1.0000
     1.0000   1.0000   1.0000   1.0000   1.0000   1.0000   1.0000   1.0000
     0.0000   0.0000   0.0000   0.0000   0.0000   0.0000   0.0000   0.0000
     0.0000   0.0000   0.0000   0.0000   0.0000   0.0000   0.0000   0.0000
     0.0000   0.0000   0.0000   0.0000   0.0000   0.0000

     the Fermi energy is    -0.8205 ev

!    total energy              =    -734.69762791 Ry
     Harris-Foulkes estimate   =    -734.69762844 Ry
     estimated scf accuracy    <       0.00000076 Ry

     The total energy is the sum of the following terms:

     one-electron contribution =   -2515.85577132 Ry
     hartree contribution      =    1313.70185248 Ry
     xc contribution           =    -276.03602115 Ry
     ewald contribution        =     743.49229898 Ry
     smearing contrib. (-TS)   =       0.00001311 Ry

     total magnetization       =     1.00 Bohr mag/cell
     absolute magnetization    =     1.12 Bohr mag/cell

     convergence has been achieved in  30 iterations

     Writing output data file cobre-baricentro-distance-2.0.save/

     General routines

     Parallel routines

   This run was terminated on:  15:27: 3   8Sep2022

   JOB DONE.