     Program PWSCF v.6.4.1 starts on  8Sep2022 at 13:27:21

     R & G space division:  proc/nbgrp/npool/nimage =       6
     Reading input from distance-2.2.in

     Current dimensions of program PWSCF are:
     Max number of different atomic species (ntypx) = 10
     Max number of k-points (npk) =  40000
     Max angular momentum in pseudopotentials (lmaxx) =  3

     IMPORTANT: XC functional enforced from input :
     Exchange-correlation      = RVV10 ( 1  4 13  4 3 0)
     Any further DFT definition will be discarded
     Please, verify this is what you really want

               file H.pbe-rrkjus.UPF: wavefunction(s)  1S renormalized
               file Cu.pbe-dn-rrkjus_psl.1.0.0.UPF: wavefunction(s)  3D renormalized

     Subspace diagonalization in iterative solution of the eigenvalue problem:
     a serial algorithm will be used

     bravais-lattice index     =            4
     lattice parameter (alat)  =      23.2937  a.u.
     unit-cell volume          =    8879.8548 (a.u.)^3
     number of atoms/cell      =           52
     number of atomic types    =            3
     number of electrons       =       209.00
     number of Kohn-Sham states=          126
     kinetic-energy cutoff     =      70.0000  Ry
     charge density cutoff     =     490.0000  Ry
     convergence threshold     =      1.0E-06
     mixing beta               =       0.7000
     number of iterations used =            8  plain     mixing
     Exchange-correlation      = RVV10 ( 1  4 13  4 3 0)

     celldm(1)=  23.293684  celldm(2)=   0.000000  celldm(3)=   0.811261
     celldm(4)=   0.000000  celldm(5)=   0.000000  celldm(6)=   0.000000

     crystal axes: (cart. coord. in units of alat)
               a(1) = (   1.000000   0.000000   0.000000 )
               a(2) = (  -0.500000   0.866025   0.000000 )
               a(3) = (   0.000000   0.000000   0.811261 )

     reciprocal axes: (cart. coord. in units 2 pi/alat)
               b(1) = (  1.000000  0.577350 -0.000000 )
               b(2) = (  0.000000  1.154701  0.000000 )
               b(3) = (  0.000000 -0.000000  1.232649 )

     PseudoPot. # 1 for H  read from file:
     /home/cristian/Escritorio/Proyecto_Grafeno/pseudopotenciales/H.pbe-rrkjus.UPF
     MD5 check sum: 7cc9d459525c9a0585f487a71c3c9563
     Pseudo is Ultrasoft, Zval =  1.0
     Generated by new atomic code, or converted to UPF format
     Using radial grid of 1061 points,  2 beta functions with:
                l(1) =   0
                l(2) =   0
     Q(r) pseudized with 0 coefficients

     PseudoPot. # 2 for C  read from file:
     /home/cristian/Escritorio/Proyecto_Grafeno/pseudopotenciales/C.pbe-n-rrkjus_psl.1.0.0.UPF
     MD5 check sum: 1fdd950c42eb37d8afe3dd2f8d12311e
     Pseudo is Ultrasoft + core correction, Zval =  4.0
     Generated using "atomic" code by A. Dal Corso v.6.3MaX
     Using radial grid of 1073 points,  4 beta functions with:
                l(1) =   0
                l(2) =   0
                l(3) =   1
                l(4) =   1
     Q(r) pseudized with 0 coefficients

     PseudoPot. # 3 for Cu read from file:
     /home/cristian/Escritorio/Proyecto_Grafeno/pseudopotenciales/Cu.pbe-dn-rrkjus_psl.1.0.0.UPF
     MD5 check sum: ba3d6c84e19846e79d48cdc68ff7152b
     Pseudo is Ultrasoft + core correction, Zval = 11.0
     Generated using "atomic" code by A. Dal Corso v.6.3
     Using radial grid of 1199 points,  6 beta functions with:
                l(1) =   0
                l(2) =   0
                l(3) =   1
                l(4) =   1
                l(5) =   2
                l(6) =   2
     Q(r) pseudized with 0 coefficients

     vdW kernel table read from file rVV10_kernel_table
     MD5 check sum: b8e2538accc0c0b3206b45ba4daaba6c

     atomic species   valence    mass     pseudopotential
        H              1.00     1.00794     H ( 1.00)
        C              4.00    12.01070     C ( 1.00)
        Cu            11.00    63.54600     Cu( 1.00)

     Starting magnetic structure
     atomic species   magnetization
        H            0.500
        C            0.300
        Cu           0.800

     No symmetry found

                                    s                        frac. trans.

      isym =  1     identity

 cryst.   s( 1) = (     1          0          0      )
                  (     0          1          0      )
                  (     0          0          1      )

 cart.    s( 1) = (  1.0000000  0.0000000  0.0000000 )
                  (  0.0000000  1.0000000  0.0000000 )
                  (  0.0000000  0.0000000  1.0000000 )

     point group C_1 (1)
     there are  1 classes
     the character table:

       E
A      1.00

     the symmetry operations in each class and the name of the first element:

     E        1
          identity

   Cartesian axes

     site n.     atom                  positions (alat units)
         1           H   tau(   1) = (   0.2361603   0.4618802   0.1784775  )
         2           H   tau(   2) = (   0.2971730   0.4618802   0.1784775  )
         3           C   tau(   3) = (   0.0000000   0.0000000   0.0000000  )
         4           C   tau(   4) = (   0.0000000   0.1154701   0.0000000  )
         5           C   tau(   5) = (  -0.1000000   0.1732051   0.0000000  )
         6           C   tau(   6) = (  -0.1000000   0.2886751   0.0000000  )
         7           C   tau(   7) = (  -0.2000000   0.3464102   0.0000000  )
         8           C   tau(   8) = (  -0.2000000   0.4618802   0.0000000  )
         9           C   tau(   9) = (  -0.3000000   0.5196152   0.0000000  )
        10           C   tau(  10) = (  -0.3000000   0.6350853   0.0000000  )
        11           C   tau(  11) = (  -0.4000000   0.6928203   0.0000000  )
        12           C   tau(  12) = (  -0.4000000   0.8082904   0.0000000  )
        13           C   tau(  13) = (   0.2000000   0.0000000   0.0000000  )
        14           C   tau(  14) = (   0.2000000   0.1154701   0.0000000  )
        15           C   tau(  15) = (   0.1000000   0.1732051   0.0000000  )
        16           C   tau(  16) = (   0.1000000   0.2886751   0.0000000  )
        17           C   tau(  17) = (   0.0000000   0.3464102   0.0000000  )
        18           C   tau(  18) = (   0.0000000   0.4618802   0.0000000  )
        19           C   tau(  19) = (  -0.1000000   0.5196152   0.0000000  )
        20           C   tau(  20) = (  -0.1000000   0.6350853   0.0000000  )
        21           C   tau(  21) = (  -0.2000000   0.6928203   0.0000000  )
        22           C   tau(  22) = (  -0.2000000   0.8082904   0.0000000  )
        23           C   tau(  23) = (   0.4000000   0.0000000   0.0000000  )
        24           C   tau(  24) = (   0.4000000   0.1154701   0.0000000  )
        25           C   tau(  25) = (   0.3000000   0.1732051   0.0000000  )
        26           C   tau(  26) = (   0.3000000   0.2886751   0.0000000  )
        27           C   tau(  27) = (   0.2000000   0.3464102   0.0000000  )
        28           Cu  tau(  28) = (   0.2000000   0.4618802   0.0000000  )
        29           C   tau(  29) = (   0.1000000   0.5196152   0.0000000  )
        30           C   tau(  30) = (   0.1000000   0.6350853   0.0000000  )
        31           C   tau(  31) = (   0.0000000   0.6928203   0.0000000  )
        32           C   tau(  32) = (   0.0000000   0.8082904   0.0000000  )
        33           C   tau(  33) = (   0.6000000   0.0000000   0.0000000  )
        34           C   tau(  34) = (   0.6000000   0.1154701   0.0000000  )
        35           C   tau(  35) = (   0.5000000   0.1732051   0.0000000  )
        36           C   tau(  36) = (   0.5000000   0.2886751   0.0000000  )
        37           C   tau(  37) = (   0.4000000   0.3464102   0.0000000  )
        38           C   tau(  38) = (   0.4000000   0.4618802   0.0000000  )
        39           C   tau(  39) = (   0.3000000   0.5196152   0.0000000  )
        40           C   tau(  40) = (   0.3000000   0.6350853   0.0000000  )
        41           C   tau(  41) = (   0.2000000   0.6928203   0.0000000  )
        42           C   tau(  42) = (   0.2000000   0.8082904   0.0000000  )
        43           C   tau(  43) = (   0.8000000   0.0000000   0.0000000  )
        44           C   tau(  44) = (   0.8000000   0.1154701   0.0000000  )
        45           C   tau(  45) = (   0.7000000   0.1732051   0.0000000  )
        46           C   tau(  46) = (   0.7000000   0.2886751   0.0000000  )
        47           C   tau(  47) = (   0.6000000   0.3464102   0.0000000  )
        48           C   tau(  48) = (   0.6000000   0.4618802   0.0000000  )
        49           C   tau(  49) = (   0.5000000   0.5196152   0.0000000  )
        50           C   tau(  50) = (   0.5000000   0.6350853   0.0000000  )
        51           C   tau(  51) = (   0.4000000   0.6928203   0.0000000  )
        52           C   tau(  52) = (   0.4000000   0.8082904   0.0000000  )

   Crystallographic axes

     site n.     atom                  positions (cryst. coord.)
         1           H   tau(   1) = (  0.5028270  0.5333333  0.2200000  )
         2           H   tau(   2) = (  0.5638397  0.5333333  0.2200000  )
         3           C   tau(   3) = (  0.0000000  0.0000000  0.0000000  )
         4           C   tau(   4) = (  0.0666667  0.1333333  0.0000000  )
         5           C   tau(   5) = (  0.0000000  0.2000000  0.0000000  )
         6           C   tau(   6) = (  0.0666667  0.3333333  0.0000000  )
         7           C   tau(   7) = (  0.0000000  0.4000000  0.0000000  )
         8           C   tau(   8) = (  0.0666667  0.5333333  0.0000000  )
         9           C   tau(   9) = (  0.0000000  0.6000000  0.0000000  )
        10           C   tau(  10) = (  0.0666667  0.7333333  0.0000000  )
        11           C   tau(  11) = (  0.0000000  0.8000000  0.0000000  )
        12           C   tau(  12) = (  0.0666667  0.9333333  0.0000000  )
        13           C   tau(  13) = (  0.2000000  0.0000000  0.0000000  )
        14           C   tau(  14) = (  0.2666667  0.1333333  0.0000000  )
        15           C   tau(  15) = (  0.2000000  0.2000000  0.0000000  )
        16           C   tau(  16) = (  0.2666667  0.3333333  0.0000000  )
        17           C   tau(  17) = (  0.2000000  0.4000000  0.0000000  )
        18           C   tau(  18) = (  0.2666667  0.5333333  0.0000000  )
        19           C   tau(  19) = (  0.2000000  0.6000000  0.0000000  )
        20           C   tau(  20) = (  0.2666667  0.7333333  0.0000000  )
        21           C   tau(  21) = (  0.2000000  0.8000000  0.0000000  )
        22           C   tau(  22) = (  0.2666667  0.9333333  0.0000000  )
        23           C   tau(  23) = (  0.4000000  0.0000000  0.0000000  )
        24           C   tau(  24) = (  0.4666667  0.1333333  0.0000000  )
        25           C   tau(  25) = (  0.4000000  0.2000000  0.0000000  )
        26           C   tau(  26) = (  0.4666667  0.3333333  0.0000000  )
        27           C   tau(  27) = (  0.4000000  0.4000000  0.0000000  )
        28           Cu  tau(  28) = (  0.4666667  0.5333333  0.0000000  )
        29           C   tau(  29) = (  0.4000000  0.6000000  0.0000000  )
        30           C   tau(  30) = (  0.4666667  0.7333333  0.0000000  )
        31           C   tau(  31) = (  0.4000000  0.8000000  0.0000000  )
        32           C   tau(  32) = (  0.4666667  0.9333333  0.0000000  )
        33           C   tau(  33) = (  0.6000000  0.0000000  0.0000000  )
        34           C   tau(  34) = (  0.6666667  0.1333333  0.0000000  )
        35           C   tau(  35) = (  0.6000000  0.2000000  0.0000000  )
        36           C   tau(  36) = (  0.6666667  0.3333333  0.0000000  )
        37           C   tau(  37) = (  0.6000000  0.4000000  0.0000000  )
        38           C   tau(  38) = (  0.6666667  0.5333333  0.0000000  )
        39           C   tau(  39) = (  0.6000000  0.6000000  0.0000000  )
        40           C   tau(  40) = (  0.6666667  0.7333333  0.0000000  )
        41           C   tau(  41) = (  0.6000000  0.8000000  0.0000000  )
        42           C   tau(  42) = (  0.6666667  0.9333333  0.0000000  )
        43           C   tau(  43) = (  0.8000000  0.0000000  0.0000000  )
        44           C   tau(  44) = (  0.8666667  0.1333333  0.0000000  )
        45           C   tau(  45) = (  0.8000000  0.2000000  0.0000000  )
        46           C   tau(  46) = (  0.8666667  0.3333333  0.0000000  )
        47           C   tau(  47) = (  0.8000000  0.4000000  0.0000000  )
        48           C   tau(  48) = (  0.8666667  0.5333333  0.0000000  )
        49           C   tau(  49) = (  0.8000000  0.6000000  0.0000000  )
        50           C   tau(  50) = (  0.8666667  0.7333333  0.0000000  )
        51           C   tau(  51) = (  0.8000000  0.8000000  0.0000000  )
        52           C   tau(  52) = (  0.8666667  0.9333333  0.0000000  )

     number of k points=     1  Marzari-Vanderbilt smearing, width (Ry)=  0.0010
                       cart. coord. in units 2pi/alat
        k(    1) = (   0.0000000   0.0000000   0.0000000), wk =   1.0000000

                       cryst. coord.
        k(    1) = (   0.0000000   0.0000000   0.0000000), wk =   1.0000000

     Check: negative core charge=   -0.000002

     Initial potential from superposition of free atoms

     starting charge  208.80532, renormalised to  209.00000

     negative rho (up, down):  7.123E-05 1.280E-02

Carrying out rVV10 run using the following parameters:
Nqs =      20    Nr_points =    1024   r_max =   100.000
b_value =  6.30000    beta =  0.00901
     q_mesh =  0.00010000  0.00030000  0.00058939  0.00100810
               0.00161396  0.00249058  0.00375900  0.00559430
               0.00824984  0.01209221  0.01765183  0.02569619
               0.03733578  0.05417739  0.07854596  0.11380545
               0.16482331  0.23864234  0.34545298  0.50000000

Gradients computed in Reciprocal space

     Starting wfcs are  207 randomized atomic wfcs

     Self-consistent Calculation

     iteration #  1     ecut=    70.00 Ry     beta= 0.70
     Davidson diagonalization with overlap
     ethr =  1.00E-02,  avg # of iterations =  6.0

[...]

     total energy              =    -731.33726549 Ry
     Harris-Foulkes estimate   =    -734.81308223 Ry
     estimated scf accuracy    <      10.60617218 Ry

     total magnetization       =     3.00 Bohr mag/cell
     absolute magnetization    =     4.33 Bohr mag/cell

[...]

     total energy              =    -734.72657167 Ry
     Harris-Foulkes estimate   =    -734.72657179 Ry
     estimated scf accuracy    <       0.00000298 Ry

[...]

     iteration # 35     ecut=    70.00 Ry     beta= 0.70
     Davidson diagonalization with overlap
     ethr =  1.43E-09,  avg # of iterations =  1.5

     negative rho (up, down):  6.618E-04 1.894E-03

     Magnetic moment per site:
     atom:    1    charge:    0.2146    magn:    0.0002    constr:    0.0000
     atom:    2    charge:    0.2137    magn:   -0.0001    constr:    0.0000
     atom:    3    charge:    1.7159    magn:    0.0022    constr:    0.0000
     atom:    4    charge:    1.7155    magn:    0.0024    constr:    0.0000
     atom:    5    charge:    1.7169    magn:    0.0001    constr:    0.0000
     atom:    6    charge:    1.7145    magn:   -0.0000    constr:    0.0000
     atom:    7    charge:    1.7171    magn:   -0.0001    constr:    0.0000
     atom:    8    charge:    1.7151    magn:    0.0011    constr:    0.0000
     atom:    9    charge:    1.7157    magn:    0.0010    constr:    0.0000
     atom:   10    charge:    1.7170    magn:   -0.0010    constr:    0.0000
     atom:   11    charge:    1.7159    magn:    0.0006    constr:    0.0000
     atom:   12    charge:    1.7171    magn:   -0.0009    constr:    0.0000
     atom:   13    charge:    1.7160    magn:    0.0007    constr:    0.0000
     atom:   14    charge:    1.7168    magn:   -0.0014    constr:    0.0000
     atom:   15    charge:    1.7136    magn:    0.0102    constr:    0.0000
     atom:   16    charge:    1.7106    magn:    0.0140    constr:    0.0000
     atom:   17    charge:    1.7216    magn:    0.0030    constr:    0.0000
     atom:   18    charge:    1.7108    magn:    0.0121    constr:    0.0000
     atom:   19    charge:    1.7125    magn:    0.0041    constr:    0.0000
     atom:   20    charge:    1.7168    magn:   -0.0006    constr:    0.0000
     atom:   21    charge:    1.7160    magn:    0.0004    constr:    0.0000
     atom:   22    charge:    1.7170    magn:   -0.0009    constr:    0.0000
     atom:   23    charge:    1.7158    magn:    0.0016    constr:    0.0000
     atom:   24    charge:    1.7152    magn:    0.0015    constr:    0.0000
     atom:   25    charge:    1.7132    magn:    0.0086    constr:    0.0000
     atom:   26    charge:    1.7093    magn:    0.0085    constr:    0.0000
     atom:   27    charge:    1.8250    magn:    0.1061    constr:    0.0000
     atom:   28    charge:    7.0310    magn:    0.1544    constr:    0.0000
     atom:   29    charge:    1.8130    magn:    0.0512    constr:    0.0000
     atom:   30    charge:    1.7119    magn:    0.0183    constr:    0.0000
     atom:   31    charge:    1.7130    magn:    0.0059    constr:    0.0000
     atom:   32    charge:    1.7153    magn:    0.0020    constr:    0.0000
     atom:   33    charge:    1.7170    magn:   -0.0002    constr:    0.0000
     atom:   34    charge:    1.7152    magn:    0.0000    constr:    0.0000
     atom:   35    charge:    1.7170    magn:    0.0001    constr:    0.0000
     atom:   36    charge:    1.7147    magn:   -0.0002    constr:    0.0000
     atom:   37    charge:    1.7213    magn:    0.0045    constr:    0.0000
     atom:   38    charge:    1.7109    magn:    0.0073    constr:    0.0000
     atom:   39    charge:    1.8207    magn:    0.0801    constr:    0.0000
     atom:   40    charge:    1.7121    magn:    0.0191    constr:    0.0000
     atom:   41    charge:    1.7211    magn:    0.0015    constr:    0.0000
     atom:   42    charge:    1.7146    magn:    0.0001    constr:    0.0000
     atom:   43    charge:    1.7170    magn:   -0.0001    constr:    0.0000
     atom:   44    charge:    1.7153    magn:    0.0001    constr:    0.0000
     atom:   45    charge:    1.7212    magn:   -0.0008    constr:    0.0000
     atom:   46    charge:    1.7153    magn:   -0.0000    constr:    0.0000
     atom:   47    charge:    1.7169    magn:    0.0001    constr:    0.0000
     atom:   48    charge:    1.7151    magn:    0.0009    constr:    0.0000
     atom:   49    charge:    1.7124    magn:    0.0056    constr:    0.0000
     atom:   50    charge:    1.7170    magn:   -0.0010    constr:    0.0000
     atom:   51    charge:    1.7133    magn:    0.0089    constr:    0.0000
     atom:   52    charge:    1.7155    magn:    0.0027    constr:    0.0000

     End of self-consistent calculation

 ------ SPIN UP ------------

          k = 0.0000 0.0000 0.0000 ( 87777 PWs)   bands (ev):

   -19.8432 -19.0132 -18.9876 -18.9083 -18.9027 -18.8439 -18.7677 -17.1719
   -17.1677 -17.1332 -17.0979 -17.0820 -16.8120 -16.3339 -16.3237 -16.1900
   -16.1797 -16.1623 -15.7727 -14.4305 -14.4153 -14.1301 -14.0387 -14.0332
   -13.5792 -13.1685 -13.1675 -13.0817 -12.9451 -12.9335 -12.6336 -12.3131
   -12.3099 -11.7159 -11.6126 -11.6089 -11.1857 -10.9371 -10.9261  -9.5231
    -9.3672  -9.3638  -9.2447  -9.2359  -9.2351  -9.2282  -9.2084  -9.0907
    -9.0627  -9.0573  -8.9665  -8.7225  -8.7139  -8.1297  -7.8968  -7.8574
    -7.6686  -7.6605  -7.5646  -7.5344  -7.5050  -6.8844  -6.8475  -6.8396
    -6.8160  -6.7832  -6.7309  -6.7060  -6.6246  -6.6149  -6.5776  -6.5720
    -6.5652  -6.5235  -6.4024  -6.3906  -6.2113  -5.6148  -5.6120  -5.0297
    -4.9586  -4.8879  -4.8844  -4.8095  -4.7636  -4.7286  -4.7200  -4.5438
    -4.5349  -4.3534  -3.8598  -3.8506  -3.8213  -3.8164  -3.7848  -3.6414
    -3.6344  -3.2855  -1.8875  -1.8311  -1.8267  -1.7389  -1.7343  -1.1851
    -0.8324  -0.8250   0.9053   0.9389   0.9464   1.0861   1.0922   1.4995
     2.4869   2.7785   2.7911   2.8358   2.9124   2.9249   3.3229   3.5197
     3.6274   3.7270   3.7326   3.7520   3.9291   4.2152

     occupation numbers
     1.0000   1.0000   1.0000   1.0000   1.0000   1.0000   1.0000   1.0000
     1.0000   1.0000   1.0000   1.0000   1.0000   1.0000   1.0000   1.0000
     1.0000   1.0000   1.0000   1.0000   1.0000   1.0000   1.0000   1.0000
     1.0000   1.0000   1.0000   1.0000   1.0000   1.0000   1.0000   1.0000
     1.0000   1.0000   1.0000   1.0000   1.0000   1.0000   1.0000   1.0000
     1.0000   1.0000   1.0000   1.0000   1.0000   1.0000   1.0000   1.0000
     1.0000   1.0000   1.0000   1.0000   1.0000   1.0000   1.0000   1.0000
     1.0000   1.0000   1.0000   1.0000   1.0000   1.0000   1.0000   1.0000
     1.0000   1.0000   1.0000   1.0000   1.0000   1.0000   1.0000   1.0000
     1.0000   1.0000   1.0000   1.0000   1.0000   1.0000   1.0000   1.0000
     1.0000   1.0000   1.0000   1.0000   1.0000   1.0000   1.0000   1.0000
     1.0000   1.0000   1.0000   1.0000   1.0000   1.0000   1.0000   1.0000
     1.0000   1.0000   1.0000   1.0000   1.0000   1.0000   1.0000   1.0000
     0.6923   0.3077   0.0000   0.0000   0.0000   0.0000   0.0000   0.0000
     0.0000   0.0000   0.0000   0.0000   0.0000   0.0000   0.0000   0.0000
     0.0000   0.0000   0.0000   0.0000   0.0000   0.0000

 ------ SPIN DOWN ----------

          k = 0.0000 0.0000 0.0000 ( 87777 PWs)   bands (ev):

   -19.8185 -18.9850 -18.9527 -18.9011 -18.8952 -18.8407 -18.6934 -17.1341
   -17.1304 -17.1160 -17.0811 -17.0540 -16.7789 -16.2986 -16.2853 -16.1734
   -16.1557 -16.1523 -15.6983 -14.3363 -14.3315 -14.1061 -14.0306 -14.0248
   -13.5374 -13.1430 -13.1425 -13.0688 -12.9150 -12.8909 -12.5705 -12.2091
   -12.1943 -11.6964 -11.5838 -11.5689 -11.0848 -10.8057 -10.7940  -9.4825
    -9.3493  -9.3429  -9.2370  -9.2268  -9.2261  -9.2137  -9.0711  -9.0039
    -9.0026  -8.9021  -8.8387  -8.6867  -8.6653  -8.1017  -7.8724  -7.8362
    -7.6184  -7.6133  -7.5477  -7.5147  -7.4860  -6.8512  -6.8408  -6.8322
    -6.7836  -6.7753  -6.7177  -6.6917  -6.6026  -6.5934  -6.5712  -6.5670
    -6.5609  -6.5172  -6.3608  -6.3496  -6.1795  -5.5911  -5.5809  -5.0106
    -4.9487  -4.8679  -4.8644  -4.7619  -4.7364  -4.7272  -4.6311  -4.5325
    -4.5197  -4.3147  -3.8557  -3.8463  -3.7945  -3.7926  -3.7856  -3.6247
    -3.6143  -3.2427  -1.8839  -1.8290  -1.8246  -1.7167  -1.7126  -1.1449
    -0.5154  -0.3445   0.9083   0.9424   0.9496   1.1050   1.1193   1.5129
     2.4870   2.7807   2.7931   2.8365   2.9342   2.9566   3.3307   3.5262
     3.6293   3.7262   3.7318   3.7506   3.9356   4.2149

     occupation numbers
     1.0000   1.0000   1.0000   1.0000   1.0000   1.0000   1.0000   1.0000
     1.0000   1.0000   1.0000   1.0000   1.0000   1.0000   1.0000   1.0000
     1.0000   1.0000   1.0000   1.0000   1.0000   1.0000   1.0000   1.0000
     1.0000   1.0000   1.0000   1.0000   1.0000   1.0000   1.0000   1.0000
     1.0000   1.0000   1.0000   1.0000   1.0000   1.0000   1.0000   1.0000
     1.0000   1.0000   1.0000   1.0000   1.0000   1.0000   1.0000   1.0000
     1.0000   1.0000   1.0000   1.0000   1.0000   1.0000   1.0000   1.0000
     1.0000   1.0000   1.0000   1.0000   1.0000   1.0000   1.0000   1.0000
     1.0000   1.0000   1.0000   1.0000   1.0000   1.0000   1.0000   1.0000
     1.0000   1.0000   1.0000   1.0000   1.0000   1.0000   1.0000   1.0000
     1.0000   1.0000   1.0000   1.0000   1.0000   1.0000   1.0000   1.0000
     1.0000   1.0000   1.0000   1.0000   1.0000   1.0000   1.0000   1.0000
     1.0000   1.0000   1.0000   1.0000   1.0000   1.0000   1.0000   1.0000
     0.0000   0.0000   0.0000   0.0000   0.0000   0.0000   0.0000   0.0000
     0.0000   0.0000   0.0000   0.0000   0.0000   0.0000   0.0000   0.0000
     0.0000   0.0000   0.0000   0.0000   0.0000   0.0000

     the Fermi energy is    -0.8270 ev

!    total energy              =    -734.72657135 Ry
     Harris-Foulkes estimate   =    -734.72657178 Ry
     estimated scf accuracy    <       0.00000090 Ry

     The total energy is the sum of the following terms:

     one-electron contribution =   -2510.26285131 Ry
     hartree contribution      =    1310.89092699 Ry
     xc contribution           =    -275.99528856 Ry
     ewald contribution        =     740.64091866 Ry
     smearing contrib. (-TS)   =      -0.00027714 Ry

     total magnetization       =     1.00 Bohr mag/cell
     absolute magnetization    =     1.07 Bohr mag/cell

     convergence has been achieved in  35 iterations

     Writing output data file cobre-baricentro-distance-2.2.save/

     General routines

     Parallel routines

   This run was terminated on:  14:32: 7   8Sep2022

   JOB DONE.